<?xml version="1.0"?>
<VTKFile type="UnstructuredGrid" version="0.1">
<UnstructuredGrid>
<Piece NumberOfPoints="      1156" NumberOfCells="      1024">
<Points>
<DataArray type="Float64"                                    Name="coordinates"                                                      NumberOfComponents=" 3" format="ascii">
              0.133000000               0.000000000               0.000000000               0.155937500               0.000000000               0.000000000               0.178875000               0.000000000               0.000000000               0.201812500               0.000000000               0.000000000               0.224750000               0.000000000               0.000000000               0.247687500               0.000000000               0.000000000               0.270625000               0.000000000               0.000000000               0.293562500               0.000000000               0.000000000               0.316500000               0.000000000               0.000000000               0.339437500               0.000000000               0.000000000               0.362375000               0.000000000               0.000000000               0.385312500               0.000000000               0.000000000               0.408250000               0.000000000               0.000000000               0.431187500               0.000000000               0.000000000               0.454125000               0.000000000               0.000000000               0.477062500               0.000000000               0.000000000               0.500000000               0.000000000               0.000000000               0.132359569               0.013036280               0.000000000               0.155337096               0.016127762               0.000000000               0.178314623               0.019219245               0.000000000               0.201292150               0.022310727               0.000000000               0.224269676               0.025402210               0.000000000               0.247247203               0.028493692               0.000000000               0.270224730               0.031585175               0.000000000               0.293202257               0.034676657               0.000000000               0.316179784               0.037768140               0.000000000               0.339157311               0.040859622               0.000000000               0.362134838               0.043951105               0.000000000               0.385112365               0.047042587               0.000000000               0.408089892               0.050134070               0.000000000               0.431067419               0.053225552               0.000000000               0.454044946               0.056317035               0.000000000               0.477022473               0.059408517               0.000000000               0.500000000               0.062500000               0.000000000               0.130444442               0.025947013               0.000000000               0.153541665               0.032137825               0.000000000               0.176638887               0.038328636               0.000000000               0.199736109               0.044519448               0.000000000               0.222833332               0.050710260               0.000000000               0.245930554               0.056901071               0.000000000               0.269027776               0.063091883               0.000000000               0.292124999               0.069282695               0.000000000               0.315222221               0.075473506               0.000000000               0.338319444               0.081664318               0.000000000               0.361416666               0.087855130               0.000000000               0.384513888               0.094045942               0.000000000               0.407611111               0.100236753               0.000000000               0.430708333               0.106427565               0.000000000               0.453805555               0.112618377               0.000000000               0.476902778               0.118809188               0.000000000               0.500000000               0.125000000               0.000000000               0.127273065               0.038607862               0.000000000               0.150568498               0.047913621               0.000000000               0.173863932               0.057219379               0.000000000               0.197159365               0.066525138               0.000000000               0.220454798               0.075830897               0.000000000               0.243750232               0.085136655               0.000000000               0.267045665               0.094442414               0.000000000               0.290341099               0.103748172               0.000000000               0.313636532               0.113053931               0.000000000               0.336931966               0.122359690               0.000000000               0.360227399               0.131665448               0.000000000               0.383522833               0.140971207               0.000000000               0.406818266               0.150276966               0.000000000               0.430113700               0.159582724               0.000000000               0.453409133               0.168888483               0.000000000               0.476704567               0.178194241               0.000000000               0.500000000               0.187500000               0.000000000               0.122875978               0.050896897               0.000000000               0.146446229               0.063340840               0.000000000               0.170016481               0.075784784               0.000000000               0.193586732               0.088228728               0.000000000               0.217156983               0.100672672               0.000000000               0.240727235               0.113116616               0.000000000               0.264297486               0.125560560               0.000000000               0.287867738               0.138004504               0.000000000               0.311437989               0.150448448               0.000000000               0.335008240               0.162892392               0.000000000               0.358578492               0.175336336               0.000000000               0.382148743               0.187780280               0.000000000               0.405718994               0.200224224               0.000000000               0.429289246               0.212668168               0.000000000               0.452859497               0.225112112               0.000000000               0.476429749               0.237556056               0.000000000               0.500000000               0.250000000               0.000000000               0.117295528               0.062695766               0.000000000               0.141214558               0.078308531               0.000000000               0.165133587               0.093921295               0.000000000               0.189052617               0.109534060               0.000000000               0.212971646               0.125146824               0.000000000               0.236890676               0.140759589               0.000000000               0.260809705               0.156372354               0.000000000               0.284728735               0.171985118               0.000000000               0.308647764               0.187597883               0.000000000               0.332566794               0.203210648               0.000000000               0.356485823               0.218823412               0.000000000               0.380404853               0.234436177               0.000000000               0.404323882               0.250048941               0.000000000               0.428242912               0.265661706               0.000000000               0.452161941               0.281274471               0.000000000               0.476080971               0.296887235               0.000000000               0.500000000               0.312500000               0.000000000               0.110585458               0.073890841               0.000000000               0.134923867               0.092710163               0.000000000               0.159262276               0.111529486               0.000000000               0.183600685               0.130348808               0.000000000               0.207939094               0.149168131               0.000000000               0.232277503               0.167987453               0.000000000               0.256615912               0.186806776               0.000000000               0.280954320               0.205626098               0.000000000               0.305292729               0.224445420               0.000000000               0.329631138               0.243264743               0.000000000               0.353969547               0.262084065               0.000000000               0.378307956               0.280903388               0.000000000               0.402646365               0.299722710               0.000000000               0.426984773               0.318542033               0.000000000               0.451323182               0.337361355               0.000000000               0.475661591               0.356180678               0.000000000               0.500000000               0.375000000               0.000000000               0.102810390               0.084374307               0.000000000               0.127634741               0.106444663               0.000000000               0.152459092               0.128515018               0.000000000               0.177283442               0.150585374               0.000000000               0.202107793               0.172655730               0.000000000               0.226932143               0.194726086               0.000000000               0.251756494               0.216796442               0.000000000               0.276580845               0.238866798               0.000000000               0.301405195               0.260937153               0.000000000               0.326229546               0.283007509               0.000000000               0.351053896               0.305077865               0.000000000               0.375878247               0.327148221               0.000000000               0.400702598               0.349218577               0.000000000               0.425526948               0.371288933               0.000000000               0.450351299               0.393359288               0.000000000               0.475175649               0.415429644               0.000000000               0.500000000               0.437500000               0.000000000               0.094045202               0.094045202               0.000000000               0.119417377               0.119417377               0.000000000               0.144789552               0.144789552               0.000000000               0.170161727               0.170161727               0.000000000               0.195533901               0.195533901               0.000000000               0.220906076               0.220906076               0.000000000               0.246278251               0.246278251               0.000000000               0.271650426               0.271650426               0.000000000               0.297022601               0.297022601               0.000000000               0.322394776               0.322394776               0.000000000               0.347766951               0.347766951               0.000000000               0.373139126               0.373139126               0.000000000               0.398511300               0.398511300               0.000000000               0.423883475               0.423883475               0.000000000               0.449255650               0.449255650               0.000000000               0.474627825               0.474627825               0.000000000               0.500000000               0.500000000               0.000000000               0.084374307               0.102810390               0.000000000               0.106444663               0.127634741               0.000000000               0.128515018               0.152459092               0.000000000               0.150585374               0.177283442               0.000000000               0.172655730               0.202107793               0.000000000               0.194726086               0.226932143               0.000000000               0.216796442               0.251756494               0.000000000               0.238866798               0.276580845               0.000000000               0.260937153               0.301405195               0.000000000               0.283007509               0.326229546               0.000000000               0.305077865               0.351053896               0.000000000               0.327148221               0.375878247               0.000000000               0.349218577               0.400702598               0.000000000               0.371288933               0.425526948               0.000000000               0.393359288               0.450351299               0.000000000               0.415429644               0.475175649               0.000000000               0.437500000               0.500000000               0.000000000               0.073890841               0.110585458               0.000000000               0.092710163               0.134923867               0.000000000               0.111529486               0.159262276               0.000000000               0.130348808               0.183600685               0.000000000               0.149168131               0.207939094               0.000000000               0.167987453               0.232277503               0.000000000               0.186806776               0.256615912               0.000000000               0.205626098               0.280954320               0.000000000               0.224445420               0.305292729               0.000000000               0.243264743               0.329631138               0.000000000               0.262084065               0.353969547               0.000000000               0.280903388               0.378307956               0.000000000               0.299722710               0.402646365               0.000000000               0.318542033               0.426984773               0.000000000               0.337361355               0.451323182               0.000000000               0.356180678               0.475661591               0.000000000               0.375000000               0.500000000               0.000000000               0.062695766               0.117295528               0.000000000               0.078308531               0.141214558               0.000000000               0.093921295               0.165133587               0.000000000               0.109534060               0.189052617               0.000000000               0.125146824               0.212971646               0.000000000               0.140759589               0.236890676               0.000000000               0.156372354               0.260809705               0.000000000               0.171985118               0.284728735               0.000000000               0.187597883               0.308647764               0.000000000               0.203210648               0.332566794               0.000000000               0.218823412               0.356485823               0.000000000               0.234436177               0.380404853               0.000000000               0.250048941               0.404323882               0.000000000               0.265661706               0.428242912               0.000000000               0.281274471               0.452161941               0.000000000               0.296887235               0.476080971               0.000000000               0.312500000               0.500000000               0.000000000               0.050896897               0.122875978               0.000000000               0.063340840               0.146446229               0.000000000               0.075784784               0.170016481               0.000000000               0.088228728               0.193586732               0.000000000               0.100672672               0.217156983               0.000000000               0.113116616               0.240727235               0.000000000               0.125560560               0.264297486               0.000000000               0.138004504               0.287867738               0.000000000               0.150448448               0.311437989               0.000000000               0.162892392               0.335008240               0.000000000               0.175336336               0.358578492               0.000000000               0.187780280               0.382148743               0.000000000               0.200224224               0.405718994               0.000000000               0.212668168               0.429289246               0.000000000               0.225112112               0.452859497               0.000000000               0.237556056               0.476429749               0.000000000               0.250000000               0.500000000               0.000000000               0.038607862               0.127273065               0.000000000               0.047913621               0.150568498               0.000000000               0.057219379               0.173863932               0.000000000               0.066525138               0.197159365               0.000000000               0.075830897               0.220454798               0.000000000               0.085136655               0.243750232               0.000000000               0.094442414               0.267045665               0.000000000               0.103748172               0.290341099               0.000000000               0.113053931               0.313636532               0.000000000               0.122359690               0.336931966               0.000000000               0.131665448               0.360227399               0.000000000               0.140971207               0.383522833               0.000000000               0.150276966               0.406818266               0.000000000               0.159582724               0.430113700               0.000000000               0.168888483               0.453409133               0.000000000               0.178194241               0.476704567               0.000000000               0.187500000               0.500000000               0.000000000               0.025947013               0.130444442               0.000000000               0.032137825               0.153541665               0.000000000               0.038328636               0.176638887               0.000000000               0.044519448               0.199736109               0.000000000               0.050710260               0.222833332               0.000000000               0.056901071               0.245930554               0.000000000               0.063091883               0.269027776               0.000000000               0.069282695               0.292124999               0.000000000               0.075473506               0.315222221               0.000000000               0.081664318               0.338319444               0.000000000               0.087855130               0.361416666               0.000000000               0.094045942               0.384513888               0.000000000               0.100236753               0.407611111               0.000000000               0.106427565               0.430708333               0.000000000               0.112618377               0.453805555               0.000000000               0.118809188               0.476902778               0.000000000               0.125000000               0.500000000               0.000000000               0.013036280               0.132359569               0.000000000               0.016127762               0.155337096               0.000000000               0.019219245               0.178314623               0.000000000               0.022310727               0.201292150               0.000000000               0.025402210               0.224269676               0.000000000               0.028493692               0.247247203               0.000000000               0.031585175               0.270224730               0.000000000               0.034676657               0.293202257               0.000000000               0.037768140               0.316179784               0.000000000               0.040859622               0.339157311               0.000000000               0.043951105               0.362134838               0.000000000               0.047042587               0.385112365               0.000000000               0.050134070               0.408089892               0.000000000               0.053225552               0.431067419               0.000000000               0.056317035               0.454044946               0.000000000               0.059408517               0.477022473               0.000000000               0.062500000               0.500000000               0.000000000               0.000000000               0.133000000               0.000000000               0.000000000               0.155937500               0.000000000               0.000000000               0.178875000               0.000000000               0.000000000               0.201812500               0.000000000               0.000000000               0.224750000               0.000000000               0.000000000               0.247687500               0.000000000               0.000000000               0.270625000               0.000000000               0.000000000               0.293562500               0.000000000               0.000000000               0.316500000               0.000000000               0.000000000               0.339437500               0.000000000               0.000000000               0.362375000               0.000000000               0.000000000               0.385312500               0.000000000               0.000000000               0.408250000               0.000000000               0.000000000               0.431187500               0.000000000               0.000000000               0.454125000               0.000000000               0.000000000               0.477062500               0.000000000               0.000000000               0.500000000               0.000000000               0.133000000               0.000000000               0.000000000               0.155937500               0.000000000               0.000000000               0.178875000               0.000000000               0.000000000               0.201812500               0.000000000               0.000000000               0.224750000               0.000000000               0.000000000               0.247687500               0.000000000               0.000000000               0.270625000               0.000000000               0.000000000               0.293562500               0.000000000               0.000000000               0.316500000               0.000000000               0.000000000               0.339437500               0.000000000               0.000000000               0.362375000               0.000000000               0.000000000               0.385312500               0.000000000               0.000000000               0.408250000               0.000000000               0.000000000               0.431187500               0.000000000               0.000000000               0.454125000               0.000000000               0.000000000               0.477062500               0.000000000               0.000000000               0.500000000               0.000000000               0.000000000               0.132359569              -0.013036280               0.000000000               0.155337096              -0.016127762               0.000000000               0.178314623              -0.019219245               0.000000000               0.201292150              -0.022310727               0.000000000               0.224269676              -0.025402210               0.000000000               0.247247203              -0.028493692               0.000000000               0.270224730              -0.031585175               0.000000000               0.293202257              -0.034676657               0.000000000               0.316179784              -0.037768140               0.000000000               0.339157311              -0.040859622               0.000000000               0.362134838              -0.043951105               0.000000000               0.385112365              -0.047042587               0.000000000               0.408089892              -0.050134070               0.000000000               0.431067419              -0.053225552               0.000000000               0.454044946              -0.056317035               0.000000000               0.477022473              -0.059408517               0.000000000               0.500000000              -0.062500000               0.000000000               0.130444442              -0.025947013               0.000000000               0.153541665              -0.032137825               0.000000000               0.176638887              -0.038328636               0.000000000               0.199736109              -0.044519448               0.000000000               0.222833332              -0.050710260               0.000000000               0.245930554              -0.056901071               0.000000000               0.269027776              -0.063091883               0.000000000               0.292124999              -0.069282695               0.000000000               0.315222221              -0.075473506               0.000000000               0.338319444              -0.081664318               0.000000000               0.361416666              -0.087855130               0.000000000               0.384513888              -0.094045942               0.000000000               0.407611111              -0.100236753               0.000000000               0.430708333              -0.106427565               0.000000000               0.453805555              -0.112618377               0.000000000               0.476902778              -0.118809188               0.000000000               0.500000000              -0.125000000               0.000000000               0.127273065              -0.038607862               0.000000000               0.150568498              -0.047913621               0.000000000               0.173863932              -0.057219379               0.000000000               0.197159365              -0.066525138               0.000000000               0.220454798              -0.075830897               0.000000000               0.243750232              -0.085136655               0.000000000               0.267045665              -0.094442414               0.000000000               0.290341099              -0.103748172               0.000000000               0.313636532              -0.113053931               0.000000000               0.336931966              -0.122359690               0.000000000               0.360227399              -0.131665448               0.000000000               0.383522833              -0.140971207               0.000000000               0.406818266              -0.150276966               0.000000000               0.430113700              -0.159582724               0.000000000               0.453409133              -0.168888483               0.000000000               0.476704567              -0.178194241               0.000000000               0.500000000              -0.187500000               0.000000000               0.122875978              -0.050896897               0.000000000               0.146446229              -0.063340840               0.000000000               0.170016481              -0.075784784               0.000000000               0.193586732              -0.088228728               0.000000000               0.217156983              -0.100672672               0.000000000               0.240727235              -0.113116616               0.000000000               0.264297486              -0.125560560               0.000000000               0.287867738              -0.138004504               0.000000000               0.311437989              -0.150448448               0.000000000               0.335008240              -0.162892392               0.000000000               0.358578492              -0.175336336               0.000000000               0.382148743              -0.187780280               0.000000000               0.405718994              -0.200224224               0.000000000               0.429289246              -0.212668168               0.000000000               0.452859497              -0.225112112               0.000000000               0.476429749              -0.237556056               0.000000000               0.500000000              -0.250000000               0.000000000               0.117295528              -0.062695766               0.000000000               0.141214558              -0.078308531               0.000000000               0.165133587              -0.093921295               0.000000000               0.189052617              -0.109534060               0.000000000               0.212971646              -0.125146824               0.000000000               0.236890676              -0.140759589               0.000000000               0.260809705              -0.156372354               0.000000000               0.284728735              -0.171985118               0.000000000               0.308647764              -0.187597883               0.000000000               0.332566794              -0.203210648               0.000000000               0.356485823              -0.218823412               0.000000000               0.380404853              -0.234436177               0.000000000               0.404323882              -0.250048941               0.000000000               0.428242912              -0.265661706               0.000000000               0.452161941              -0.281274471               0.000000000               0.476080971              -0.296887235               0.000000000               0.500000000              -0.312500000               0.000000000               0.110585458              -0.073890841               0.000000000               0.134923867              -0.092710163               0.000000000               0.159262276              -0.111529486               0.000000000               0.183600685              -0.130348808               0.000000000               0.207939094              -0.149168131               0.000000000               0.232277503              -0.167987453               0.000000000               0.256615912              -0.186806776               0.000000000               0.280954320              -0.205626098               0.000000000               0.305292729              -0.224445420               0.000000000               0.329631138              -0.243264743               0.000000000               0.353969547              -0.262084065               0.000000000               0.378307956              -0.280903388               0.000000000               0.402646365              -0.299722710               0.000000000               0.426984773              -0.318542033               0.000000000               0.451323182              -0.337361355               0.000000000               0.475661591              -0.356180678               0.000000000               0.500000000              -0.375000000               0.000000000               0.102810390              -0.084374307               0.000000000               0.127634741              -0.106444663               0.000000000               0.152459092              -0.128515018               0.000000000               0.177283442              -0.150585374               0.000000000               0.202107793              -0.172655730               0.000000000               0.226932143              -0.194726086               0.000000000               0.251756494              -0.216796442               0.000000000               0.276580845              -0.238866798               0.000000000               0.301405195              -0.260937153               0.000000000               0.326229546              -0.283007509               0.000000000               0.351053896              -0.305077865               0.000000000               0.375878247              -0.327148221               0.000000000               0.400702598              -0.349218577               0.000000000               0.425526948              -0.371288933               0.000000000               0.450351299              -0.393359288               0.000000000               0.475175649              -0.415429644               0.000000000               0.500000000              -0.437500000               0.000000000               0.094045202              -0.094045202               0.000000000               0.119417377              -0.119417377               0.000000000               0.144789552              -0.144789552               0.000000000               0.170161727              -0.170161727               0.000000000               0.195533901              -0.195533901               0.000000000               0.220906076              -0.220906076               0.000000000               0.246278251              -0.246278251               0.000000000               0.271650426              -0.271650426               0.000000000               0.297022601              -0.297022601               0.000000000               0.322394776              -0.322394776               0.000000000               0.347766951              -0.347766951               0.000000000               0.373139126              -0.373139126               0.000000000               0.398511300              -0.398511300               0.000000000               0.423883475              -0.423883475               0.000000000               0.449255650              -0.449255650               0.000000000               0.474627825              -0.474627825               0.000000000               0.500000000              -0.500000000               0.000000000               0.084374307              -0.102810390               0.000000000               0.106444663              -0.127634741               0.000000000               0.128515018              -0.152459092               0.000000000               0.150585374              -0.177283442               0.000000000               0.172655730              -0.202107793               0.000000000               0.194726086              -0.226932143               0.000000000               0.216796442              -0.251756494               0.000000000               0.238866798              -0.276580845               0.000000000               0.260937153              -0.301405195               0.000000000               0.283007509              -0.326229546               0.000000000               0.305077865              -0.351053896               0.000000000               0.327148221              -0.375878247               0.000000000               0.349218577              -0.400702598               0.000000000               0.371288933              -0.425526948               0.000000000               0.393359288              -0.450351299               0.000000000               0.415429644              -0.475175649               0.000000000               0.437500000              -0.500000000               0.000000000               0.073890841              -0.110585458               0.000000000               0.092710163              -0.134923867               0.000000000               0.111529486              -0.159262276               0.000000000               0.130348808              -0.183600685               0.000000000               0.149168131              -0.207939094               0.000000000               0.167987453              -0.232277503               0.000000000               0.186806776              -0.256615912               0.000000000               0.205626098              -0.280954320               0.000000000               0.224445420              -0.305292729               0.000000000               0.243264743              -0.329631138               0.000000000               0.262084065              -0.353969547               0.000000000               0.280903388              -0.378307956               0.000000000               0.299722710              -0.402646365               0.000000000               0.318542033              -0.426984773               0.000000000               0.337361355              -0.451323182               0.000000000               0.356180678              -0.475661591               0.000000000               0.375000000              -0.500000000               0.000000000               0.062695766              -0.117295528               0.000000000               0.078308531              -0.141214558               0.000000000               0.093921295              -0.165133587               0.000000000               0.109534060              -0.189052617               0.000000000               0.125146824              -0.212971646               0.000000000               0.140759589              -0.236890676               0.000000000               0.156372354              -0.260809705               0.000000000               0.171985118              -0.284728735               0.000000000               0.187597883              -0.308647764               0.000000000               0.203210648              -0.332566794               0.000000000               0.218823412              -0.356485823               0.000000000               0.234436177              -0.380404853               0.000000000               0.250048941              -0.404323882               0.000000000               0.265661706              -0.428242912               0.000000000               0.281274471              -0.452161941               0.000000000               0.296887235              -0.476080971               0.000000000               0.312500000              -0.500000000               0.000000000               0.050896897              -0.122875978               0.000000000               0.063340840              -0.146446229               0.000000000               0.075784784              -0.170016481               0.000000000               0.088228728              -0.193586732               0.000000000               0.100672672              -0.217156983               0.000000000               0.113116616              -0.240727235               0.000000000               0.125560560              -0.264297486               0.000000000               0.138004504              -0.287867738               0.000000000               0.150448448              -0.311437989               0.000000000               0.162892392              -0.335008240               0.000000000               0.175336336              -0.358578492               0.000000000               0.187780280              -0.382148743               0.000000000               0.200224224              -0.405718994               0.000000000               0.212668168              -0.429289246               0.000000000               0.225112112              -0.452859497               0.000000000               0.237556056              -0.476429749               0.000000000               0.250000000              -0.500000000               0.000000000               0.038607862              -0.127273065               0.000000000               0.047913621              -0.150568498               0.000000000               0.057219379              -0.173863932               0.000000000               0.066525138              -0.197159365               0.000000000               0.075830897              -0.220454798               0.000000000               0.085136655              -0.243750232               0.000000000               0.094442414              -0.267045665               0.000000000               0.103748172              -0.290341099               0.000000000               0.113053931              -0.313636532               0.000000000               0.122359690              -0.336931966               0.000000000               0.131665448              -0.360227399               0.000000000               0.140971207              -0.383522833               0.000000000               0.150276966              -0.406818266               0.000000000               0.159582724              -0.430113700               0.000000000               0.168888483              -0.453409133               0.000000000               0.178194241              -0.476704567               0.000000000               0.187500000              -0.500000000               0.000000000               0.025947013              -0.130444442               0.000000000               0.032137825              -0.153541665               0.000000000               0.038328636              -0.176638887               0.000000000               0.044519448              -0.199736109               0.000000000               0.050710260              -0.222833332               0.000000000               0.056901071              -0.245930554               0.000000000               0.063091883              -0.269027776               0.000000000               0.069282695              -0.292124999               0.000000000               0.075473506              -0.315222221               0.000000000               0.081664318              -0.338319444               0.000000000               0.087855130              -0.361416666               0.000000000               0.094045942              -0.384513888               0.000000000               0.100236753              -0.407611111               0.000000000               0.106427565              -0.430708333               0.000000000               0.112618377              -0.453805555               0.000000000               0.118809188              -0.476902778               0.000000000               0.125000000              -0.500000000               0.000000000               0.013036280              -0.132359569               0.000000000               0.016127762              -0.155337096               0.000000000               0.019219245              -0.178314623               0.000000000               0.022310727              -0.201292150               0.000000000               0.025402210              -0.224269676               0.000000000               0.028493692              -0.247247203               0.000000000               0.031585175              -0.270224730               0.000000000               0.034676657              -0.293202257               0.000000000               0.037768140              -0.316179784               0.000000000               0.040859622              -0.339157311               0.000000000               0.043951105              -0.362134838               0.000000000               0.047042587              -0.385112365               0.000000000               0.050134070              -0.408089892               0.000000000               0.053225552              -0.431067419               0.000000000               0.056317035              -0.454044946               0.000000000               0.059408517              -0.477022473               0.000000000               0.062500000              -0.500000000               0.000000000               0.000000000              -0.133000000               0.000000000               0.000000000              -0.155937500               0.000000000               0.000000000              -0.178875000               0.000000000               0.000000000              -0.201812500               0.000000000               0.000000000              -0.224750000               0.000000000               0.000000000              -0.247687500               0.000000000               0.000000000              -0.270625000               0.000000000               0.000000000              -0.293562500               0.000000000               0.000000000              -0.316500000               0.000000000               0.000000000              -0.339437500               0.000000000               0.000000000              -0.362375000               0.000000000               0.000000000              -0.385312500               0.000000000               0.000000000              -0.408250000               0.000000000               0.000000000              -0.431187500               0.000000000               0.000000000              -0.454125000               0.000000000               0.000000000              -0.477062500               0.000000000               0.000000000              -0.500000000               0.000000000              -0.133000000               0.000000000               0.000000000              -0.155937500               0.000000000               0.000000000              -0.178875000               0.000000000               0.000000000              -0.201812500               0.000000000               0.000000000              -0.224750000               0.000000000               0.000000000              -0.247687500               0.000000000               0.000000000              -0.270625000               0.000000000               0.000000000              -0.293562500               0.000000000               0.000000000              -0.316500000               0.000000000               0.000000000              -0.339437500               0.000000000               0.000000000              -0.362375000               0.000000000               0.000000000              -0.385312500               0.000000000               0.000000000              -0.408250000               0.000000000               0.000000000              -0.431187500               0.000000000               0.000000000              -0.454125000               0.000000000               0.000000000              -0.477062500               0.000000000               0.000000000              -0.500000000               0.000000000               0.000000000              -0.132359569              -0.013036280               0.000000000              -0.155337096              -0.016127762               0.000000000              -0.178314623              -0.019219245               0.000000000              -0.201292150              -0.022310727               0.000000000              -0.224269676              -0.025402210               0.000000000              -0.247247203              -0.028493692               0.000000000              -0.270224730              -0.031585175               0.000000000              -0.293202257              -0.034676657               0.000000000              -0.316179784              -0.037768140               0.000000000              -0.339157311              -0.040859622               0.000000000              -0.362134838              -0.043951105               0.000000000              -0.385112365              -0.047042587               0.000000000              -0.408089892              -0.050134070               0.000000000              -0.431067419              -0.053225552               0.000000000              -0.454044946              -0.056317035               0.000000000              -0.477022473              -0.059408517               0.000000000              -0.500000000              -0.062500000               0.000000000              -0.130444442              -0.025947013               0.000000000              -0.153541665              -0.032137825               0.000000000              -0.176638887              -0.038328636               0.000000000              -0.199736109              -0.044519448               0.000000000              -0.222833332              -0.050710260               0.000000000              -0.245930554              -0.056901071               0.000000000              -0.269027776              -0.063091883               0.000000000              -0.292124999              -0.069282695               0.000000000              -0.315222221              -0.075473506               0.000000000              -0.338319444              -0.081664318               0.000000000              -0.361416666              -0.087855130               0.000000000              -0.384513888              -0.094045942               0.000000000              -0.407611111              -0.100236753               0.000000000              -0.430708333              -0.106427565               0.000000000              -0.453805555              -0.112618377               0.000000000              -0.476902778              -0.118809188               0.000000000              -0.500000000              -0.125000000               0.000000000              -0.127273065              -0.038607862               0.000000000              -0.150568498              -0.047913621               0.000000000              -0.173863932              -0.057219379               0.000000000              -0.197159365              -0.066525138               0.000000000              -0.220454798              -0.075830897               0.000000000              -0.243750232              -0.085136655               0.000000000              -0.267045665              -0.094442414               0.000000000              -0.290341099              -0.103748172               0.000000000              -0.313636532              -0.113053931               0.000000000              -0.336931966              -0.122359690               0.000000000              -0.360227399              -0.131665448               0.000000000              -0.383522833              -0.140971207               0.000000000              -0.406818266              -0.150276966               0.000000000              -0.430113700              -0.159582724               0.000000000              -0.453409133              -0.168888483               0.000000000              -0.476704567              -0.178194241               0.000000000              -0.500000000              -0.187500000               0.000000000              -0.122875978              -0.050896897               0.000000000              -0.146446229              -0.063340840               0.000000000              -0.170016481              -0.075784784               0.000000000              -0.193586732              -0.088228728               0.000000000              -0.217156983              -0.100672672               0.000000000              -0.240727235              -0.113116616               0.000000000              -0.264297486              -0.125560560               0.000000000              -0.287867738              -0.138004504               0.000000000              -0.311437989              -0.150448448               0.000000000              -0.335008240              -0.162892392               0.000000000              -0.358578492              -0.175336336               0.000000000              -0.382148743              -0.187780280               0.000000000              -0.405718994              -0.200224224               0.000000000              -0.429289246              -0.212668168               0.000000000              -0.452859497              -0.225112112               0.000000000              -0.476429749              -0.237556056               0.000000000              -0.500000000              -0.250000000               0.000000000              -0.117295528              -0.062695766               0.000000000              -0.141214558              -0.078308531               0.000000000              -0.165133587              -0.093921295               0.000000000              -0.189052617              -0.109534060               0.000000000              -0.212971646              -0.125146824               0.000000000              -0.236890676              -0.140759589               0.000000000              -0.260809705              -0.156372354               0.000000000              -0.284728735              -0.171985118               0.000000000              -0.308647764              -0.187597883               0.000000000              -0.332566794              -0.203210648               0.000000000              -0.356485823              -0.218823412               0.000000000              -0.380404853              -0.234436177               0.000000000              -0.404323882              -0.250048941               0.000000000              -0.428242912              -0.265661706               0.000000000              -0.452161941              -0.281274471               0.000000000              -0.476080971              -0.296887235               0.000000000              -0.500000000              -0.312500000               0.000000000              -0.110585458              -0.073890841               0.000000000              -0.134923867              -0.092710163               0.000000000              -0.159262276              -0.111529486               0.000000000              -0.183600685              -0.130348808               0.000000000              -0.207939094              -0.149168131               0.000000000              -0.232277503              -0.167987453               0.000000000              -0.256615912              -0.186806776               0.000000000              -0.280954320              -0.205626098               0.000000000              -0.305292729              -0.224445420               0.000000000              -0.329631138              -0.243264743               0.000000000              -0.353969547              -0.262084065               0.000000000              -0.378307956              -0.280903388               0.000000000              -0.402646365              -0.299722710               0.000000000              -0.426984773              -0.318542033               0.000000000              -0.451323182              -0.337361355               0.000000000              -0.475661591              -0.356180678               0.000000000              -0.500000000              -0.375000000               0.000000000              -0.102810390              -0.084374307               0.000000000              -0.127634741              -0.106444663               0.000000000              -0.152459092              -0.128515018               0.000000000              -0.177283442              -0.150585374               0.000000000              -0.202107793              -0.172655730               0.000000000              -0.226932143              -0.194726086               0.000000000              -0.251756494              -0.216796442               0.000000000              -0.276580845              -0.238866798               0.000000000              -0.301405195              -0.260937153               0.000000000              -0.326229546              -0.283007509               0.000000000              -0.351053896              -0.305077865               0.000000000              -0.375878247              -0.327148221               0.000000000              -0.400702598              -0.349218577               0.000000000              -0.425526948              -0.371288933               0.000000000              -0.450351299              -0.393359288               0.000000000              -0.475175649              -0.415429644               0.000000000              -0.500000000              -0.437500000               0.000000000              -0.094045202              -0.094045202               0.000000000              -0.119417377              -0.119417377               0.000000000              -0.144789552              -0.144789552               0.000000000              -0.170161727              -0.170161727               0.000000000              -0.195533901              -0.195533901               0.000000000              -0.220906076              -0.220906076               0.000000000              -0.246278251              -0.246278251               0.000000000              -0.271650426              -0.271650426               0.000000000              -0.297022601              -0.297022601               0.000000000              -0.322394776              -0.322394776               0.000000000              -0.347766951              -0.347766951               0.000000000              -0.373139126              -0.373139126               0.000000000              -0.398511300              -0.398511300               0.000000000              -0.423883475              -0.423883475               0.000000000              -0.449255650              -0.449255650               0.000000000              -0.474627825              -0.474627825               0.000000000              -0.500000000              -0.500000000               0.000000000              -0.084374307              -0.102810390               0.000000000              -0.106444663              -0.127634741               0.000000000              -0.128515018              -0.152459092               0.000000000              -0.150585374              -0.177283442               0.000000000              -0.172655730              -0.202107793               0.000000000              -0.194726086              -0.226932143               0.000000000              -0.216796442              -0.251756494               0.000000000              -0.238866798              -0.276580845               0.000000000              -0.260937153              -0.301405195               0.000000000              -0.283007509              -0.326229546               0.000000000              -0.305077865              -0.351053896               0.000000000              -0.327148221              -0.375878247               0.000000000              -0.349218577              -0.400702598               0.000000000              -0.371288933              -0.425526948               0.000000000              -0.393359288              -0.450351299               0.000000000              -0.415429644              -0.475175649               0.000000000              -0.437500000              -0.500000000               0.000000000              -0.073890841              -0.110585458               0.000000000              -0.092710163              -0.134923867               0.000000000              -0.111529486              -0.159262276               0.000000000              -0.130348808              -0.183600685               0.000000000              -0.149168131              -0.207939094               0.000000000              -0.167987453              -0.232277503               0.000000000              -0.186806776              -0.256615912               0.000000000              -0.205626098              -0.280954320               0.000000000              -0.224445420              -0.305292729               0.000000000              -0.243264743              -0.329631138               0.000000000              -0.262084065              -0.353969547               0.000000000              -0.280903388              -0.378307956               0.000000000              -0.299722710              -0.402646365               0.000000000              -0.318542033              -0.426984773               0.000000000              -0.337361355              -0.451323182               0.000000000              -0.356180678              -0.475661591               0.000000000              -0.375000000              -0.500000000               0.000000000              -0.062695766              -0.117295528               0.000000000              -0.078308531              -0.141214558               0.000000000              -0.093921295              -0.165133587               0.000000000              -0.109534060              -0.189052617               0.000000000              -0.125146824              -0.212971646               0.000000000              -0.140759589              -0.236890676               0.000000000              -0.156372354              -0.260809705               0.000000000              -0.171985118              -0.284728735               0.000000000              -0.187597883              -0.308647764               0.000000000              -0.203210648              -0.332566794               0.000000000              -0.218823412              -0.356485823               0.000000000              -0.234436177              -0.380404853               0.000000000              -0.250048941              -0.404323882               0.000000000              -0.265661706              -0.428242912               0.000000000              -0.281274471              -0.452161941               0.000000000              -0.296887235              -0.476080971               0.000000000              -0.312500000              -0.500000000               0.000000000              -0.050896897              -0.122875978               0.000000000              -0.063340840              -0.146446229               0.000000000              -0.075784784              -0.170016481               0.000000000              -0.088228728              -0.193586732               0.000000000              -0.100672672              -0.217156983               0.000000000              -0.113116616              -0.240727235               0.000000000              -0.125560560              -0.264297486               0.000000000              -0.138004504              -0.287867738               0.000000000              -0.150448448              -0.311437989               0.000000000              -0.162892392              -0.335008240               0.000000000              -0.175336336              -0.358578492               0.000000000              -0.187780280              -0.382148743               0.000000000              -0.200224224              -0.405718994               0.000000000              -0.212668168              -0.429289246               0.000000000              -0.225112112              -0.452859497               0.000000000              -0.237556056              -0.476429749               0.000000000              -0.250000000              -0.500000000               0.000000000              -0.038607862              -0.127273065               0.000000000              -0.047913621              -0.150568498               0.000000000              -0.057219379              -0.173863932               0.000000000              -0.066525138              -0.197159365               0.000000000              -0.075830897              -0.220454798               0.000000000              -0.085136655              -0.243750232               0.000000000              -0.094442414              -0.267045665               0.000000000              -0.103748172              -0.290341099               0.000000000              -0.113053931              -0.313636532               0.000000000              -0.122359690              -0.336931966               0.000000000              -0.131665448              -0.360227399               0.000000000              -0.140971207              -0.383522833               0.000000000              -0.150276966              -0.406818266               0.000000000              -0.159582724              -0.430113700               0.000000000              -0.168888483              -0.453409133               0.000000000              -0.178194241              -0.476704567               0.000000000              -0.187500000              -0.500000000               0.000000000              -0.025947013              -0.130444442               0.000000000              -0.032137825              -0.153541665               0.000000000              -0.038328636              -0.176638887               0.000000000              -0.044519448              -0.199736109               0.000000000              -0.050710260              -0.222833332               0.000000000              -0.056901071              -0.245930554               0.000000000              -0.063091883              -0.269027776               0.000000000              -0.069282695              -0.292124999               0.000000000              -0.075473506              -0.315222221               0.000000000              -0.081664318              -0.338319444               0.000000000              -0.087855130              -0.361416666               0.000000000              -0.094045942              -0.384513888               0.000000000              -0.100236753              -0.407611111               0.000000000              -0.106427565              -0.430708333               0.000000000              -0.112618377              -0.453805555               0.000000000              -0.118809188              -0.476902778               0.000000000              -0.125000000              -0.500000000               0.000000000              -0.013036280              -0.132359569               0.000000000              -0.016127762              -0.155337096               0.000000000              -0.019219245              -0.178314623               0.000000000              -0.022310727              -0.201292150               0.000000000              -0.025402210              -0.224269676               0.000000000              -0.028493692              -0.247247203               0.000000000              -0.031585175              -0.270224730               0.000000000              -0.034676657              -0.293202257               0.000000000              -0.037768140              -0.316179784               0.000000000              -0.040859622              -0.339157311               0.000000000              -0.043951105              -0.362134838               0.000000000              -0.047042587              -0.385112365               0.000000000              -0.050134070              -0.408089892               0.000000000              -0.053225552              -0.431067419               0.000000000              -0.056317035              -0.454044946               0.000000000              -0.059408517              -0.477022473               0.000000000              -0.062500000              -0.500000000               0.000000000               0.000000000              -0.133000000               0.000000000               0.000000000              -0.155937500               0.000000000               0.000000000              -0.178875000               0.000000000               0.000000000              -0.201812500               0.000000000               0.000000000              -0.224750000               0.000000000               0.000000000              -0.247687500               0.000000000               0.000000000              -0.270625000               0.000000000               0.000000000              -0.293562500               0.000000000               0.000000000              -0.316500000               0.000000000               0.000000000              -0.339437500               0.000000000               0.000000000              -0.362375000               0.000000000               0.000000000              -0.385312500               0.000000000               0.000000000              -0.408250000               0.000000000               0.000000000              -0.431187500               0.000000000               0.000000000              -0.454125000               0.000000000               0.000000000              -0.477062500               0.000000000               0.000000000              -0.500000000               0.000000000              -0.133000000               0.000000000               0.000000000              -0.155937500               0.000000000               0.000000000              -0.178875000               0.000000000               0.000000000              -0.201812500               0.000000000               0.000000000              -0.224750000               0.000000000               0.000000000              -0.247687500               0.000000000               0.000000000              -0.270625000               0.000000000               0.000000000              -0.293562500               0.000000000               0.000000000              -0.316500000               0.000000000               0.000000000              -0.339437500               0.000000000               0.000000000              -0.362375000               0.000000000               0.000000000              -0.385312500               0.000000000               0.000000000              -0.408250000               0.000000000               0.000000000              -0.431187500               0.000000000               0.000000000              -0.454125000               0.000000000               0.000000000              -0.477062500               0.000000000               0.000000000              -0.500000000               0.000000000               0.000000000              -0.132359569               0.013036280               0.000000000              -0.155337096               0.016127762               0.000000000              -0.178314623               0.019219245               0.000000000              -0.201292150               0.022310727               0.000000000              -0.224269676               0.025402210               0.000000000              -0.247247203               0.028493692               0.000000000              -0.270224730               0.031585175               0.000000000              -0.293202257               0.034676657               0.000000000              -0.316179784               0.037768140               0.000000000              -0.339157311               0.040859622               0.000000000              -0.362134838               0.043951105               0.000000000              -0.385112365               0.047042587               0.000000000              -0.408089892               0.050134070               0.000000000              -0.431067419               0.053225552               0.000000000              -0.454044946               0.056317035               0.000000000              -0.477022473               0.059408517               0.000000000              -0.500000000               0.062500000               0.000000000              -0.130444442               0.025947013               0.000000000              -0.153541665               0.032137825               0.000000000              -0.176638887               0.038328636               0.000000000              -0.199736109               0.044519448               0.000000000              -0.222833332               0.050710260               0.000000000              -0.245930554               0.056901071               0.000000000              -0.269027776               0.063091883               0.000000000              -0.292124999               0.069282695               0.000000000              -0.315222221               0.075473506               0.000000000              -0.338319444               0.081664318               0.000000000              -0.361416666               0.087855130               0.000000000              -0.384513888               0.094045942               0.000000000              -0.407611111               0.100236753               0.000000000              -0.430708333               0.106427565               0.000000000              -0.453805555               0.112618377               0.000000000              -0.476902778               0.118809188               0.000000000              -0.500000000               0.125000000               0.000000000              -0.127273065               0.038607862               0.000000000              -0.150568498               0.047913621               0.000000000              -0.173863932               0.057219379               0.000000000              -0.197159365               0.066525138               0.000000000              -0.220454798               0.075830897               0.000000000              -0.243750232               0.085136655               0.000000000              -0.267045665               0.094442414               0.000000000              -0.290341099               0.103748172               0.000000000              -0.313636532               0.113053931               0.000000000              -0.336931966               0.122359690               0.000000000              -0.360227399               0.131665448               0.000000000              -0.383522833               0.140971207               0.000000000              -0.406818266               0.150276966               0.000000000              -0.430113700               0.159582724               0.000000000              -0.453409133               0.168888483               0.000000000              -0.476704567               0.178194241               0.000000000              -0.500000000               0.187500000               0.000000000              -0.122875978               0.050896897               0.000000000              -0.146446229               0.063340840               0.000000000              -0.170016481               0.075784784               0.000000000              -0.193586732               0.088228728               0.000000000              -0.217156983               0.100672672               0.000000000              -0.240727235               0.113116616               0.000000000              -0.264297486               0.125560560               0.000000000              -0.287867738               0.138004504               0.000000000              -0.311437989               0.150448448               0.000000000              -0.335008240               0.162892392               0.000000000              -0.358578492               0.175336336               0.000000000              -0.382148743               0.187780280               0.000000000              -0.405718994               0.200224224               0.000000000              -0.429289246               0.212668168               0.000000000              -0.452859497               0.225112112               0.000000000              -0.476429749               0.237556056               0.000000000              -0.500000000               0.250000000               0.000000000              -0.117295528               0.062695766               0.000000000              -0.141214558               0.078308531               0.000000000              -0.165133587               0.093921295               0.000000000              -0.189052617               0.109534060               0.000000000              -0.212971646               0.125146824               0.000000000              -0.236890676               0.140759589               0.000000000              -0.260809705               0.156372354               0.000000000              -0.284728735               0.171985118               0.000000000              -0.308647764               0.187597883               0.000000000              -0.332566794               0.203210648               0.000000000              -0.356485823               0.218823412               0.000000000              -0.380404853               0.234436177               0.000000000              -0.404323882               0.250048941               0.000000000              -0.428242912               0.265661706               0.000000000              -0.452161941               0.281274471               0.000000000              -0.476080971               0.296887235               0.000000000              -0.500000000               0.312500000               0.000000000              -0.110585458               0.073890841               0.000000000              -0.134923867               0.092710163               0.000000000              -0.159262276               0.111529486               0.000000000              -0.183600685               0.130348808               0.000000000              -0.207939094               0.149168131               0.000000000              -0.232277503               0.167987453               0.000000000              -0.256615912               0.186806776               0.000000000              -0.280954320               0.205626098               0.000000000              -0.305292729               0.224445420               0.000000000              -0.329631138               0.243264743               0.000000000              -0.353969547               0.262084065               0.000000000              -0.378307956               0.280903388               0.000000000              -0.402646365               0.299722710               0.000000000              -0.426984773               0.318542033               0.000000000              -0.451323182               0.337361355               0.000000000              -0.475661591               0.356180678               0.000000000              -0.500000000               0.375000000               0.000000000              -0.102810390               0.084374307               0.000000000              -0.127634741               0.106444663               0.000000000              -0.152459092               0.128515018               0.000000000              -0.177283442               0.150585374               0.000000000              -0.202107793               0.172655730               0.000000000              -0.226932143               0.194726086               0.000000000              -0.251756494               0.216796442               0.000000000              -0.276580845               0.238866798               0.000000000              -0.301405195               0.260937153               0.000000000              -0.326229546               0.283007509               0.000000000              -0.351053896               0.305077865               0.000000000              -0.375878247               0.327148221               0.000000000              -0.400702598               0.349218577               0.000000000              -0.425526948               0.371288933               0.000000000              -0.450351299               0.393359288               0.000000000              -0.475175649               0.415429644               0.000000000              -0.500000000               0.437500000               0.000000000              -0.094045202               0.094045202               0.000000000              -0.119417377               0.119417377               0.000000000              -0.144789552               0.144789552               0.000000000              -0.170161727               0.170161727               0.000000000              -0.195533901               0.195533901               0.000000000              -0.220906076               0.220906076               0.000000000              -0.246278251               0.246278251               0.000000000              -0.271650426               0.271650426               0.000000000              -0.297022601               0.297022601               0.000000000              -0.322394776               0.322394776               0.000000000              -0.347766951               0.347766951               0.000000000              -0.373139126               0.373139126               0.000000000              -0.398511300               0.398511300               0.000000000              -0.423883475               0.423883475               0.000000000              -0.449255650               0.449255650               0.000000000              -0.474627825               0.474627825               0.000000000              -0.500000000               0.500000000               0.000000000              -0.084374307               0.102810390               0.000000000              -0.106444663               0.127634741               0.000000000              -0.128515018               0.152459092               0.000000000              -0.150585374               0.177283442               0.000000000              -0.172655730               0.202107793               0.000000000              -0.194726086               0.226932143               0.000000000              -0.216796442               0.251756494               0.000000000              -0.238866798               0.276580845               0.000000000              -0.260937153               0.301405195               0.000000000              -0.283007509               0.326229546               0.000000000              -0.305077865               0.351053896               0.000000000              -0.327148221               0.375878247               0.000000000              -0.349218577               0.400702598               0.000000000              -0.371288933               0.425526948               0.000000000              -0.393359288               0.450351299               0.000000000              -0.415429644               0.475175649               0.000000000              -0.437500000               0.500000000               0.000000000              -0.073890841               0.110585458               0.000000000              -0.092710163               0.134923867               0.000000000              -0.111529486               0.159262276               0.000000000              -0.130348808               0.183600685               0.000000000              -0.149168131               0.207939094               0.000000000              -0.167987453               0.232277503               0.000000000              -0.186806776               0.256615912               0.000000000              -0.205626098               0.280954320               0.000000000              -0.224445420               0.305292729               0.000000000              -0.243264743               0.329631138               0.000000000              -0.262084065               0.353969547               0.000000000              -0.280903388               0.378307956               0.000000000              -0.299722710               0.402646365               0.000000000              -0.318542033               0.426984773               0.000000000              -0.337361355               0.451323182               0.000000000              -0.356180678               0.475661591               0.000000000              -0.375000000               0.500000000               0.000000000              -0.062695766               0.117295528               0.000000000              -0.078308531               0.141214558               0.000000000              -0.093921295               0.165133587               0.000000000              -0.109534060               0.189052617               0.000000000              -0.125146824               0.212971646               0.000000000              -0.140759589               0.236890676               0.000000000              -0.156372354               0.260809705               0.000000000              -0.171985118               0.284728735               0.000000000              -0.187597883               0.308647764               0.000000000              -0.203210648               0.332566794               0.000000000              -0.218823412               0.356485823               0.000000000              -0.234436177               0.380404853               0.000000000              -0.250048941               0.404323882               0.000000000              -0.265661706               0.428242912               0.000000000              -0.281274471               0.452161941               0.000000000              -0.296887235               0.476080971               0.000000000              -0.312500000               0.500000000               0.000000000              -0.050896897               0.122875978               0.000000000              -0.063340840               0.146446229               0.000000000              -0.075784784               0.170016481               0.000000000              -0.088228728               0.193586732               0.000000000              -0.100672672               0.217156983               0.000000000              -0.113116616               0.240727235               0.000000000              -0.125560560               0.264297486               0.000000000              -0.138004504               0.287867738               0.000000000              -0.150448448               0.311437989               0.000000000              -0.162892392               0.335008240               0.000000000              -0.175336336               0.358578492               0.000000000              -0.187780280               0.382148743               0.000000000              -0.200224224               0.405718994               0.000000000              -0.212668168               0.429289246               0.000000000              -0.225112112               0.452859497               0.000000000              -0.237556056               0.476429749               0.000000000              -0.250000000               0.500000000               0.000000000              -0.038607862               0.127273065               0.000000000              -0.047913621               0.150568498               0.000000000              -0.057219379               0.173863932               0.000000000              -0.066525138               0.197159365               0.000000000              -0.075830897               0.220454798               0.000000000              -0.085136655               0.243750232               0.000000000              -0.094442414               0.267045665               0.000000000              -0.103748172               0.290341099               0.000000000              -0.113053931               0.313636532               0.000000000              -0.122359690               0.336931966               0.000000000              -0.131665448               0.360227399               0.000000000              -0.140971207               0.383522833               0.000000000              -0.150276966               0.406818266               0.000000000              -0.159582724               0.430113700               0.000000000              -0.168888483               0.453409133               0.000000000              -0.178194241               0.476704567               0.000000000              -0.187500000               0.500000000               0.000000000              -0.025947013               0.130444442               0.000000000              -0.032137825               0.153541665               0.000000000              -0.038328636               0.176638887               0.000000000              -0.044519448               0.199736109               0.000000000              -0.050710260               0.222833332               0.000000000              -0.056901071               0.245930554               0.000000000              -0.063091883               0.269027776               0.000000000              -0.069282695               0.292124999               0.000000000              -0.075473506               0.315222221               0.000000000              -0.081664318               0.338319444               0.000000000              -0.087855130               0.361416666               0.000000000              -0.094045942               0.384513888               0.000000000              -0.100236753               0.407611111               0.000000000              -0.106427565               0.430708333               0.000000000              -0.112618377               0.453805555               0.000000000              -0.118809188               0.476902778               0.000000000              -0.125000000               0.500000000               0.000000000              -0.013036280               0.132359569               0.000000000              -0.016127762               0.155337096               0.000000000              -0.019219245               0.178314623               0.000000000              -0.022310727               0.201292150               0.000000000              -0.025402210               0.224269676               0.000000000              -0.028493692               0.247247203               0.000000000              -0.031585175               0.270224730               0.000000000              -0.034676657               0.293202257               0.000000000              -0.037768140               0.316179784               0.000000000              -0.040859622               0.339157311               0.000000000              -0.043951105               0.362134838               0.000000000              -0.047042587               0.385112365               0.000000000              -0.050134070               0.408089892               0.000000000              -0.053225552               0.431067419               0.000000000              -0.056317035               0.454044946               0.000000000              -0.059408517               0.477022473               0.000000000              -0.062500000               0.500000000               0.000000000               0.000000000               0.133000000               0.000000000               0.000000000               0.155937500               0.000000000               0.000000000               0.178875000               0.000000000               0.000000000               0.201812500               0.000000000               0.000000000               0.224750000               0.000000000               0.000000000               0.247687500               0.000000000               0.000000000               0.270625000               0.000000000               0.000000000               0.293562500               0.000000000               0.000000000               0.316500000               0.000000000               0.000000000               0.339437500               0.000000000               0.000000000               0.362375000               0.000000000               0.000000000               0.385312500               0.000000000               0.000000000               0.408250000               0.000000000               0.000000000               0.431187500               0.000000000               0.000000000               0.454125000               0.000000000               0.000000000               0.477062500               0.000000000               0.000000000               0.500000000               0.000000000 </DataArray>
</Points>
<Cells>
<DataArray type="Int32"                                    Name="connectivity"                                                      NumberOfComponents=" 1" format="ascii">
         0          1         18         17          1          2         19         18          2          3         20         19          3          4         21         20          4          5         22         21          5          6         23         22          6          7         24         23          7          8         25         24          8          9         26         25          9         10         27         26         10         11         28         27         11         12         29         28         12         13         30         29         13         14         31         30         14         15         32         31         15         16         33         32         17         18         35         34         18         19         36         35         19         20         37         36         20         21         38         37         21         22         39         38         22         23         40         39         23         24         41         40         24         25         42         41         25         26         43         42         26         27         44         43         27         28         45         44         28         29         46         45         29         30         47         46         30         31         48         47         31         32         49         48         32         33         50         49         34         35         52         51         35         36         53         52         36         37         54         53         37         38         55         54         38         39         56         55         39         40         57         56         40         41         58         57         41         42         59         58         42         43         60         59         43         44         61         60         44         45         62         61         45         46         63         62         46         47         64         63         47         48         65         64         48         49         66         65         49         50         67         66         51         52         69         68         52         53         70         69         53         54         71         70         54         55         72         71         55         56         73         72         56         57         74         73         57         58         75         74         58         59         76         75         59         60         77         76         60         61         78         77         61         62         79         78         62         63         80         79         63         64         81         80         64         65         82         81         65         66         83         82         66         67         84         83         68         69         86         85         69         70         87         86         70         71         88         87         71         72         89         88         72         73         90         89         73         74         91         90         74         75         92         91         75         76         93         92         76         77         94         93         77         78         95         94         78         79         96         95         79         80         97         96         80         81         98         97         81         82         99         98         82         83        100         99         83         84        101        100         85         86        103        102         86         87        104        103         87         88        105        104         88         89        106        105         89         90        107        106         90         91        108        107         91         92        109        108         92         93        110        109         93         94        111        110         94         95        112        111         95         96        113        112         96         97        114        113         97         98        115        114         98         99        116        115         99        100        117        116        100        101        118        117        102        103        120        119        103        104        121        120        104        105        122        121        105        106        123        122        106        107        124        123        107        108        125        124        108        109        126        125        109        110        127        126        110        111        128        127        111        112        129        128        112        113        130        129        113        114        131        130        114        115        132        131        115        116        133        132        116        117        134        133        117        118        135        134        119        120        137        136        120        121        138        137        121        122        139        138        122        123        140        139        123        124        141        140        124        125        142        141        125        126        143        142        126        127        144        143        127        128        145        144        128        129        146        145        129        130        147        146        130        131        148        147        131        132        149        148        132        133        150        149        133        134        151        150        134        135        152        151        136        137        154        153        137        138        155        154        138        139        156        155        139        140        157        156        140        141        158        157        141        142        159        158        142        143        160        159        143        144        161        160        144        145        162        161        145        146        163        162        146        147        164        163        147        148        165        164        148        149        166        165        149        150        167        166        150        151        168        167        151        152        169        168        153        154        171        170        154        155        172        171        155        156        173        172        156        157        174        173        157        158        175        174        158        159        176        175        159        160        177        176        160        161        178        177        161        162        179        178        162        163        180        179        163        164        181        180        164        165        182        181        165        166        183        182        166        167        184        183        167        168        185        184        168        169        186        185        170        171        188        187        171        172        189        188        172        173        190        189        173        174        191        190        174        175        192        191        175        176        193        192        176        177        194        193        177        178        195        194        178        179        196        195        179        180        197        196        180        181        198        197        181        182        199        198        182        183        200        199        183        184        201        200        184        185        202        201        185        186        203        202        187        188        205        204        188        189        206        205        189        190        207        206        190        191        208        207        191        192        209        208        192        193        210        209        193        194        211        210        194        195        212        211        195        196        213        212        196        197        214        213        197        198        215        214        198        199        216        215        199        200        217        216        200        201        218        217        201        202        219        218        202        203        220        219        204        205        222        221        205        206        223        222        206        207        224        223        207        208        225        224        208        209        226        225        209        210        227        226        210        211        228        227        211        212        229        228        212        213        230        229        213        214        231        230        214        215        232        231        215        216        233        232        216        217        234        233        217        218        235        234        218        219        236        235        219        220        237        236        221        222        239        238        222        223        240        239        223        224        241        240        224        225        242        241        225        226        243        242        226        227        244        243        227        228        245        244        228        229        246        245        229        230        247        246        230        231        248        247        231        232        249        248        232        233        250        249        233        234        251        250        234        235        252        251        235        236        253        252        236        237        254        253        238        239        256        255        239        240        257        256        240        241        258        257        241        242        259        258        242        243        260        259        243        244        261        260        244        245        262        261        245        246        263        262        246        247        264        263        247        248        265        264        248        249        266        265        249        250        267        266        250        251        268        267        251        252        269        268        252        253        270        269        253        254        271        270        255        256        273        272        256        257        274        273        257        258        275        274        258        259        276        275        259        260        277        276        260        261        278        277        261        262        279        278        262        263        280        279        263        264        281        280        264        265        282        281        265        266        283        282        266        267        284        283        267        268        285        284        268        269        286        285        269        270        287        286        270        271        288        287        306        307          1          0        307        308          2          1        308        309          3          2        309        310          4          3        310        311          5          4        311        312          6          5        312        313          7          6        313        314          8          7        314        315          9          8        315        316         10          9        316        317         11         10        317        318         12         11        318        319         13         12        319        320         14         13        320        321         15         14        321        322         16         15        323        324        307        306        324        325        308        307        325        326        309        308        326        327        310        309        327        328        311        310        328        329        312        311        329        330        313        312        330        331        314        313        331        332        315        314        332        333        316        315        333        334        317        316        334        335        318        317        335        336        319        318        336        337        320        319        337        338        321        320        338        339        322        321        340        341        324        323        341        342        325        324        342        343        326        325        343        344        327        326        344        345        328        327        345        346        329        328        346        347        330        329        347        348        331        330        348        349        332        331        349        350        333        332        350        351        334        333        351        352        335        334        352        353        336        335        353        354        337        336        354        355        338        337        355        356        339        338        357        358        341        340        358        359        342        341        359        360        343        342        360        361        344        343        361        362        345        344        362        363        346        345        363        364        347        346        364        365        348        347        365        366        349        348        366        367        350        349        367        368        351        350        368        369        352        351        369        370        353        352        370        371        354        353        371        372        355        354        372        373        356        355        374        375        358        357        375        376        359        358        376        377        360        359        377        378        361        360        378        379        362        361        379        380        363        362        380        381        364        363        381        382        365        364        382        383        366        365        383        384        367        366        384        385        368        367        385        386        369        368        386        387        370        369        387        388        371        370        388        389        372        371        389        390        373        372        391        392        375        374        392        393        376        375        393        394        377        376        394        395        378        377        395        396        379        378        396        397        380        379        397        398        381        380        398        399        382        381        399        400        383        382        400        401        384        383        401        402        385        384        402        403        386        385        403        404        387        386        404        405        388        387        405        406        389        388        406        407        390        389        408        409        392        391        409        410        393        392        410        411        394        393        411        412        395        394        412        413        396        395        413        414        397        396        414        415        398        397        415        416        399        398        416        417        400        399        417        418        401        400        418        419        402        401        419        420        403        402        420        421        404        403        421        422        405        404        422        423        406        405        423        424        407        406        425        426        409        408        426        427        410        409        427        428        411        410        428        429        412        411        429        430        413        412        430        431        414        413        431        432        415        414        432        433        416        415        433        434        417        416        434        435        418        417        435        436        419        418        436        437        420        419        437        438        421        420        438        439        422        421        439        440        423        422        440        441        424        423        442        443        426        425        443        444        427        426        444        445        428        427        445        446        429        428        446        447        430        429        447        448        431        430        448        449        432        431        449        450        433        432        450        451        434        433        451        452        435        434        452        453        436        435        453        454        437        436        454        455        438        437        455        456        439        438        456        457        440        439        457        458        441        440        459        460        443        442        460        461        444        443        461        462        445        444        462        463        446        445        463        464        447        446        464        465        448        447        465        466        449        448        466        467        450        449        467        468        451        450        468        469        452        451        469        470        453        452        470        471        454        453        471        472        455        454        472        473        456        455        473        474        457        456        474        475        458        457        476        477        460        459        477        478        461        460        478        479        462        461        479        480        463        462        480        481        464        463        481        482        465        464        482        483        466        465        483        484        467        466        484        485        468        467        485        486        469        468        486        487        470        469        487        488        471        470        488        489        472        471        489        490        473        472        490        491        474        473        491        492        475        474        493        494        477        476        494        495        478        477        495        496        479        478        496        497        480        479        497        498        481        480        498        499        482        481        499        500        483        482        500        501        484        483        501        502        485        484        502        503        486        485        503        504        487        486        504        505        488        487        505        506        489        488        506        507        490        489        507        508        491        490        508        509        492        491        510        511        494        493        511        512        495        494        512        513        496        495        513        514        497        496        514        515        498        497        515        516        499        498        516        517        500        499        517        518        501        500        518        519        502        501        519        520        503        502        520        521        504        503        521        522        505        504        522        523        506        505        523        524        507        506        524        525        508        507        525        526        509        508        527        528        511        510        528        529        512        511        529        530        513        512        530        531        514        513        531        532        515        514        532        533        516        515        533        534        517        516        534        535        518        517        535        536        519        518        536        537        520        519        537        538        521        520        538        539        522        521        539        540        523        522        540        541        524        523        541        542        525        524        542        543        526        525        544        545        528        527        545        546        529        528        546        547        530        529        547        548        531        530        548        549        532        531        549        550        533        532        550        551        534        533        551        552        535        534        552        553        536        535        553        554        537        536        554        555        538        537        555        556        539        538        556        557        540        539        557        558        541        540        558        559        542        541        559        560        543        542        561        562        545        544        562        563        546        545        563        564        547        546        564        565        548        547        565        566        549        548        566        567        550        549        567        568        551        550        568        569        552        551        569        570        553        552        570        571        554        553        571        572        555        554        572        573        556        555        573        574        557        556        574        575        558        557        575        576        559        558        576        577        560        559        578        579        596        595        579        580        597        596        580        581        598        597        581        582        599        598        582        583        600        599        583        584        601        600        584        585        602        601        585        586        603        602        586        587        604        603        587        588        605        604        588        589        606        605        589        590        607        606        590        591        608        607        591        592        609        608        592        593        610        609        593        594        611        610        595        596        613        612        596        597        614        613        597        598        615        614        598        599        616        615        599        600        617        616        600        601        618        617        601        602        619        618        602        603        620        619        603        604        621        620        604        605        622        621        605        606        623        622        606        607        624        623        607        608        625        624        608        609        626        625        609        610        627        626        610        611        628        627        612        613        630        629        613        614        631        630        614        615        632        631        615        616        633        632        616        617        634        633        617        618        635        634        618        619        636        635        619        620        637        636        620        621        638        637        621        622        639        638        622        623        640        639        623        624        641        640        624        625        642        641        625        626        643        642        626        627        644        643        627        628        645        644        629        630        647        646        630        631        648        647        631        632        649        648        632        633        650        649        633        634        651        650        634        635        652        651        635        636        653        652        636        637        654        653        637        638        655        654        638        639        656        655        639        640        657        656        640        641        658        657        641        642        659        658        642        643        660        659        643        644        661        660        644        645        662        661        646        647        664        663        647        648        665        664        648        649        666        665        649        650        667        666        650        651        668        667        651        652        669        668        652        653        670        669        653        654        671        670        654        655        672        671        655        656        673        672        656        657        674        673        657        658        675        674        658        659        676        675        659        660        677        676        660        661        678        677        661        662        679        678        663        664        681        680        664        665        682        681        665        666        683        682        666        667        684        683        667        668        685        684        668        669        686        685        669        670        687        686        670        671        688        687        671        672        689        688        672        673        690        689        673        674        691        690        674        675        692        691        675        676        693        692        676        677        694        693        677        678        695        694        678        679        696        695        680        681        698        697        681        682        699        698        682        683        700        699        683        684        701        700        684        685        702        701        685        686        703        702        686        687        704        703        687        688        705        704        688        689        706        705        689        690        707        706        690        691        708        707        691        692        709        708        692        693        710        709        693        694        711        710        694        695        712        711        695        696        713        712        697        698        715        714        698        699        716        715        699        700        717        716        700        701        718        717        701        702        719        718        702        703        720        719        703        704        721        720        704        705        722        721        705        706        723        722        706        707        724        723        707        708        725        724        708        709        726        725        709        710        727        726        710        711        728        727        711        712        729        728        712        713        730        729        714        715        732        731        715        716        733        732        716        717        734        733        717        718        735        734        718        719        736        735        719        720        737        736        720        721        738        737        721        722        739        738        722        723        740        739        723        724        741        740        724        725        742        741        725        726        743        742        726        727        744        743        727        728        745        744        728        729        746        745        729        730        747        746        731        732        749        748        732        733        750        749        733        734        751        750        734        735        752        751        735        736        753        752        736        737        754        753        737        738        755        754        738        739        756        755        739        740        757        756        740        741        758        757        741        742        759        758        742        743        760        759        743        744        761        760        744        745        762        761        745        746        763        762        746        747        764        763        748        749        766        765        749        750        767        766        750        751        768        767        751        752        769        768        752        753        770        769        753        754        771        770        754        755        772        771        755        756        773        772        756        757        774        773        757        758        775        774        758        759        776        775        759        760        777        776        760        761        778        777        761        762        779        778        762        763        780        779        763        764        781        780        765        766        783        782        766        767        784        783        767        768        785        784        768        769        786        785        769        770        787        786        770        771        788        787        771        772        789        788        772        773        790        789        773        774        791        790        774        775        792        791        775        776        793        792        776        777        794        793        777        778        795        794        778        779        796        795        779        780        797        796        780        781        798        797        782        783        800        799        783        784        801        800        784        785        802        801        785        786        803        802        786        787        804        803        787        788        805        804        788        789        806        805        789        790        807        806        790        791        808        807        791        792        809        808        792        793        810        809        793        794        811        810        794        795        812        811        795        796        813        812        796        797        814        813        797        798        815        814        799        800        817        816        800        801        818        817        801        802        819        818        802        803        820        819        803        804        821        820        804        805        822        821        805        806        823        822        806        807        824        823        807        808        825        824        808        809        826        825        809        810        827        826        810        811        828        827        811        812        829        828        812        813        830        829        813        814        831        830        814        815        832        831        816        817        834        833        817        818        835        834        818        819        836        835        819        820        837        836        820        821        838        837        821        822        839        838        822        823        840        839        823        824        841        840        824        825        842        841        825        826        843        842        826        827        844        843        827        828        845        844        828        829        846        845        829        830        847        846        830        831        848        847        831        832        849        848        833        834        562        561        834        835        563        562        835        836        564        563        836        837        565        564        837        838        566        565        838        839        567        566        839        840        568        567        840        841        569        568        841        842        570        569        842        843        571        570        843        844        572        571        844        845        573        572        845        846        574        573        846        847        575        574        847        848        576        575        848        849        577        576        884        885        579        578        885        886        580        579        886        887        581        580        887        888        582        581        888        889        583        582        889        890        584        583        890        891        585        584        891        892        586        585        892        893        587        586        893        894        588        587        894        895        589        588        895        896        590        589        896        897        591        590        897        898        592        591        898        899        593        592        899        900        594        593        901        902        885        884        902        903        886        885        903        904        887        886        904        905        888        887        905        906        889        888        906        907        890        889        907        908        891        890        908        909        892        891        909        910        893        892        910        911        894        893        911        912        895        894        912        913        896        895        913        914        897        896        914        915        898        897        915        916        899        898        916        917        900        899        918        919        902        901        919        920        903        902        920        921        904        903        921        922        905        904        922        923        906        905        923        924        907        906        924        925        908        907        925        926        909        908        926        927        910        909        927        928        911        910        928        929        912        911        929        930        913        912        930        931        914        913        931        932        915        914        932        933        916        915        933        934        917        916        935        936        919        918        936        937        920        919        937        938        921        920        938        939        922        921        939        940        923        922        940        941        924        923        941        942        925        924        942        943        926        925        943        944        927        926        944        945        928        927        945        946        929        928        946        947        930        929        947        948        931        930        948        949        932        931        949        950        933        932        950        951        934        933        952        953        936        935        953        954        937        936        954        955        938        937        955        956        939        938        956        957        940        939        957        958        941        940        958        959        942        941        959        960        943        942        960        961        944        943        961        962        945        944        962        963        946        945        963        964        947        946        964        965        948        947        965        966        949        948        966        967        950        949        967        968        951        950        969        970        953        952        970        971        954        953        971        972        955        954        972        973        956        955        973        974        957        956        974        975        958        957        975        976        959        958        976        977        960        959        977        978        961        960        978        979        962        961        979        980        963        962        980        981        964        963        981        982        965        964        982        983        966        965        983        984        967        966        984        985        968        967        986        987        970        969        987        988        971        970        988        989        972        971        989        990        973        972        990        991        974        973        991        992        975        974        992        993        976        975        993        994        977        976        994        995        978        977        995        996        979        978        996        997        980        979        997        998        981        980        998        999        982        981        999       1000        983        982       1000       1001        984        983       1001       1002        985        984       1003       1004        987        986       1004       1005        988        987       1005       1006        989        988       1006       1007        990        989       1007       1008        991        990       1008       1009        992        991       1009       1010        993        992       1010       1011        994        993       1011       1012        995        994       1012       1013        996        995       1013       1014        997        996       1014       1015        998        997       1015       1016        999        998       1016       1017       1000        999       1017       1018       1001       1000       1018       1019       1002       1001       1020       1021       1004       1003       1021       1022       1005       1004       1022       1023       1006       1005       1023       1024       1007       1006       1024       1025       1008       1007       1025       1026       1009       1008       1026       1027       1010       1009       1027       1028       1011       1010       1028       1029       1012       1011       1029       1030       1013       1012       1030       1031       1014       1013       1031       1032       1015       1014       1032       1033       1016       1015       1033       1034       1017       1016       1034       1035       1018       1017       1035       1036       1019       1018       1037       1038       1021       1020       1038       1039       1022       1021       1039       1040       1023       1022       1040       1041       1024       1023       1041       1042       1025       1024       1042       1043       1026       1025       1043       1044       1027       1026       1044       1045       1028       1027       1045       1046       1029       1028       1046       1047       1030       1029       1047       1048       1031       1030       1048       1049       1032       1031       1049       1050       1033       1032       1050       1051       1034       1033       1051       1052       1035       1034       1052       1053       1036       1035       1054       1055       1038       1037       1055       1056       1039       1038       1056       1057       1040       1039       1057       1058       1041       1040       1058       1059       1042       1041       1059       1060       1043       1042       1060       1061       1044       1043       1061       1062       1045       1044       1062       1063       1046       1045       1063       1064       1047       1046       1064       1065       1048       1047       1065       1066       1049       1048       1066       1067       1050       1049       1067       1068       1051       1050       1068       1069       1052       1051       1069       1070       1053       1052       1071       1072       1055       1054       1072       1073       1056       1055       1073       1074       1057       1056       1074       1075       1058       1057       1075       1076       1059       1058       1076       1077       1060       1059       1077       1078       1061       1060       1078       1079       1062       1061       1079       1080       1063       1062       1080       1081       1064       1063       1081       1082       1065       1064       1082       1083       1066       1065       1083       1084       1067       1066       1084       1085       1068       1067       1085       1086       1069       1068       1086       1087       1070       1069       1088       1089       1072       1071       1089       1090       1073       1072       1090       1091       1074       1073       1091       1092       1075       1074       1092       1093       1076       1075       1093       1094       1077       1076       1094       1095       1078       1077       1095       1096       1079       1078       1096       1097       1080       1079       1097       1098       1081       1080       1098       1099       1082       1081       1099       1100       1083       1082       1100       1101       1084       1083       1101       1102       1085       1084       1102       1103       1086       1085       1103       1104       1087       1086       1105       1106       1089       1088       1106       1107       1090       1089       1107       1108       1091       1090       1108       1109       1092       1091       1109       1110       1093       1092       1110       1111       1094       1093       1111       1112       1095       1094       1112       1113       1096       1095       1113       1114       1097       1096       1114       1115       1098       1097       1115       1116       1099       1098       1116       1117       1100       1099       1117       1118       1101       1100       1118       1119       1102       1101       1119       1120       1103       1102       1120       1121       1104       1103       1122       1123       1106       1105       1123       1124       1107       1106       1124       1125       1108       1107       1125       1126       1109       1108       1126       1127       1110       1109       1127       1128       1111       1110       1128       1129       1112       1111       1129       1130       1113       1112       1130       1131       1114       1113       1131       1132       1115       1114       1132       1133       1116       1115       1133       1134       1117       1116       1134       1135       1118       1117       1135       1136       1119       1118       1136       1137       1120       1119       1137       1138       1121       1120        272        273       1123       1122        273        274       1124       1123        274        275       1125       1124        275        276       1126       1125        276        277       1127       1126        277        278       1128       1127        278        279       1129       1128        279        280       1130       1129        280        281       1131       1130        281        282       1132       1131        282        283       1133       1132        283        284       1134       1133        284        285       1135       1134        285        286       1136       1135        286        287       1137       1136        287        288       1138       1137 </DataArray>
<DataArray type="Int32"                                    Name="offsets"                                                      NumberOfComponents=" 1" format="ascii">
         4          8         12         16         20         24         28         32         36         40         44         48         52         56         60         64         68         72         76         80         84         88         92         96        100        104        108        112        116        120        124        128        132        136        140        144        148        152        156        160        164        168        172        176        180        184        188        192        196        200        204        208        212        216        220        224        228        232        236        240        244        248        252        256        260        264        268        272        276        280        284        288        292        296        300        304        308        312        316        320        324        328        332        336        340        344        348        352        356        360        364        368        372        376        380        384        388        392        396        400        404        408        412        416        420        424        428        432        436        440        444        448        452        456        460        464        468        472        476        480        484        488        492        496        500        504        508        512        516        520        524        528        532        536        540        544        548        552        556        560        564        568        572        576        580        584        588        592        596        600        604        608        612        616        620        624        628        632        636        640        644        648        652        656        660        664        668        672        676        680        684        688        692        696        700        704        708        712        716        720        724        728        732        736        740        744        748        752        756        760        764        768        772        776        780        784        788        792        796        800        804        808        812        816        820        824        828        832        836        840        844        848        852        856        860        864        868        872        876        880        884        888        892        896        900        904        908        912        916        920        924        928        932        936        940        944        948        952        956        960        964        968        972        976        980        984        988        992        996       1000       1004       1008       1012       1016       1020       1024       1028       1032       1036       1040       1044       1048       1052       1056       1060       1064       1068       1072       1076       1080       1084       1088       1092       1096       1100       1104       1108       1112       1116       1120       1124       1128       1132       1136       1140       1144       1148       1152       1156       1160       1164       1168       1172       1176       1180       1184       1188       1192       1196       1200       1204       1208       1212       1216       1220       1224       1228       1232       1236       1240       1244       1248       1252       1256       1260       1264       1268       1272       1276       1280       1284       1288       1292       1296       1300       1304       1308       1312       1316       1320       1324       1328       1332       1336       1340       1344       1348       1352       1356       1360       1364       1368       1372       1376       1380       1384       1388       1392       1396       1400       1404       1408       1412       1416       1420       1424       1428       1432       1436       1440       1444       1448       1452       1456       1460       1464       1468       1472       1476       1480       1484       1488       1492       1496       1500       1504       1508       1512       1516       1520       1524       1528       1532       1536       1540       1544       1548       1552       1556       1560       1564       1568       1572       1576       1580       1584       1588       1592       1596       1600       1604       1608       1612       1616       1620       1624       1628       1632       1636       1640       1644       1648       1652       1656       1660       1664       1668       1672       1676       1680       1684       1688       1692       1696       1700       1704       1708       1712       1716       1720       1724       1728       1732       1736       1740       1744       1748       1752       1756       1760       1764       1768       1772       1776       1780       1784       1788       1792       1796       1800       1804       1808       1812       1816       1820       1824       1828       1832       1836       1840       1844       1848       1852       1856       1860       1864       1868       1872       1876       1880       1884       1888       1892       1896       1900       1904       1908       1912       1916       1920       1924       1928       1932       1936       1940       1944       1948       1952       1956       1960       1964       1968       1972       1976       1980       1984       1988       1992       1996       2000       2004       2008       2012       2016       2020       2024       2028       2032       2036       2040       2044       2048       2052       2056       2060       2064       2068       2072       2076       2080       2084       2088       2092       2096       2100       2104       2108       2112       2116       2120       2124       2128       2132       2136       2140       2144       2148       2152       2156       2160       2164       2168       2172       2176       2180       2184       2188       2192       2196       2200       2204       2208       2212       2216       2220       2224       2228       2232       2236       2240       2244       2248       2252       2256       2260       2264       2268       2272       2276       2280       2284       2288       2292       2296       2300       2304       2308       2312       2316       2320       2324       2328       2332       2336       2340       2344       2348       2352       2356       2360       2364       2368       2372       2376       2380       2384       2388       2392       2396       2400       2404       2408       2412       2416       2420       2424       2428       2432       2436       2440       2444       2448       2452       2456       2460       2464       2468       2472       2476       2480       2484       2488       2492       2496       2500       2504       2508       2512       2516       2520       2524       2528       2532       2536       2540       2544       2548       2552       2556       2560       2564       2568       2572       2576       2580       2584       2588       2592       2596       2600       2604       2608       2612       2616       2620       2624       2628       2632       2636       2640       2644       2648       2652       2656       2660       2664       2668       2672       2676       2680       2684       2688       2692       2696       2700       2704       2708       2712       2716       2720       2724       2728       2732       2736       2740       2744       2748       2752       2756       2760       2764       2768       2772       2776       2780       2784       2788       2792       2796       2800       2804       2808       2812       2816       2820       2824       2828       2832       2836       2840       2844       2848       2852       2856       2860       2864       2868       2872       2876       2880       2884       2888       2892       2896       2900       2904       2908       2912       2916       2920       2924       2928       2932       2936       2940       2944       2948       2952       2956       2960       2964       2968       2972       2976       2980       2984       2988       2992       2996       3000       3004       3008       3012       3016       3020       3024       3028       3032       3036       3040       3044       3048       3052       3056       3060       3064       3068       3072       3076       3080       3084       3088       3092       3096       3100       3104       3108       3112       3116       3120       3124       3128       3132       3136       3140       3144       3148       3152       3156       3160       3164       3168       3172       3176       3180       3184       3188       3192       3196       3200       3204       3208       3212       3216       3220       3224       3228       3232       3236       3240       3244       3248       3252       3256       3260       3264       3268       3272       3276       3280       3284       3288       3292       3296       3300       3304       3308       3312       3316       3320       3324       3328       3332       3336       3340       3344       3348       3352       3356       3360       3364       3368       3372       3376       3380       3384       3388       3392       3396       3400       3404       3408       3412       3416       3420       3424       3428       3432       3436       3440       3444       3448       3452       3456       3460       3464       3468       3472       3476       3480       3484       3488       3492       3496       3500       3504       3508       3512       3516       3520       3524       3528       3532       3536       3540       3544       3548       3552       3556       3560       3564       3568       3572       3576       3580       3584       3588       3592       3596       3600       3604       3608       3612       3616       3620       3624       3628       3632       3636       3640       3644       3648       3652       3656       3660       3664       3668       3672       3676       3680       3684       3688       3692       3696       3700       3704       3708       3712       3716       3720       3724       3728       3732       3736       3740       3744       3748       3752       3756       3760       3764       3768       3772       3776       3780       3784       3788       3792       3796       3800       3804       3808       3812       3816       3820       3824       3828       3832       3836       3840       3844       3848       3852       3856       3860       3864       3868       3872       3876       3880       3884       3888       3892       3896       3900       3904       3908       3912       3916       3920       3924       3928       3932       3936       3940       3944       3948       3952       3956       3960       3964       3968       3972       3976       3980       3984       3988       3992       3996       4000       4004       4008       4012       4016       4020       4024       4028       4032       4036       4040       4044       4048       4052       4056       4060       4064       4068       4072       4076       4080       4084       4088       4092       4096 </DataArray>
<DataArray type="UInt8"                                    Name="types"                                                      NumberOfComponents=" 1" format="ascii">
         9          9          9          9          9          9          9          9          9          9          9          9          9          9          9          9          9          9          9          9          9          9          9          9          9          9          9          9          9          9          9          9          9          9          9          9          9          9          9          9          9          9          9          9          9          9          9          9          9          9          9          9          9          9          9          9          9          9          9          9          9          9          9          9          9          9          9          9          9          9          9          9          9          9          9          9          9          9          9          9          9          9          9          9          9          9          9          9          9          9          9          9          9          9          9          9          9          9          9          9          9          9          9          9          9          9          9          9          9          9          9          9          9          9          9          9          9          9          9          9          9          9          9          9          9          9          9          9          9          9          9          9          9          9          9          9          9          9          9          9          9          9          9          9          9          9          9          9          9          9          9          9          9          9          9          9          9          9          9          9          9          9          9          9          9          9          9          9          9          9          9          9          9          9          9          9          9          9          9          9          9          9          9          9          9          9          9          9          9          9          9          9          9          9          9          9          9          9          9          9          9          9          9          9          9          9          9          9          9          9          9          9          9          9          9          9          9          9          9          9          9          9          9          9          9          9          9          9          9          9          9          9          9          9          9          9          9          9          9          9          9          9          9          9          9          9          9          9          9          9          9          9          9          9          9          9          9          9          9          9          9          9          9          9          9          9          9          9          9          9          9          9          9          9          9          9          9          9          9          9          9          9          9          9          9          9          9          9          9          9          9          9          9          9          9          9          9          9          9          9          9          9          9          9          9          9          9          9          9          9          9          9          9          9          9          9          9          9          9          9          9          9          9          9          9          9          9          9          9          9          9          9          9          9          9          9          9          9          9          9          9          9          9          9          9          9          9          9          9          9          9          9          9          9          9          9          9          9          9          9          9          9          9          9          9          9          9          9          9          9          9          9          9          9          9          9          9          9          9          9          9          9          9          9          9          9          9          9          9          9          9          9          9          9          9          9          9          9          9          9          9          9          9          9          9          9          9          9          9          9          9          9          9          9          9          9          9          9          9          9          9          9          9          9          9          9          9          9          9          9          9          9          9          9          9          9          9          9          9          9          9          9          9          9          9          9          9          9          9          9          9          9          9          9          9          9          9          9          9          9          9          9          9          9          9          9          9          9          9          9          9          9          9          9          9          9          9          9          9          9          9          9          9          9          9          9          9          9          9          9          9          9          9          9          9          9          9          9          9          9          9          9          9          9          9          9          9          9          9          9          9          9          9          9          9          9          9          9          9          9          9          9          9          9          9          9          9          9          9          9          9          9          9          9          9          9          9          9          9          9          9          9          9          9          9          9          9          9          9          9          9          9          9          9          9          9          9          9          9          9          9          9          9          9          9          9          9          9          9          9          9          9          9          9          9          9          9          9          9          9          9          9          9          9          9          9          9          9          9          9          9          9          9          9          9          9          9          9          9          9          9          9          9          9          9          9          9          9          9          9          9          9          9          9          9          9          9          9          9          9          9          9          9          9          9          9          9          9          9          9          9          9          9          9          9          9          9          9          9          9          9          9          9          9          9          9          9          9          9          9          9          9          9          9          9          9          9          9          9          9          9          9          9          9          9          9          9          9          9          9          9          9          9          9          9          9          9          9          9          9          9          9          9          9          9          9          9          9          9          9          9          9          9          9          9          9          9          9          9          9          9          9          9          9          9          9          9          9          9          9          9          9          9          9          9          9          9          9          9          9          9          9          9          9          9          9          9          9          9          9          9          9          9          9          9          9          9          9          9          9          9          9          9          9          9          9          9          9          9          9          9          9          9          9          9          9          9          9          9          9          9          9          9          9          9          9          9          9          9          9          9          9          9          9          9          9          9          9          9          9          9          9          9          9          9          9          9          9          9          9          9          9          9          9          9          9          9          9          9          9          9          9          9          9          9          9          9          9          9          9          9          9          9          9          9          9          9          9          9          9          9          9          9          9          9          9          9          9          9          9          9          9          9          9          9          9          9          9          9          9          9          9          9          9          9          9          9          9          9          9          9          9          9          9          9          9          9          9          9          9          9          9          9          9          9          9          9          9          9          9          9          9          9          9          9          9          9          9          9          9          9          9          9          9          9          9          9          9          9          9          9          9          9          9          9          9          9          9          9          9          9          9          9          9          9          9          9          9          9          9          9          9          9          9          9          9          9          9          9          9          9          9          9          9          9          9          9          9          9          9          9          9          9          9          9          9          9          9          9          9          9          9          9          9          9          9          9          9          9          9          9          9          9          9          9          9          9          9          9          9          9          9          9          9          9          9          9          9          9          9          9          9          9          9          9          9          9          9          9          9          9          9          9          9          9          9          9          9          9          9          9          9          9          9          9          9          9          9          9          9          9          9          9          9          9          9          9          9          9          9          9          9          9          9          9          9          9          9          9          9          9          9          9          9 </DataArray>
</Cells>
<CellData>
<DataArray type="Int32"                                    Name="material"                                                      NumberOfComponents=" 1" format="ascii">
         1          1          1          1          1          1          1          1          1          1          1          1          1          1          1          1          1          1          1          1          1          1          1          1          1          1          1          1          1          1          1          1          1          1          1          1          1          1          1          1          1          1          1          1          1          1          1          1          1          1          1          1          1          1          1          1          1          1          1          1          1          1          1          1          1          1          1          1          1          1          1          1          1          1          1          1          1          1          1          1          1          1          1          1          1          1          1          1          1          1          1          1          1          1          1          1          1          1          1          1          1          1          1          1          1          1          1          1          1          1          1          1          1          1          1          1          1          1          1          1          1          1          1          1          1          1          1          1          1          1          1          1          1          1          1          1          1          1          1          1          1          1          1          1          1          1          1          1          1          1          1          1          1          1          1          1          1          1          1          1          1          1          1          1          1          1          1          1          1          1          1          1          1          1          1          1          1          1          1          1          1          1          1          1          1          1          1          1          1          1          1          1          1          1          1          1          1          1          1          1          1          1          1          1          1          1          1          1          1          1          1          1          1          1          1          1          1          1          1          1          1          1          1          1          1          1          1          1          1          1          1          1          1          1          1          1          1          1          1          1          1          1          1          1          1          1          1          1          1          1          1          1          1          1          1          1          1          1          1          1          1          1          1          1          1          1          1          1          1          1          1          1          1          1          1          1          1          1          1          1          1          1          1          1          1          1          1          1          1          1          1          1          1          1          1          1          1          1          1          1          1          1          1          1          1          1          1          1          1          1          1          1          1          1          1          1          1          1          1          1          1          1          1          1          1          1          1          1          1          1          1          1          1          1          1          1          1          1          1          1          1          1          1          1          1          1          1          1          1          1          1          1          1          1          1          1          1          1          1          1          1          1          1          1          1          1          1          1          1          1          1          1          1          1          1          1          1          1          1          1          1          1          1          1          1          1          1          1          1          1          1          1          1          1          1          1          1          1          1          1          1          1          1          1          1          1          1          1          1          1          1          1          1          1          1          1          1          1          1          1          1          1          1          1          1          1          1          1          1          1          1          1          1          1          1          1          1          1          1          1          1          1          1          1          1          1          1          1          1          1          1          1          1          1          1          1          1          1          1          1          1          1          1          1          1          1          1          1          1          1          1          1          1          1          1          1          1          1          1          1          1          1          1          1          1          1          1          1          1          1          1          1          1          1          1          1          1          1          1          1          1          1          1          1          1          1          1          1          1          1          1          1          1          1          1          1          1          1          1          1          1          1          1          1          1          1          1          1          1          1          1          1          1          1          1          1          1          1          1          1          1          1          1          1          1          1          1          1          1          1          1          1          1          1          1          1          1          1          1          1          1          1          1          1          1          1          1          1          1          1          1          1          1          1          1          1          1          1          1          1          1          1          1          1          1          1          1          1          1          1          1          1          1          1          1          1          1          1          1          1          1          1          1          1          1          1          1          1          1          1          1          1          1          1          1          1          1          1          1          1          1          1          1          1          1          1          1          1          1          1          1          1          1          1          1          1          1          1          1          1          1          1          1          1          1          1          1          1          1          1          1          1          1          1          1          1          1          1          1          1          1          1          1          1          1          1          1          1          1          1          1          1          1          1          1          1          1          1          1          1          1          1          1          1          1          1          1          1          1          1          1          1          1          1          1          1          1          1          1          1          1          1          1          1          1          1          1          1          1          1          1          1          1          1          1          1          1          1          1          1          1          1          1          1          1          1          1          1          1          1          1          1          1          1          1          1          1          1          1          1          1          1          1          1          1          1          1          1          1          1          1          1          1          1          1          1          1          1          1          1          1          1          1          1          1          1          1          1          1          1          1          1          1          1          1          1          1          1          1          1          1          1          1          1          1          1          1          1          1          1          1          1          1          1          1          1          1          1          1          1          1          1          1          1          1          1          1          1          1          1          1          1          1          1          1          1          1          1          1          1          1          1          1          1          1          1          1          1          1          1          1          1          1          1          1          1          1          1          1          1          1          1          1          1          1          1          1          1          1          1          1          1          1          1          1          1          1          1          1          1          1          1          1          1          1          1          1          1          1          1          1          1          1          1          1          1          1          1          1          1          1          1          1          1          1          1          1          1          1          1          1          1          1          1          1          1          1          1          1          1          1          1          1          1          1          1          1          1          1          1          1          1          1          1          1          1          1          1          1          1          1          1          1          1          1          1          1          1          1          1          1          1          1          1          1          1          1          1          1          1          1          1          1          1          1          1          1          1          1          1          1          1          1          1          1          1          1          1          1          1          1          1          1          1          1          1          1          1          1          1          1          1          1          1          1          1          1          1          1          1          1          1          1          1          1          1          1          1          1          1          1          1          1          1          1          1          1          1          1          1          1          1          1          1          1          1          1          1          1          1          1          1          1          1          1          1          1          1          1          1          1          1          1          1 </DataArray>
</CellData>
<PointData>
<DataArray type="Float64"                                    Name="u"                                                      NumberOfComponents=" 3" format="ascii">
             -0.000818967               0.000000000               0.999999989              -0.000863502               0.000000000               0.999999989              -0.000882279              -0.000000000               0.999999989              -0.000892624               0.000000000               0.999999989              -0.000900825               0.000000000               0.999999989              -0.000909253               0.000000000               0.999999989              -0.000918449               0.000000000               0.999999989              -0.000928279              -0.000000000               0.999999989              -0.000938698               0.000000000               0.999999989              -0.000949389              -0.000000000               0.999999989              -0.000959964               0.000000000               0.999999989              -0.000970156               0.000000000               0.999999989              -0.000979603               0.000000000               0.999999989              -0.000987957               0.000000000               0.999999989              -0.000994892               0.000000000               0.999999989              -0.000999831              -0.000000000               0.999999989              -0.001002138               0.000000000               0.999999989              -0.000814543               0.000116359               0.999999989              -0.000855266               0.000092123               0.999999989              -0.000871528               0.000080710               0.999999989              -0.000880300               0.000075586               0.999999989              -0.000887398               0.000073756               0.999999989              -0.000894854               0.000073423               0.999999989              -0.000903213               0.000073496               0.999999989              -0.000912344               0.000073274               0.999999989              -0.000921877               0.000072499               0.999999989              -0.000931477               0.000070902               0.999999989              -0.000940779               0.000068141               0.999999989              -0.000949435               0.000063938               0.999999989              -0.000957216               0.000057972               0.999999989              -0.000963737               0.000049817               0.999999989              -0.000968637               0.000038959               0.999999989              -0.000971355               0.000024534               0.999999989              -0.000971441               0.000005409               0.999999989              -0.000801216               0.000231742               0.999999989              -0.000830795               0.000183892               0.999999989              -0.000840103               0.000162278               0.999999989              -0.000844464               0.000153152               0.999999989              -0.000848476               0.000150034               0.999999989              -0.000853515               0.000149899               0.999999989              -0.000859691               0.000150455               0.999999989              -0.000866552               0.000150364               0.999999989              -0.000873565               0.000148952               0.999999989              -0.000880148               0.000145673               0.999999989              -0.000885899               0.000140160               0.999999989              -0.000890470               0.000131988               0.999999989              -0.000893576               0.000120509               0.999999989              -0.000894857               0.000104924               0.999999989              -0.000893975               0.000084375               0.999999989              -0.000890654               0.000057765               0.999999989              -0.000884777               0.000023829               0.999999989              -0.000779152               0.000345107               0.999999989              -0.000791219               0.000275198               0.999999989              -0.000790467               0.000245507               0.999999989              -0.000788711               0.000233980               0.999999989              -0.000788714               0.000230850               0.999999989              -0.000790725               0.000231575               0.999999989              -0.000793969               0.000233030               0.999999989              -0.000797494               0.000233220               0.999999989              -0.000800626               0.000231349               0.999999989              -0.000802790               0.000226515               0.999999989              -0.000803472               0.000218311               0.999999989              -0.000802204               0.000206290               0.999999989              -0.000798578               0.000189654               0.999999989              -0.000792270               0.000167499               0.999999989              -0.000783160               0.000139152               0.999999989              -0.000771257               0.000103808               0.999999989              -0.000756945               0.000061010               0.999999989              -0.000748902               0.000455432               0.999999989              -0.000738625               0.000366036               0.999999989              -0.000726547               0.000330922               0.999999989              -0.000718773               0.000318796               0.999999989              -0.000715176               0.000316777               0.999999989              -0.000714173               0.000318836               0.999999989              -0.000714215               0.000321315               0.999999989              -0.000713912               0.000321857               0.999999989              -0.000712370               0.000319425               0.999999989              -0.000708976               0.000313093               0.999999989              -0.000703108               0.000302383               0.999999989              -0.000694205               0.000286611               0.999999989              -0.000681969               0.000265214               0.999999989              -0.000666274               0.000237688               0.999999989              -0.000647360               0.000203678               0.999999989              -0.000625664               0.000163296               0.999999989              -0.000601987               0.000116994               0.999999989              -0.000710986               0.000561811               0.999999989              -0.000675609               0.000456533               0.999999989              -0.000653061               0.000418684               0.999999989              -0.000640698               0.000407499               0.999999989              -0.000634485               0.000407197               0.999999989              -0.000631083               0.000410640               0.999999989              -0.000627914               0.000413948               0.999999989              -0.000623340               0.000414703               0.999999989              -0.000616522               0.000411650               0.999999989              -0.000606556               0.000403720               0.999999989              -0.000592713               0.000390307               0.999999989              -0.000574680               0.000371077               0.999999989              -0.000552438               0.000345785               0.999999989              -0.000526366               0.000314453               0.999999989              -0.000497061               0.000277272               0.999999989              -0.000465397               0.000235041               0.999999989              -0.000432527               0.000189445               0.999999989              -0.000666153               0.000663257               0.999999989              -0.000605303               0.000546749               0.999999989              -0.000574665               0.000508470               0.999999989              -0.000559849               0.000499065               0.999999989              -0.000552375               0.000500525               0.999999989              -0.000547033               0.000505101               0.999999989              -0.000540646               0.000508943               0.999999989              -0.000531577               0.000509644               0.999999989              -0.000518665               0.000505657               0.999999989              -0.000500948               0.000495922               0.999999989              -0.000477997               0.000479940               0.999999989              -0.000449829               0.000457784               0.999999989              -0.000416968               0.000429773               0.999999989              -0.000380100               0.000396393               0.999999989              -0.000340228               0.000358192               0.999999989              -0.000298721               0.000316726               0.999999989              -0.000256725               0.000274344               0.999999989              -0.000615263               0.000758719               0.999999989              -0.000530838               0.000636622               0.999999989              -0.000495650               0.000599413               0.999999989              -0.000480879               0.000591742               0.999999989              -0.000473205               0.000594611               0.999999989              -0.000466264               0.000600078               0.999999989              -0.000456698               0.000604104               0.999999989              -0.000442456               0.000604412               0.999999989              -0.000422354               0.000599262               0.999999989              -0.000395644               0.000587633               0.999999989              -0.000362353               0.000569607               0.999999989              -0.000322985               0.000545626               0.999999989              -0.000278531               0.000516446               0.999999989              -0.000230123               0.000482736               0.999999989              -0.000179292               0.000445805               0.999999989              -0.000127500               0.000407732               0.999999989              -0.000076073               0.000370013               0.999999989              -0.000559824               0.000846535               0.999999989              -0.000454849               0.000726031               0.999999989              -0.000420067               0.000690111               0.999999989              -0.000406993               0.000683632               0.999999989              -0.000399718               0.000687533               0.999999989              -0.000391277               0.000693611               0.999999989              -0.000377877               0.000697726               0.999999989              -0.000357483               0.000697315               0.999999989              -0.000328902               0.000690890               0.999999989              -0.000291853               0.000677724               0.999999989              -0.000246898               0.000658380               0.999999989              -0.000195167               0.000633768               0.999999989              -0.000138092               0.000604936               0.999999989              -0.000077403               0.000573404               0.999999989              -0.000015016               0.000540752               0.999999989               0.000047531               0.000508546               0.999999989               0.000109417               0.000477677               0.999999989              -0.000502148               0.000930125               0.999999989              -0.000390899               0.000827231               0.999999989              -0.000353859               0.000788331               0.999999989              -0.000340460               0.000777870               0.999999989              -0.000333664               0.000779369               0.999999989              -0.000326917               0.000785335               0.999999989              -0.000316378               0.000791489               0.999999989              -0.000300029               0.000795386               0.999999989              -0.000276358               0.000795504               0.999999989              -0.000244837               0.000790989               0.999999989              -0.000205467               0.000781474               0.999999989              -0.000158953               0.000767522               0.999999989              -0.000106064               0.000750051               0.999999989              -0.000047969               0.000729945               0.999999989               0.000013670               0.000708311               0.999999989               0.000077348               0.000686333               0.999999989               0.000141552               0.000665252               0.999999989              -0.000439109               0.001006666               0.999999989              -0.000329076               0.000925830               0.999999989              -0.000290073               0.000889671               0.999999989              -0.000275547               0.000877468               0.999999989              -0.000268669               0.000877503               0.999999989              -0.000262902               0.000883465               0.999999989              -0.000254608               0.000891471               0.999999989              -0.000241614               0.000899125               0.999999989              -0.000222365               0.000904814               0.999999989              -0.000196275               0.000907462               0.999999989              -0.000162981               0.000906564               0.999999989              -0.000122240               0.000902019               0.999999989              -0.000074628               0.000894520               0.999999989              -0.000020864               0.000884591               0.999999989               0.000038048               0.000873106               0.999999989               0.000100547               0.000860808               0.999999989               0.000165059               0.000848873               0.999999989              -0.000372015               0.001074075               0.999999989              -0.000269639               0.001018466               0.999999989              -0.000230339               0.000989437               0.999999989              -0.000214583               0.000978505               0.999999989              -0.000207173               0.000978650               0.999999989              -0.000201673               0.000985223               0.999999989              -0.000194888               0.000995167               0.999999989              -0.000184724               0.001006282               0.999999989              -0.000169492               0.001016873               0.999999989              -0.000148361               0.001025963               0.999999989              -0.000120781               0.001032851               0.999999989              -0.000086440               0.001037125               0.999999989              -0.000045252               0.001038629               0.999999989               0.000002670               0.001037741               0.999999989               0.000056943               0.001035235               0.999999989               0.000116691               0.001031825               0.999999989               0.000180456               0.001028478               0.999999989              -0.000301539               0.001131089               0.999999989              -0.000212606               0.001101213               0.999999989              -0.000175599               0.001082322               0.999999989              -0.000159439               0.001075416               0.999999989              -0.000151468               0.001077487               0.999999989              -0.000145988               0.001085740               0.999999989              -0.000140203               0.001097966               0.999999989              -0.000132279               0.001112463               0.999999989              -0.000120639               0.001127672               0.999999989              -0.000104050               0.001142641               0.999999989              -0.000082171               0.001156570               0.999999989              -0.000054548               0.001168868               0.999999989              -0.000020522               0.001179096               0.999999989               0.000020317               0.001187291               0.999999989               0.000068407               0.001193726               0.999999989               0.000123665               0.001198981               0.999999989               0.000185693               0.001203850               0.999999989              -0.000228510               0.001176434               0.999999989              -0.000157715               0.001170129               0.999999989              -0.000126013               0.001162644               0.999999989              -0.000111037               0.001161519               0.999999989              -0.000103188               0.001166962               0.999999989              -0.000097984               0.001177731               0.999999989              -0.000093271               0.001192595               0.999999989              -0.000087139               0.001210384               0.999999989              -0.000078494               0.001229946               0.999999989              -0.000066337               0.001250318               0.999999989              -0.000050061               0.001270623               0.999999989              -0.000029198               0.001290284               0.999999989              -0.000002999               0.001308861               0.999999989               0.000029557               0.001326038               0.999999989               0.000069414               0.001341718               0.999999989               0.000117413               0.001355942               0.999999989               0.000174338               0.001369216               0.999999989              -0.000153495               0.001209500               0.999999989              -0.000104374               0.001221938               0.999999989              -0.000081057               0.001224819               0.999999989              -0.000069465               0.001229534               0.999999989              -0.000063035               0.001238689               0.999999989              -0.000058743               0.001252344               0.999999989              -0.000055207               0.001269858               0.999999989              -0.000050915               0.001290630               0.999999989              -0.000045131               0.001313848               0.999999989              -0.000037109               0.001338715               0.999999989              -0.000026341               0.001364505               0.999999989              -0.000012354               0.001390637               0.999999989               0.000005461               0.001416546               0.999999989               0.000028187               0.001441764               0.999999989               0.000057012               0.001465955               0.999999989               0.000093208               0.001488792               0.999999989               0.000138400               0.001510181               0.999999989              -0.000077087               0.001229641               0.999999989              -0.000051995               0.001254064               0.999999989              -0.000039607               0.001264115               0.999999989              -0.000033283               0.001273373               0.999999989              -0.000029557               0.001285502               0.999999989              -0.000027094               0.001301325               0.999999989              -0.000025165               0.001320836               0.999999989              -0.000022990               0.001343702               0.999999989              -0.000020102               0.001369331               0.999999989              -0.000016085               0.001397151               0.999999989              -0.000010671               0.001426582               0.999999989              -0.000003764               0.001457102               0.999999989               0.000005202               0.001488201               0.999999989               0.000016858               0.001519356               0.999999989               0.000032086               0.001549985               0.999999989               0.000051717               0.001579480               0.999999989               0.000077176               0.001607172               0.999999989              -0.000000000               0.001236310               0.999999989              -0.000000000               0.001264891               0.999999989               0.000000000               0.001277555               0.999999989               0.000000000               0.001288465               0.999999989               0.000000000               0.001301713               0.999999989              -0.000000000               0.001318441               0.999999989              -0.000000000               0.001338728               0.999999989               0.000000000               0.001362368               0.999999989              -0.000000000               0.001388910               0.999999989               0.000000000               0.001417726               0.999999989               0.000000000               0.001448343               0.999999989               0.000000000               0.001480428               0.999999989              -0.000000000               0.001513541               0.999999989               0.000000000               0.001547135               0.999999989               0.000000000               0.001580406               0.999999989              -0.000000000               0.001612562               0.999999989              -0.000000000               0.001642766               0.999999989              -0.000818967               0.000000000               0.999999989              -0.000863502               0.000000000               0.999999989              -0.000882279              -0.000000000               0.999999989              -0.000892624               0.000000000               0.999999989              -0.000900825               0.000000000               0.999999989              -0.000909253               0.000000000               0.999999989              -0.000918449               0.000000000               0.999999989              -0.000928279              -0.000000000               0.999999989              -0.000938698               0.000000000               0.999999989              -0.000949389              -0.000000000               0.999999989              -0.000959964               0.000000000               0.999999989              -0.000970156               0.000000000               0.999999989              -0.000979603               0.000000000               0.999999989              -0.000987957               0.000000000               0.999999989              -0.000994892               0.000000000               0.999999989              -0.000999831              -0.000000000               0.999999989              -0.001002138               0.000000000               0.999999989              -0.000814543              -0.000116359               0.999999989              -0.000855266              -0.000092123               0.999999989              -0.000871528              -0.000080710               0.999999989              -0.000880300              -0.000075586               0.999999989              -0.000887398              -0.000073756               0.999999989              -0.000894854              -0.000073423               0.999999989              -0.000903213              -0.000073496               0.999999989              -0.000912344              -0.000073274               0.999999989              -0.000921877              -0.000072499               0.999999989              -0.000931477              -0.000070902               0.999999989              -0.000940779              -0.000068141               0.999999989              -0.000949435              -0.000063938               0.999999989              -0.000957216              -0.000057972               0.999999989              -0.000963737              -0.000049817               0.999999989              -0.000968637              -0.000038959               0.999999989              -0.000971355              -0.000024534               0.999999989              -0.000971441              -0.000005409               0.999999989              -0.000801216              -0.000231742               0.999999989              -0.000830795              -0.000183892               0.999999989              -0.000840103              -0.000162278               0.999999989              -0.000844464              -0.000153152               0.999999989              -0.000848476              -0.000150034               0.999999989              -0.000853515              -0.000149899               0.999999989              -0.000859691              -0.000150455               0.999999989              -0.000866552              -0.000150364               0.999999989              -0.000873565              -0.000148952               0.999999989              -0.000880148              -0.000145673               0.999999989              -0.000885899              -0.000140160               0.999999989              -0.000890470              -0.000131988               0.999999989              -0.000893576              -0.000120509               0.999999989              -0.000894857              -0.000104924               0.999999989              -0.000893975              -0.000084375               0.999999989              -0.000890654              -0.000057765               0.999999989              -0.000884777              -0.000023829               0.999999989              -0.000779152              -0.000345107               0.999999989              -0.000791219              -0.000275198               0.999999989              -0.000790467              -0.000245507               0.999999989              -0.000788711              -0.000233980               0.999999989              -0.000788714              -0.000230850               0.999999989              -0.000790725              -0.000231575               0.999999989              -0.000793969              -0.000233030               0.999999989              -0.000797494              -0.000233220               0.999999989              -0.000800626              -0.000231349               0.999999989              -0.000802790              -0.000226515               0.999999989              -0.000803472              -0.000218311               0.999999989              -0.000802204              -0.000206290               0.999999989              -0.000798578              -0.000189654               0.999999989              -0.000792270              -0.000167499               0.999999989              -0.000783160              -0.000139152               0.999999989              -0.000771257              -0.000103808               0.999999989              -0.000756945              -0.000061010               0.999999989              -0.000748902              -0.000455432               0.999999989              -0.000738625              -0.000366036               0.999999989              -0.000726547              -0.000330922               0.999999989              -0.000718773              -0.000318796               0.999999989              -0.000715176              -0.000316777               0.999999989              -0.000714173              -0.000318836               0.999999989              -0.000714215              -0.000321315               0.999999989              -0.000713912              -0.000321857               0.999999989              -0.000712370              -0.000319425               0.999999989              -0.000708976              -0.000313093               0.999999989              -0.000703108              -0.000302383               0.999999989              -0.000694205              -0.000286611               0.999999989              -0.000681969              -0.000265214               0.999999989              -0.000666274              -0.000237688               0.999999989              -0.000647360              -0.000203678               0.999999989              -0.000625664              -0.000163296               0.999999989              -0.000601987              -0.000116994               0.999999989              -0.000710986              -0.000561811               0.999999989              -0.000675609              -0.000456533               0.999999989              -0.000653061              -0.000418684               0.999999989              -0.000640698              -0.000407499               0.999999989              -0.000634485              -0.000407197               0.999999989              -0.000631083              -0.000410640               0.999999989              -0.000627914              -0.000413948               0.999999989              -0.000623340              -0.000414703               0.999999989              -0.000616522              -0.000411650               0.999999989              -0.000606556              -0.000403720               0.999999989              -0.000592713              -0.000390307               0.999999989              -0.000574680              -0.000371077               0.999999989              -0.000552438              -0.000345785               0.999999989              -0.000526366              -0.000314453               0.999999989              -0.000497061              -0.000277272               0.999999989              -0.000465397              -0.000235041               0.999999989              -0.000432527              -0.000189445               0.999999989              -0.000666153              -0.000663257               0.999999989              -0.000605303              -0.000546749               0.999999989              -0.000574665              -0.000508470               0.999999989              -0.000559849              -0.000499065               0.999999989              -0.000552375              -0.000500525               0.999999989              -0.000547033              -0.000505101               0.999999989              -0.000540646              -0.000508943               0.999999989              -0.000531577              -0.000509644               0.999999989              -0.000518665              -0.000505657               0.999999989              -0.000500948              -0.000495922               0.999999989              -0.000477997              -0.000479940               0.999999989              -0.000449829              -0.000457784               0.999999989              -0.000416968              -0.000429773               0.999999989              -0.000380100              -0.000396393               0.999999989              -0.000340228              -0.000358192               0.999999989              -0.000298721              -0.000316726               0.999999989              -0.000256725              -0.000274344               0.999999989              -0.000615263              -0.000758719               0.999999989              -0.000530838              -0.000636622               0.999999989              -0.000495650              -0.000599413               0.999999989              -0.000480879              -0.000591742               0.999999989              -0.000473205              -0.000594611               0.999999989              -0.000466264              -0.000600078               0.999999989              -0.000456698              -0.000604104               0.999999989              -0.000442456              -0.000604412               0.999999989              -0.000422354              -0.000599262               0.999999989              -0.000395644              -0.000587633               0.999999989              -0.000362353              -0.000569607               0.999999989              -0.000322985              -0.000545626               0.999999989              -0.000278531              -0.000516446               0.999999989              -0.000230123              -0.000482736               0.999999989              -0.000179292              -0.000445805               0.999999989              -0.000127500              -0.000407732               0.999999989              -0.000076073              -0.000370013               0.999999989              -0.000559824              -0.000846535               0.999999989              -0.000454849              -0.000726031               0.999999989              -0.000420067              -0.000690111               0.999999989              -0.000406993              -0.000683632               0.999999989              -0.000399718              -0.000687533               0.999999989              -0.000391277              -0.000693611               0.999999989              -0.000377877              -0.000697726               0.999999989              -0.000357483              -0.000697315               0.999999989              -0.000328902              -0.000690890               0.999999989              -0.000291853              -0.000677724               0.999999989              -0.000246898              -0.000658380               0.999999989              -0.000195167              -0.000633768               0.999999989              -0.000138092              -0.000604936               0.999999989              -0.000077403              -0.000573404               0.999999989              -0.000015016              -0.000540752               0.999999989               0.000047531              -0.000508546               0.999999989               0.000109417              -0.000477677               0.999999989              -0.000502148              -0.000930125               0.999999989              -0.000390899              -0.000827231               0.999999989              -0.000353859              -0.000788331               0.999999989              -0.000340460              -0.000777870               0.999999989              -0.000333664              -0.000779369               0.999999989              -0.000326917              -0.000785335               0.999999989              -0.000316378              -0.000791489               0.999999989              -0.000300029              -0.000795386               0.999999989              -0.000276358              -0.000795504               0.999999989              -0.000244837              -0.000790989               0.999999989              -0.000205467              -0.000781474               0.999999989              -0.000158953              -0.000767522               0.999999989              -0.000106064              -0.000750051               0.999999989              -0.000047969              -0.000729945               0.999999989               0.000013670              -0.000708311               0.999999989               0.000077348              -0.000686333               0.999999989               0.000141552              -0.000665252               0.999999989              -0.000439109              -0.001006666               0.999999989              -0.000329076              -0.000925830               0.999999989              -0.000290073              -0.000889671               0.999999989              -0.000275547              -0.000877468               0.999999989              -0.000268669              -0.000877503               0.999999989              -0.000262902              -0.000883465               0.999999989              -0.000254608              -0.000891471               0.999999989              -0.000241614              -0.000899125               0.999999989              -0.000222365              -0.000904814               0.999999989              -0.000196275              -0.000907462               0.999999989              -0.000162981              -0.000906564               0.999999989              -0.000122240              -0.000902019               0.999999989              -0.000074628              -0.000894520               0.999999989              -0.000020864              -0.000884591               0.999999989               0.000038048              -0.000873106               0.999999989               0.000100547              -0.000860808               0.999999989               0.000165059              -0.000848873               0.999999989              -0.000372015              -0.001074075               0.999999989              -0.000269639              -0.001018466               0.999999989              -0.000230339              -0.000989437               0.999999989              -0.000214583              -0.000978505               0.999999989              -0.000207173              -0.000978650               0.999999989              -0.000201673              -0.000985223               0.999999989              -0.000194888              -0.000995167               0.999999989              -0.000184724              -0.001006282               0.999999989              -0.000169492              -0.001016873               0.999999989              -0.000148361              -0.001025963               0.999999989              -0.000120781              -0.001032851               0.999999989              -0.000086440              -0.001037125               0.999999989              -0.000045252              -0.001038629               0.999999989               0.000002670              -0.001037741               0.999999989               0.000056943              -0.001035235               0.999999989               0.000116691              -0.001031825               0.999999989               0.000180456              -0.001028478               0.999999989              -0.000301539              -0.001131089               0.999999989              -0.000212606              -0.001101213               0.999999989              -0.000175599              -0.001082322               0.999999989              -0.000159439              -0.001075416               0.999999989              -0.000151468              -0.001077487               0.999999989              -0.000145988              -0.001085740               0.999999989              -0.000140203              -0.001097966               0.999999989              -0.000132279              -0.001112463               0.999999989              -0.000120639              -0.001127672               0.999999989              -0.000104050              -0.001142641               0.999999989              -0.000082171              -0.001156570               0.999999989              -0.000054548              -0.001168868               0.999999989              -0.000020522              -0.001179096               0.999999989               0.000020317              -0.001187291               0.999999989               0.000068407              -0.001193726               0.999999989               0.000123665              -0.001198981               0.999999989               0.000185693              -0.001203850               0.999999989              -0.000228510              -0.001176434               0.999999989              -0.000157715              -0.001170129               0.999999989              -0.000126013              -0.001162644               0.999999989              -0.000111037              -0.001161519               0.999999989              -0.000103188              -0.001166962               0.999999989              -0.000097984              -0.001177731               0.999999989              -0.000093271              -0.001192595               0.999999989              -0.000087139              -0.001210384               0.999999989              -0.000078494              -0.001229946               0.999999989              -0.000066337              -0.001250318               0.999999989              -0.000050061              -0.001270623               0.999999989              -0.000029198              -0.001290284               0.999999989              -0.000002999              -0.001308861               0.999999989               0.000029557              -0.001326038               0.999999989               0.000069414              -0.001341718               0.999999989               0.000117413              -0.001355942               0.999999989               0.000174338              -0.001369216               0.999999989              -0.000153495              -0.001209500               0.999999989              -0.000104374              -0.001221938               0.999999989              -0.000081057              -0.001224819               0.999999989              -0.000069465              -0.001229534               0.999999989              -0.000063035              -0.001238689               0.999999989              -0.000058743              -0.001252344               0.999999989              -0.000055207              -0.001269858               0.999999989              -0.000050915              -0.001290630               0.999999989              -0.000045131              -0.001313848               0.999999989              -0.000037109              -0.001338715               0.999999989              -0.000026341              -0.001364505               0.999999989              -0.000012354              -0.001390637               0.999999989               0.000005461              -0.001416546               0.999999989               0.000028187              -0.001441764               0.999999989               0.000057012              -0.001465955               0.999999989               0.000093208              -0.001488792               0.999999989               0.000138400              -0.001510181               0.999999989              -0.000077087              -0.001229641               0.999999989              -0.000051995              -0.001254064               0.999999989              -0.000039607              -0.001264115               0.999999989              -0.000033283              -0.001273373               0.999999989              -0.000029557              -0.001285502               0.999999989              -0.000027094              -0.001301325               0.999999989              -0.000025165              -0.001320836               0.999999989              -0.000022990              -0.001343702               0.999999989              -0.000020102              -0.001369331               0.999999989              -0.000016085              -0.001397151               0.999999989              -0.000010671              -0.001426582               0.999999989              -0.000003764              -0.001457102               0.999999989               0.000005202              -0.001488201               0.999999989               0.000016858              -0.001519356               0.999999989               0.000032086              -0.001549985               0.999999989               0.000051717              -0.001579480               0.999999989               0.000077176              -0.001607172               0.999999989              -0.000000000              -0.001236310               0.999999989               0.000000000              -0.001264891               0.999999989               0.000000000              -0.001277555               0.999999989               0.000000000              -0.001288465               0.999999989              -0.000000000              -0.001301713               0.999999989               0.000000000              -0.001318441               0.999999989              -0.000000000              -0.001338728               0.999999989              -0.000000000              -0.001362368               0.999999989               0.000000000              -0.001388910               0.999999989              -0.000000000              -0.001417726               0.999999989              -0.000000000              -0.001448343               0.999999989              -0.000000000              -0.001480428               0.999999989               0.000000000              -0.001513541               0.999999989              -0.000000000              -0.001547135               0.999999989              -0.000000000              -0.001580406               0.999999989               0.000000000              -0.001612562               0.999999989               0.000000000              -0.001642766               0.999999989               0.000818967              -0.000000000               0.999999989               0.000863502               0.000000000               0.999999989               0.000882279               0.000000000               0.999999989               0.000892624               0.000000000               0.999999989               0.000900825               0.000000000               0.999999989               0.000909253               0.000000000               0.999999989               0.000918449               0.000000000               0.999999989               0.000928279              -0.000000000               0.999999989               0.000938698              -0.000000000               0.999999989               0.000949389               0.000000000               0.999999989               0.000959964               0.000000000               0.999999989               0.000970156               0.000000000               0.999999989               0.000979603              -0.000000000               0.999999989               0.000987957               0.000000000               0.999999989               0.000994892               0.000000000               0.999999989               0.000999831              -0.000000000               0.999999989               0.001002138              -0.000000000               0.999999989               0.000814543              -0.000116359               0.999999989               0.000855266              -0.000092123               0.999999989               0.000871528              -0.000080710               0.999999989               0.000880300              -0.000075586               0.999999989               0.000887398              -0.000073756               0.999999989               0.000894854              -0.000073423               0.999999989               0.000903213              -0.000073496               0.999999989               0.000912344              -0.000073274               0.999999989               0.000921877              -0.000072499               0.999999989               0.000931477              -0.000070902               0.999999989               0.000940779              -0.000068141               0.999999989               0.000949435              -0.000063938               0.999999989               0.000957216              -0.000057972               0.999999989               0.000963737              -0.000049817               0.999999989               0.000968637              -0.000038959               0.999999989               0.000971355              -0.000024534               0.999999989               0.000971441              -0.000005409               0.999999989               0.000801216              -0.000231742               0.999999989               0.000830795              -0.000183892               0.999999989               0.000840103              -0.000162278               0.999999989               0.000844464              -0.000153152               0.999999989               0.000848476              -0.000150034               0.999999989               0.000853515              -0.000149899               0.999999989               0.000859691              -0.000150455               0.999999989               0.000866552              -0.000150364               0.999999989               0.000873565              -0.000148952               0.999999989               0.000880148              -0.000145673               0.999999989               0.000885899              -0.000140160               0.999999989               0.000890470              -0.000131988               0.999999989               0.000893576              -0.000120509               0.999999989               0.000894857              -0.000104924               0.999999989               0.000893975              -0.000084375               0.999999989               0.000890654              -0.000057765               0.999999989               0.000884777              -0.000023829               0.999999989               0.000779152              -0.000345107               0.999999989               0.000791219              -0.000275198               0.999999989               0.000790467              -0.000245507               0.999999989               0.000788711              -0.000233980               0.999999989               0.000788714              -0.000230850               0.999999989               0.000790725              -0.000231575               0.999999989               0.000793969              -0.000233030               0.999999989               0.000797494              -0.000233220               0.999999989               0.000800626              -0.000231349               0.999999989               0.000802790              -0.000226515               0.999999989               0.000803472              -0.000218311               0.999999989               0.000802204              -0.000206290               0.999999989               0.000798578              -0.000189654               0.999999989               0.000792270              -0.000167499               0.999999989               0.000783160              -0.000139152               0.999999989               0.000771257              -0.000103808               0.999999989               0.000756945              -0.000061010               0.999999989               0.000748902              -0.000455432               0.999999989               0.000738625              -0.000366036               0.999999989               0.000726547              -0.000330922               0.999999989               0.000718773              -0.000318796               0.999999989               0.000715176              -0.000316777               0.999999989               0.000714173              -0.000318836               0.999999989               0.000714215              -0.000321315               0.999999989               0.000713912              -0.000321857               0.999999989               0.000712370              -0.000319425               0.999999989               0.000708976              -0.000313093               0.999999989               0.000703108              -0.000302383               0.999999989               0.000694205              -0.000286611               0.999999989               0.000681969              -0.000265214               0.999999989               0.000666274              -0.000237688               0.999999989               0.000647360              -0.000203678               0.999999989               0.000625664              -0.000163296               0.999999989               0.000601987              -0.000116994               0.999999989               0.000710986              -0.000561811               0.999999989               0.000675609              -0.000456533               0.999999989               0.000653061              -0.000418684               0.999999989               0.000640698              -0.000407499               0.999999989               0.000634485              -0.000407197               0.999999989               0.000631083              -0.000410640               0.999999989               0.000627914              -0.000413948               0.999999989               0.000623340              -0.000414703               0.999999989               0.000616522              -0.000411650               0.999999989               0.000606556              -0.000403720               0.999999989               0.000592713              -0.000390307               0.999999989               0.000574680              -0.000371077               0.999999989               0.000552438              -0.000345785               0.999999989               0.000526366              -0.000314453               0.999999989               0.000497061              -0.000277272               0.999999989               0.000465397              -0.000235041               0.999999989               0.000432527              -0.000189445               0.999999989               0.000666153              -0.000663257               0.999999989               0.000605303              -0.000546749               0.999999989               0.000574665              -0.000508470               0.999999989               0.000559849              -0.000499065               0.999999989               0.000552375              -0.000500525               0.999999989               0.000547033              -0.000505101               0.999999989               0.000540646              -0.000508943               0.999999989               0.000531577              -0.000509644               0.999999989               0.000518665              -0.000505657               0.999999989               0.000500948              -0.000495922               0.999999989               0.000477997              -0.000479940               0.999999989               0.000449829              -0.000457784               0.999999989               0.000416968              -0.000429773               0.999999989               0.000380100              -0.000396393               0.999999989               0.000340228              -0.000358192               0.999999989               0.000298721              -0.000316726               0.999999989               0.000256725              -0.000274344               0.999999989               0.000615263              -0.000758719               0.999999989               0.000530838              -0.000636622               0.999999989               0.000495650              -0.000599413               0.999999989               0.000480879              -0.000591742               0.999999989               0.000473205              -0.000594611               0.999999989               0.000466264              -0.000600078               0.999999989               0.000456698              -0.000604104               0.999999989               0.000442456              -0.000604412               0.999999989               0.000422354              -0.000599262               0.999999989               0.000395644              -0.000587633               0.999999989               0.000362353              -0.000569607               0.999999989               0.000322985              -0.000545626               0.999999989               0.000278531              -0.000516446               0.999999989               0.000230123              -0.000482736               0.999999989               0.000179292              -0.000445805               0.999999989               0.000127500              -0.000407732               0.999999989               0.000076073              -0.000370013               0.999999989               0.000559824              -0.000846535               0.999999989               0.000454849              -0.000726031               0.999999989               0.000420067              -0.000690111               0.999999989               0.000406993              -0.000683632               0.999999989               0.000399718              -0.000687533               0.999999989               0.000391277              -0.000693611               0.999999989               0.000377877              -0.000697726               0.999999989               0.000357483              -0.000697315               0.999999989               0.000328902              -0.000690890               0.999999989               0.000291853              -0.000677724               0.999999989               0.000246898              -0.000658380               0.999999989               0.000195167              -0.000633768               0.999999989               0.000138092              -0.000604936               0.999999989               0.000077403              -0.000573404               0.999999989               0.000015016              -0.000540752               0.999999989              -0.000047531              -0.000508546               0.999999989              -0.000109417              -0.000477677               0.999999989               0.000502148              -0.000930125               0.999999989               0.000390899              -0.000827231               0.999999989               0.000353859              -0.000788331               0.999999989               0.000340460              -0.000777870               0.999999989               0.000333664              -0.000779369               0.999999989               0.000326917              -0.000785335               0.999999989               0.000316378              -0.000791489               0.999999989               0.000300029              -0.000795386               0.999999989               0.000276358              -0.000795504               0.999999989               0.000244837              -0.000790989               0.999999989               0.000205467              -0.000781474               0.999999989               0.000158953              -0.000767522               0.999999989               0.000106064              -0.000750051               0.999999989               0.000047969              -0.000729945               0.999999989              -0.000013670              -0.000708311               0.999999989              -0.000077348              -0.000686333               0.999999989              -0.000141552              -0.000665252               0.999999989               0.000439109              -0.001006666               0.999999989               0.000329076              -0.000925830               0.999999989               0.000290073              -0.000889671               0.999999989               0.000275547              -0.000877468               0.999999989               0.000268669              -0.000877503               0.999999989               0.000262902              -0.000883465               0.999999989               0.000254608              -0.000891471               0.999999989               0.000241614              -0.000899125               0.999999989               0.000222365              -0.000904814               0.999999989               0.000196275              -0.000907462               0.999999989               0.000162981              -0.000906564               0.999999989               0.000122240              -0.000902019               0.999999989               0.000074628              -0.000894520               0.999999989               0.000020864              -0.000884591               0.999999989              -0.000038048              -0.000873106               0.999999989              -0.000100547              -0.000860808               0.999999989              -0.000165059              -0.000848873               0.999999989               0.000372015              -0.001074075               0.999999989               0.000269639              -0.001018466               0.999999989               0.000230339              -0.000989437               0.999999989               0.000214583              -0.000978505               0.999999989               0.000207173              -0.000978650               0.999999989               0.000201673              -0.000985223               0.999999989               0.000194888              -0.000995167               0.999999989               0.000184724              -0.001006282               0.999999989               0.000169492              -0.001016873               0.999999989               0.000148361              -0.001025963               0.999999989               0.000120781              -0.001032851               0.999999989               0.000086440              -0.001037125               0.999999989               0.000045252              -0.001038629               0.999999989              -0.000002670              -0.001037741               0.999999989              -0.000056943              -0.001035235               0.999999989              -0.000116691              -0.001031825               0.999999989              -0.000180456              -0.001028478               0.999999989               0.000301539              -0.001131089               0.999999989               0.000212606              -0.001101213               0.999999989               0.000175599              -0.001082322               0.999999989               0.000159439              -0.001075416               0.999999989               0.000151468              -0.001077487               0.999999989               0.000145988              -0.001085740               0.999999989               0.000140203              -0.001097966               0.999999989               0.000132279              -0.001112463               0.999999989               0.000120639              -0.001127672               0.999999989               0.000104050              -0.001142641               0.999999989               0.000082171              -0.001156570               0.999999989               0.000054548              -0.001168868               0.999999989               0.000020522              -0.001179096               0.999999989              -0.000020317              -0.001187291               0.999999989              -0.000068407              -0.001193726               0.999999989              -0.000123665              -0.001198981               0.999999989              -0.000185693              -0.001203850               0.999999989               0.000228510              -0.001176434               0.999999989               0.000157715              -0.001170129               0.999999989               0.000126013              -0.001162644               0.999999989               0.000111037              -0.001161519               0.999999989               0.000103188              -0.001166962               0.999999989               0.000097984              -0.001177731               0.999999989               0.000093271              -0.001192595               0.999999989               0.000087139              -0.001210384               0.999999989               0.000078494              -0.001229946               0.999999989               0.000066337              -0.001250318               0.999999989               0.000050061              -0.001270623               0.999999989               0.000029198              -0.001290284               0.999999989               0.000002999              -0.001308861               0.999999989              -0.000029557              -0.001326038               0.999999989              -0.000069414              -0.001341718               0.999999989              -0.000117413              -0.001355942               0.999999989              -0.000174338              -0.001369216               0.999999989               0.000153495              -0.001209500               0.999999989               0.000104374              -0.001221938               0.999999989               0.000081057              -0.001224819               0.999999989               0.000069465              -0.001229534               0.999999989               0.000063035              -0.001238689               0.999999989               0.000058743              -0.001252344               0.999999989               0.000055207              -0.001269858               0.999999989               0.000050915              -0.001290630               0.999999989               0.000045131              -0.001313848               0.999999989               0.000037109              -0.001338715               0.999999989               0.000026341              -0.001364505               0.999999989               0.000012354              -0.001390637               0.999999989              -0.000005461              -0.001416546               0.999999989              -0.000028187              -0.001441764               0.999999989              -0.000057012              -0.001465955               0.999999989              -0.000093208              -0.001488792               0.999999989              -0.000138400              -0.001510181               0.999999989               0.000077087              -0.001229641               0.999999989               0.000051995              -0.001254064               0.999999989               0.000039607              -0.001264115               0.999999989               0.000033283              -0.001273373               0.999999989               0.000029557              -0.001285502               0.999999989               0.000027094              -0.001301325               0.999999989               0.000025165              -0.001320836               0.999999989               0.000022990              -0.001343702               0.999999989               0.000020102              -0.001369331               0.999999989               0.000016085              -0.001397151               0.999999989               0.000010671              -0.001426582               0.999999989               0.000003764              -0.001457102               0.999999989              -0.000005202              -0.001488201               0.999999989              -0.000016858              -0.001519356               0.999999989              -0.000032086              -0.001549985               0.999999989              -0.000051717              -0.001579480               0.999999989              -0.000077176              -0.001607172               0.999999989              -0.000000000              -0.001236310               0.999999989               0.000000000              -0.001264891               0.999999989               0.000000000              -0.001277555               0.999999989               0.000000000              -0.001288465               0.999999989              -0.000000000              -0.001301713               0.999999989               0.000000000              -0.001318441               0.999999989              -0.000000000              -0.001338728               0.999999989              -0.000000000              -0.001362368               0.999999989               0.000000000              -0.001388910               0.999999989              -0.000000000              -0.001417726               0.999999989              -0.000000000              -0.001448343               0.999999989              -0.000000000              -0.001480428               0.999999989               0.000000000              -0.001513541               0.999999989              -0.000000000              -0.001547135               0.999999989              -0.000000000              -0.001580406               0.999999989               0.000000000              -0.001612562               0.999999989               0.000000000              -0.001642766               0.999999989               0.000818967              -0.000000000               0.999999989               0.000863502               0.000000000               0.999999989               0.000882279               0.000000000               0.999999989               0.000892624               0.000000000               0.999999989               0.000900825               0.000000000               0.999999989               0.000909253               0.000000000               0.999999989               0.000918449               0.000000000               0.999999989               0.000928279              -0.000000000               0.999999989               0.000938698              -0.000000000               0.999999989               0.000949389               0.000000000               0.999999989               0.000959964               0.000000000               0.999999989               0.000970156               0.000000000               0.999999989               0.000979603              -0.000000000               0.999999989               0.000987957               0.000000000               0.999999989               0.000994892               0.000000000               0.999999989               0.000999831              -0.000000000               0.999999989               0.001002138              -0.000000000               0.999999989               0.000814543               0.000116359               0.999999989               0.000855266               0.000092123               0.999999989               0.000871528               0.000080710               0.999999989               0.000880300               0.000075586               0.999999989               0.000887398               0.000073756               0.999999989               0.000894854               0.000073423               0.999999989               0.000903213               0.000073496               0.999999989               0.000912344               0.000073274               0.999999989               0.000921877               0.000072499               0.999999989               0.000931477               0.000070902               0.999999989               0.000940779               0.000068141               0.999999989               0.000949435               0.000063938               0.999999989               0.000957216               0.000057972               0.999999989               0.000963737               0.000049817               0.999999989               0.000968637               0.000038959               0.999999989               0.000971355               0.000024534               0.999999989               0.000971441               0.000005409               0.999999989               0.000801216               0.000231742               0.999999989               0.000830795               0.000183892               0.999999989               0.000840103               0.000162278               0.999999989               0.000844464               0.000153152               0.999999989               0.000848476               0.000150034               0.999999989               0.000853515               0.000149899               0.999999989               0.000859691               0.000150455               0.999999989               0.000866552               0.000150364               0.999999989               0.000873565               0.000148952               0.999999989               0.000880148               0.000145673               0.999999989               0.000885899               0.000140160               0.999999989               0.000890470               0.000131988               0.999999989               0.000893576               0.000120509               0.999999989               0.000894857               0.000104924               0.999999989               0.000893975               0.000084375               0.999999989               0.000890654               0.000057765               0.999999989               0.000884777               0.000023829               0.999999989               0.000779152               0.000345107               0.999999989               0.000791219               0.000275198               0.999999989               0.000790467               0.000245507               0.999999989               0.000788711               0.000233980               0.999999989               0.000788714               0.000230850               0.999999989               0.000790725               0.000231575               0.999999989               0.000793969               0.000233030               0.999999989               0.000797494               0.000233220               0.999999989               0.000800626               0.000231349               0.999999989               0.000802790               0.000226515               0.999999989               0.000803472               0.000218311               0.999999989               0.000802204               0.000206290               0.999999989               0.000798578               0.000189654               0.999999989               0.000792270               0.000167499               0.999999989               0.000783160               0.000139152               0.999999989               0.000771257               0.000103808               0.999999989               0.000756945               0.000061010               0.999999989               0.000748902               0.000455432               0.999999989               0.000738625               0.000366036               0.999999989               0.000726547               0.000330922               0.999999989               0.000718773               0.000318796               0.999999989               0.000715176               0.000316777               0.999999989               0.000714173               0.000318836               0.999999989               0.000714215               0.000321315               0.999999989               0.000713912               0.000321857               0.999999989               0.000712370               0.000319425               0.999999989               0.000708976               0.000313093               0.999999989               0.000703108               0.000302383               0.999999989               0.000694205               0.000286611               0.999999989               0.000681969               0.000265214               0.999999989               0.000666274               0.000237688               0.999999989               0.000647360               0.000203678               0.999999989               0.000625664               0.000163296               0.999999989               0.000601987               0.000116994               0.999999989               0.000710986               0.000561811               0.999999989               0.000675609               0.000456533               0.999999989               0.000653061               0.000418684               0.999999989               0.000640698               0.000407499               0.999999989               0.000634485               0.000407197               0.999999989               0.000631083               0.000410640               0.999999989               0.000627914               0.000413948               0.999999989               0.000623340               0.000414703               0.999999989               0.000616522               0.000411650               0.999999989               0.000606556               0.000403720               0.999999989               0.000592713               0.000390307               0.999999989               0.000574680               0.000371077               0.999999989               0.000552438               0.000345785               0.999999989               0.000526366               0.000314453               0.999999989               0.000497061               0.000277272               0.999999989               0.000465397               0.000235041               0.999999989               0.000432527               0.000189445               0.999999989               0.000666153               0.000663257               0.999999989               0.000605303               0.000546749               0.999999989               0.000574665               0.000508470               0.999999989               0.000559849               0.000499065               0.999999989               0.000552375               0.000500525               0.999999989               0.000547033               0.000505101               0.999999989               0.000540646               0.000508943               0.999999989               0.000531577               0.000509644               0.999999989               0.000518665               0.000505657               0.999999989               0.000500948               0.000495922               0.999999989               0.000477997               0.000479940               0.999999989               0.000449829               0.000457784               0.999999989               0.000416968               0.000429773               0.999999989               0.000380100               0.000396393               0.999999989               0.000340228               0.000358192               0.999999989               0.000298721               0.000316726               0.999999989               0.000256725               0.000274344               0.999999989               0.000615263               0.000758719               0.999999989               0.000530838               0.000636622               0.999999989               0.000495650               0.000599413               0.999999989               0.000480879               0.000591742               0.999999989               0.000473205               0.000594611               0.999999989               0.000466264               0.000600078               0.999999989               0.000456698               0.000604104               0.999999989               0.000442456               0.000604412               0.999999989               0.000422354               0.000599262               0.999999989               0.000395644               0.000587633               0.999999989               0.000362353               0.000569607               0.999999989               0.000322985               0.000545626               0.999999989               0.000278531               0.000516446               0.999999989               0.000230123               0.000482736               0.999999989               0.000179292               0.000445805               0.999999989               0.000127500               0.000407732               0.999999989               0.000076073               0.000370013               0.999999989               0.000559824               0.000846535               0.999999989               0.000454849               0.000726031               0.999999989               0.000420067               0.000690111               0.999999989               0.000406993               0.000683632               0.999999989               0.000399718               0.000687533               0.999999989               0.000391277               0.000693611               0.999999989               0.000377877               0.000697726               0.999999989               0.000357483               0.000697315               0.999999989               0.000328902               0.000690890               0.999999989               0.000291853               0.000677724               0.999999989               0.000246898               0.000658380               0.999999989               0.000195167               0.000633768               0.999999989               0.000138092               0.000604936               0.999999989               0.000077403               0.000573404               0.999999989               0.000015016               0.000540752               0.999999989              -0.000047531               0.000508546               0.999999989              -0.000109417               0.000477677               0.999999989               0.000502148               0.000930125               0.999999989               0.000390899               0.000827231               0.999999989               0.000353859               0.000788331               0.999999989               0.000340460               0.000777870               0.999999989               0.000333664               0.000779369               0.999999989               0.000326917               0.000785335               0.999999989               0.000316378               0.000791489               0.999999989               0.000300029               0.000795386               0.999999989               0.000276358               0.000795504               0.999999989               0.000244837               0.000790989               0.999999989               0.000205467               0.000781474               0.999999989               0.000158953               0.000767522               0.999999989               0.000106064               0.000750051               0.999999989               0.000047969               0.000729945               0.999999989              -0.000013670               0.000708311               0.999999989              -0.000077348               0.000686333               0.999999989              -0.000141552               0.000665252               0.999999989               0.000439109               0.001006666               0.999999989               0.000329076               0.000925830               0.999999989               0.000290073               0.000889671               0.999999989               0.000275547               0.000877468               0.999999989               0.000268669               0.000877503               0.999999989               0.000262902               0.000883465               0.999999989               0.000254608               0.000891471               0.999999989               0.000241614               0.000899125               0.999999989               0.000222365               0.000904814               0.999999989               0.000196275               0.000907462               0.999999989               0.000162981               0.000906564               0.999999989               0.000122240               0.000902019               0.999999989               0.000074628               0.000894520               0.999999989               0.000020864               0.000884591               0.999999989              -0.000038048               0.000873106               0.999999989              -0.000100547               0.000860808               0.999999989              -0.000165059               0.000848873               0.999999989               0.000372015               0.001074075               0.999999989               0.000269639               0.001018466               0.999999989               0.000230339               0.000989437               0.999999989               0.000214583               0.000978505               0.999999989               0.000207173               0.000978650               0.999999989               0.000201673               0.000985223               0.999999989               0.000194888               0.000995167               0.999999989               0.000184724               0.001006282               0.999999989               0.000169492               0.001016873               0.999999989               0.000148361               0.001025963               0.999999989               0.000120781               0.001032851               0.999999989               0.000086440               0.001037125               0.999999989               0.000045252               0.001038629               0.999999989              -0.000002670               0.001037741               0.999999989              -0.000056943               0.001035235               0.999999989              -0.000116691               0.001031825               0.999999989              -0.000180456               0.001028478               0.999999989               0.000301539               0.001131089               0.999999989               0.000212606               0.001101213               0.999999989               0.000175599               0.001082322               0.999999989               0.000159439               0.001075416               0.999999989               0.000151468               0.001077487               0.999999989               0.000145988               0.001085740               0.999999989               0.000140203               0.001097966               0.999999989               0.000132279               0.001112463               0.999999989               0.000120639               0.001127672               0.999999989               0.000104050               0.001142641               0.999999989               0.000082171               0.001156570               0.999999989               0.000054548               0.001168868               0.999999989               0.000020522               0.001179096               0.999999989              -0.000020317               0.001187291               0.999999989              -0.000068407               0.001193726               0.999999989              -0.000123665               0.001198981               0.999999989              -0.000185693               0.001203850               0.999999989               0.000228510               0.001176434               0.999999989               0.000157715               0.001170129               0.999999989               0.000126013               0.001162644               0.999999989               0.000111037               0.001161519               0.999999989               0.000103188               0.001166962               0.999999989               0.000097984               0.001177731               0.999999989               0.000093271               0.001192595               0.999999989               0.000087139               0.001210384               0.999999989               0.000078494               0.001229946               0.999999989               0.000066337               0.001250318               0.999999989               0.000050061               0.001270623               0.999999989               0.000029198               0.001290284               0.999999989               0.000002999               0.001308861               0.999999989              -0.000029557               0.001326038               0.999999989              -0.000069414               0.001341718               0.999999989              -0.000117413               0.001355942               0.999999989              -0.000174338               0.001369216               0.999999989               0.000153495               0.001209500               0.999999989               0.000104374               0.001221938               0.999999989               0.000081057               0.001224819               0.999999989               0.000069465               0.001229534               0.999999989               0.000063035               0.001238689               0.999999989               0.000058743               0.001252344               0.999999989               0.000055207               0.001269858               0.999999989               0.000050915               0.001290630               0.999999989               0.000045131               0.001313848               0.999999989               0.000037109               0.001338715               0.999999989               0.000026341               0.001364505               0.999999989               0.000012354               0.001390637               0.999999989              -0.000005461               0.001416546               0.999999989              -0.000028187               0.001441764               0.999999989              -0.000057012               0.001465955               0.999999989              -0.000093208               0.001488792               0.999999989              -0.000138400               0.001510181               0.999999989               0.000077087               0.001229641               0.999999989               0.000051995               0.001254064               0.999999989               0.000039607               0.001264115               0.999999989               0.000033283               0.001273373               0.999999989               0.000029557               0.001285502               0.999999989               0.000027094               0.001301325               0.999999989               0.000025165               0.001320836               0.999999989               0.000022990               0.001343702               0.999999989               0.000020102               0.001369331               0.999999989               0.000016085               0.001397151               0.999999989               0.000010671               0.001426582               0.999999989               0.000003764               0.001457102               0.999999989              -0.000005202               0.001488201               0.999999989              -0.000016858               0.001519356               0.999999989              -0.000032086               0.001549985               0.999999989              -0.000051717               0.001579480               0.999999989              -0.000077176               0.001607172               0.999999989              -0.000000000               0.001236310               0.999999989              -0.000000000               0.001264891               0.999999989               0.000000000               0.001277555               0.999999989               0.000000000               0.001288465               0.999999989               0.000000000               0.001301713               0.999999989              -0.000000000               0.001318441               0.999999989              -0.000000000               0.001338728               0.999999989               0.000000000               0.001362368               0.999999989              -0.000000000               0.001388910               0.999999989               0.000000000               0.001417726               0.999999989               0.000000000               0.001448343               0.999999989               0.000000000               0.001480428               0.999999989              -0.000000000               0.001513541               0.999999989               0.000000000               0.001547135               0.999999989               0.000000000               0.001580406               0.999999989              -0.000000000               0.001612562               0.999999989              -0.000000000               0.001642766               0.999999989 </DataArray>
<DataArray type="Float64"                                    Name="defo"                                                      NumberOfComponents=" 3" format="ascii">
             -0.000818967               0.000000000               0.999999989              -0.000863502               0.000000000               0.999999989              -0.000882279              -0.000000000               0.999999989              -0.000892624               0.000000000               0.999999989              -0.000900825               0.000000000               0.999999989              -0.000909253               0.000000000               0.999999989              -0.000918449               0.000000000               0.999999989              -0.000928279              -0.000000000               0.999999989              -0.000938698               0.000000000               0.999999989              -0.000949389              -0.000000000               0.999999989              -0.000959964               0.000000000               0.999999989              -0.000970156               0.000000000               0.999999989              -0.000979603               0.000000000               0.999999989              -0.000987957               0.000000000               0.999999989              -0.000994892               0.000000000               0.999999989              -0.000999831              -0.000000000               0.999999989              -0.001002138               0.000000000               0.999999989              -0.000814543               0.000116359               0.999999989              -0.000855266               0.000092123               0.999999989              -0.000871528               0.000080710               0.999999989              -0.000880300               0.000075586               0.999999989              -0.000887398               0.000073756               0.999999989              -0.000894854               0.000073423               0.999999989              -0.000903213               0.000073496               0.999999989              -0.000912344               0.000073274               0.999999989              -0.000921877               0.000072499               0.999999989              -0.000931477               0.000070902               0.999999989              -0.000940779               0.000068141               0.999999989              -0.000949435               0.000063938               0.999999989              -0.000957216               0.000057972               0.999999989              -0.000963737               0.000049817               0.999999989              -0.000968637               0.000038959               0.999999989              -0.000971355               0.000024534               0.999999989              -0.000971441               0.000005409               0.999999989              -0.000801216               0.000231742               0.999999989              -0.000830795               0.000183892               0.999999989              -0.000840103               0.000162278               0.999999989              -0.000844464               0.000153152               0.999999989              -0.000848476               0.000150034               0.999999989              -0.000853515               0.000149899               0.999999989              -0.000859691               0.000150455               0.999999989              -0.000866552               0.000150364               0.999999989              -0.000873565               0.000148952               0.999999989              -0.000880148               0.000145673               0.999999989              -0.000885899               0.000140160               0.999999989              -0.000890470               0.000131988               0.999999989              -0.000893576               0.000120509               0.999999989              -0.000894857               0.000104924               0.999999989              -0.000893975               0.000084375               0.999999989              -0.000890654               0.000057765               0.999999989              -0.000884777               0.000023829               0.999999989              -0.000779152               0.000345107               0.999999989              -0.000791219               0.000275198               0.999999989              -0.000790467               0.000245507               0.999999989              -0.000788711               0.000233980               0.999999989              -0.000788714               0.000230850               0.999999989              -0.000790725               0.000231575               0.999999989              -0.000793969               0.000233030               0.999999989              -0.000797494               0.000233220               0.999999989              -0.000800626               0.000231349               0.999999989              -0.000802790               0.000226515               0.999999989              -0.000803472               0.000218311               0.999999989              -0.000802204               0.000206290               0.999999989              -0.000798578               0.000189654               0.999999989              -0.000792270               0.000167499               0.999999989              -0.000783160               0.000139152               0.999999989              -0.000771257               0.000103808               0.999999989              -0.000756945               0.000061010               0.999999989              -0.000748902               0.000455432               0.999999989              -0.000738625               0.000366036               0.999999989              -0.000726547               0.000330922               0.999999989              -0.000718773               0.000318796               0.999999989              -0.000715176               0.000316777               0.999999989              -0.000714173               0.000318836               0.999999989              -0.000714215               0.000321315               0.999999989              -0.000713912               0.000321857               0.999999989              -0.000712370               0.000319425               0.999999989              -0.000708976               0.000313093               0.999999989              -0.000703108               0.000302383               0.999999989              -0.000694205               0.000286611               0.999999989              -0.000681969               0.000265214               0.999999989              -0.000666274               0.000237688               0.999999989              -0.000647360               0.000203678               0.999999989              -0.000625664               0.000163296               0.999999989              -0.000601987               0.000116994               0.999999989              -0.000710986               0.000561811               0.999999989              -0.000675609               0.000456533               0.999999989              -0.000653061               0.000418684               0.999999989              -0.000640698               0.000407499               0.999999989              -0.000634485               0.000407197               0.999999989              -0.000631083               0.000410640               0.999999989              -0.000627914               0.000413948               0.999999989              -0.000623340               0.000414703               0.999999989              -0.000616522               0.000411650               0.999999989              -0.000606556               0.000403720               0.999999989              -0.000592713               0.000390307               0.999999989              -0.000574680               0.000371077               0.999999989              -0.000552438               0.000345785               0.999999989              -0.000526366               0.000314453               0.999999989              -0.000497061               0.000277272               0.999999989              -0.000465397               0.000235041               0.999999989              -0.000432527               0.000189445               0.999999989              -0.000666153               0.000663257               0.999999989              -0.000605303               0.000546749               0.999999989              -0.000574665               0.000508470               0.999999989              -0.000559849               0.000499065               0.999999989              -0.000552375               0.000500525               0.999999989              -0.000547033               0.000505101               0.999999989              -0.000540646               0.000508943               0.999999989              -0.000531577               0.000509644               0.999999989              -0.000518665               0.000505657               0.999999989              -0.000500948               0.000495922               0.999999989              -0.000477997               0.000479940               0.999999989              -0.000449829               0.000457784               0.999999989              -0.000416968               0.000429773               0.999999989              -0.000380100               0.000396393               0.999999989              -0.000340228               0.000358192               0.999999989              -0.000298721               0.000316726               0.999999989              -0.000256725               0.000274344               0.999999989              -0.000615263               0.000758719               0.999999989              -0.000530838               0.000636622               0.999999989              -0.000495650               0.000599413               0.999999989              -0.000480879               0.000591742               0.999999989              -0.000473205               0.000594611               0.999999989              -0.000466264               0.000600078               0.999999989              -0.000456698               0.000604104               0.999999989              -0.000442456               0.000604412               0.999999989              -0.000422354               0.000599262               0.999999989              -0.000395644               0.000587633               0.999999989              -0.000362353               0.000569607               0.999999989              -0.000322985               0.000545626               0.999999989              -0.000278531               0.000516446               0.999999989              -0.000230123               0.000482736               0.999999989              -0.000179292               0.000445805               0.999999989              -0.000127500               0.000407732               0.999999989              -0.000076073               0.000370013               0.999999989              -0.000559824               0.000846535               0.999999989              -0.000454849               0.000726031               0.999999989              -0.000420067               0.000690111               0.999999989              -0.000406993               0.000683632               0.999999989              -0.000399718               0.000687533               0.999999989              -0.000391277               0.000693611               0.999999989              -0.000377877               0.000697726               0.999999989              -0.000357483               0.000697315               0.999999989              -0.000328902               0.000690890               0.999999989              -0.000291853               0.000677724               0.999999989              -0.000246898               0.000658380               0.999999989              -0.000195167               0.000633768               0.999999989              -0.000138092               0.000604936               0.999999989              -0.000077403               0.000573404               0.999999989              -0.000015016               0.000540752               0.999999989               0.000047531               0.000508546               0.999999989               0.000109417               0.000477677               0.999999989              -0.000502148               0.000930125               0.999999989              -0.000390899               0.000827231               0.999999989              -0.000353859               0.000788331               0.999999989              -0.000340460               0.000777870               0.999999989              -0.000333664               0.000779369               0.999999989              -0.000326917               0.000785335               0.999999989              -0.000316378               0.000791489               0.999999989              -0.000300029               0.000795386               0.999999989              -0.000276358               0.000795504               0.999999989              -0.000244837               0.000790989               0.999999989              -0.000205467               0.000781474               0.999999989              -0.000158953               0.000767522               0.999999989              -0.000106064               0.000750051               0.999999989              -0.000047969               0.000729945               0.999999989               0.000013670               0.000708311               0.999999989               0.000077348               0.000686333               0.999999989               0.000141552               0.000665252               0.999999989              -0.000439109               0.001006666               0.999999989              -0.000329076               0.000925830               0.999999989              -0.000290073               0.000889671               0.999999989              -0.000275547               0.000877468               0.999999989              -0.000268669               0.000877503               0.999999989              -0.000262902               0.000883465               0.999999989              -0.000254608               0.000891471               0.999999989              -0.000241614               0.000899125               0.999999989              -0.000222365               0.000904814               0.999999989              -0.000196275               0.000907462               0.999999989              -0.000162981               0.000906564               0.999999989              -0.000122240               0.000902019               0.999999989              -0.000074628               0.000894520               0.999999989              -0.000020864               0.000884591               0.999999989               0.000038048               0.000873106               0.999999989               0.000100547               0.000860808               0.999999989               0.000165059               0.000848873               0.999999989              -0.000372015               0.001074075               0.999999989              -0.000269639               0.001018466               0.999999989              -0.000230339               0.000989437               0.999999989              -0.000214583               0.000978505               0.999999989              -0.000207173               0.000978650               0.999999989              -0.000201673               0.000985223               0.999999989              -0.000194888               0.000995167               0.999999989              -0.000184724               0.001006282               0.999999989              -0.000169492               0.001016873               0.999999989              -0.000148361               0.001025963               0.999999989              -0.000120781               0.001032851               0.999999989              -0.000086440               0.001037125               0.999999989              -0.000045252               0.001038629               0.999999989               0.000002670               0.001037741               0.999999989               0.000056943               0.001035235               0.999999989               0.000116691               0.001031825               0.999999989               0.000180456               0.001028478               0.999999989              -0.000301539               0.001131089               0.999999989              -0.000212606               0.001101213               0.999999989              -0.000175599               0.001082322               0.999999989              -0.000159439               0.001075416               0.999999989              -0.000151468               0.001077487               0.999999989              -0.000145988               0.001085740               0.999999989              -0.000140203               0.001097966               0.999999989              -0.000132279               0.001112463               0.999999989              -0.000120639               0.001127672               0.999999989              -0.000104050               0.001142641               0.999999989              -0.000082171               0.001156570               0.999999989              -0.000054548               0.001168868               0.999999989              -0.000020522               0.001179096               0.999999989               0.000020317               0.001187291               0.999999989               0.000068407               0.001193726               0.999999989               0.000123665               0.001198981               0.999999989               0.000185693               0.001203850               0.999999989              -0.000228510               0.001176434               0.999999989              -0.000157715               0.001170129               0.999999989              -0.000126013               0.001162644               0.999999989              -0.000111037               0.001161519               0.999999989              -0.000103188               0.001166962               0.999999989              -0.000097984               0.001177731               0.999999989              -0.000093271               0.001192595               0.999999989              -0.000087139               0.001210384               0.999999989              -0.000078494               0.001229946               0.999999989              -0.000066337               0.001250318               0.999999989              -0.000050061               0.001270623               0.999999989              -0.000029198               0.001290284               0.999999989              -0.000002999               0.001308861               0.999999989               0.000029557               0.001326038               0.999999989               0.000069414               0.001341718               0.999999989               0.000117413               0.001355942               0.999999989               0.000174338               0.001369216               0.999999989              -0.000153495               0.001209500               0.999999989              -0.000104374               0.001221938               0.999999989              -0.000081057               0.001224819               0.999999989              -0.000069465               0.001229534               0.999999989              -0.000063035               0.001238689               0.999999989              -0.000058743               0.001252344               0.999999989              -0.000055207               0.001269858               0.999999989              -0.000050915               0.001290630               0.999999989              -0.000045131               0.001313848               0.999999989              -0.000037109               0.001338715               0.999999989              -0.000026341               0.001364505               0.999999989              -0.000012354               0.001390637               0.999999989               0.000005461               0.001416546               0.999999989               0.000028187               0.001441764               0.999999989               0.000057012               0.001465955               0.999999989               0.000093208               0.001488792               0.999999989               0.000138400               0.001510181               0.999999989              -0.000077087               0.001229641               0.999999989              -0.000051995               0.001254064               0.999999989              -0.000039607               0.001264115               0.999999989              -0.000033283               0.001273373               0.999999989              -0.000029557               0.001285502               0.999999989              -0.000027094               0.001301325               0.999999989              -0.000025165               0.001320836               0.999999989              -0.000022990               0.001343702               0.999999989              -0.000020102               0.001369331               0.999999989              -0.000016085               0.001397151               0.999999989              -0.000010671               0.001426582               0.999999989              -0.000003764               0.001457102               0.999999989               0.000005202               0.001488201               0.999999989               0.000016858               0.001519356               0.999999989               0.000032086               0.001549985               0.999999989               0.000051717               0.001579480               0.999999989               0.000077176               0.001607172               0.999999989              -0.000000000               0.001236310               0.999999989              -0.000000000               0.001264891               0.999999989               0.000000000               0.001277555               0.999999989               0.000000000               0.001288465               0.999999989               0.000000000               0.001301713               0.999999989              -0.000000000               0.001318441               0.999999989              -0.000000000               0.001338728               0.999999989               0.000000000               0.001362368               0.999999989              -0.000000000               0.001388910               0.999999989               0.000000000               0.001417726               0.999999989               0.000000000               0.001448343               0.999999989               0.000000000               0.001480428               0.999999989              -0.000000000               0.001513541               0.999999989               0.000000000               0.001547135               0.999999989               0.000000000               0.001580406               0.999999989              -0.000000000               0.001612562               0.999999989              -0.000000000               0.001642766               0.999999989              -0.000818967               0.000000000               0.999999989              -0.000863502               0.000000000               0.999999989              -0.000882279              -0.000000000               0.999999989              -0.000892624               0.000000000               0.999999989              -0.000900825               0.000000000               0.999999989              -0.000909253               0.000000000               0.999999989              -0.000918449               0.000000000               0.999999989              -0.000928279              -0.000000000               0.999999989              -0.000938698               0.000000000               0.999999989              -0.000949389              -0.000000000               0.999999989              -0.000959964               0.000000000               0.999999989              -0.000970156               0.000000000               0.999999989              -0.000979603               0.000000000               0.999999989              -0.000987957               0.000000000               0.999999989              -0.000994892               0.000000000               0.999999989              -0.000999831              -0.000000000               0.999999989              -0.001002138               0.000000000               0.999999989              -0.000814543              -0.000116359               0.999999989              -0.000855266              -0.000092123               0.999999989              -0.000871528              -0.000080710               0.999999989              -0.000880300              -0.000075586               0.999999989              -0.000887398              -0.000073756               0.999999989              -0.000894854              -0.000073423               0.999999989              -0.000903213              -0.000073496               0.999999989              -0.000912344              -0.000073274               0.999999989              -0.000921877              -0.000072499               0.999999989              -0.000931477              -0.000070902               0.999999989              -0.000940779              -0.000068141               0.999999989              -0.000949435              -0.000063938               0.999999989              -0.000957216              -0.000057972               0.999999989              -0.000963737              -0.000049817               0.999999989              -0.000968637              -0.000038959               0.999999989              -0.000971355              -0.000024534               0.999999989              -0.000971441              -0.000005409               0.999999989              -0.000801216              -0.000231742               0.999999989              -0.000830795              -0.000183892               0.999999989              -0.000840103              -0.000162278               0.999999989              -0.000844464              -0.000153152               0.999999989              -0.000848476              -0.000150034               0.999999989              -0.000853515              -0.000149899               0.999999989              -0.000859691              -0.000150455               0.999999989              -0.000866552              -0.000150364               0.999999989              -0.000873565              -0.000148952               0.999999989              -0.000880148              -0.000145673               0.999999989              -0.000885899              -0.000140160               0.999999989              -0.000890470              -0.000131988               0.999999989              -0.000893576              -0.000120509               0.999999989              -0.000894857              -0.000104924               0.999999989              -0.000893975              -0.000084375               0.999999989              -0.000890654              -0.000057765               0.999999989              -0.000884777              -0.000023829               0.999999989              -0.000779152              -0.000345107               0.999999989              -0.000791219              -0.000275198               0.999999989              -0.000790467              -0.000245507               0.999999989              -0.000788711              -0.000233980               0.999999989              -0.000788714              -0.000230850               0.999999989              -0.000790725              -0.000231575               0.999999989              -0.000793969              -0.000233030               0.999999989              -0.000797494              -0.000233220               0.999999989              -0.000800626              -0.000231349               0.999999989              -0.000802790              -0.000226515               0.999999989              -0.000803472              -0.000218311               0.999999989              -0.000802204              -0.000206290               0.999999989              -0.000798578              -0.000189654               0.999999989              -0.000792270              -0.000167499               0.999999989              -0.000783160              -0.000139152               0.999999989              -0.000771257              -0.000103808               0.999999989              -0.000756945              -0.000061010               0.999999989              -0.000748902              -0.000455432               0.999999989              -0.000738625              -0.000366036               0.999999989              -0.000726547              -0.000330922               0.999999989              -0.000718773              -0.000318796               0.999999989              -0.000715176              -0.000316777               0.999999989              -0.000714173              -0.000318836               0.999999989              -0.000714215              -0.000321315               0.999999989              -0.000713912              -0.000321857               0.999999989              -0.000712370              -0.000319425               0.999999989              -0.000708976              -0.000313093               0.999999989              -0.000703108              -0.000302383               0.999999989              -0.000694205              -0.000286611               0.999999989              -0.000681969              -0.000265214               0.999999989              -0.000666274              -0.000237688               0.999999989              -0.000647360              -0.000203678               0.999999989              -0.000625664              -0.000163296               0.999999989              -0.000601987              -0.000116994               0.999999989              -0.000710986              -0.000561811               0.999999989              -0.000675609              -0.000456533               0.999999989              -0.000653061              -0.000418684               0.999999989              -0.000640698              -0.000407499               0.999999989              -0.000634485              -0.000407197               0.999999989              -0.000631083              -0.000410640               0.999999989              -0.000627914              -0.000413948               0.999999989              -0.000623340              -0.000414703               0.999999989              -0.000616522              -0.000411650               0.999999989              -0.000606556              -0.000403720               0.999999989              -0.000592713              -0.000390307               0.999999989              -0.000574680              -0.000371077               0.999999989              -0.000552438              -0.000345785               0.999999989              -0.000526366              -0.000314453               0.999999989              -0.000497061              -0.000277272               0.999999989              -0.000465397              -0.000235041               0.999999989              -0.000432527              -0.000189445               0.999999989              -0.000666153              -0.000663257               0.999999989              -0.000605303              -0.000546749               0.999999989              -0.000574665              -0.000508470               0.999999989              -0.000559849              -0.000499065               0.999999989              -0.000552375              -0.000500525               0.999999989              -0.000547033              -0.000505101               0.999999989              -0.000540646              -0.000508943               0.999999989              -0.000531577              -0.000509644               0.999999989              -0.000518665              -0.000505657               0.999999989              -0.000500948              -0.000495922               0.999999989              -0.000477997              -0.000479940               0.999999989              -0.000449829              -0.000457784               0.999999989              -0.000416968              -0.000429773               0.999999989              -0.000380100              -0.000396393               0.999999989              -0.000340228              -0.000358192               0.999999989              -0.000298721              -0.000316726               0.999999989              -0.000256725              -0.000274344               0.999999989              -0.000615263              -0.000758719               0.999999989              -0.000530838              -0.000636622               0.999999989              -0.000495650              -0.000599413               0.999999989              -0.000480879              -0.000591742               0.999999989              -0.000473205              -0.000594611               0.999999989              -0.000466264              -0.000600078               0.999999989              -0.000456698              -0.000604104               0.999999989              -0.000442456              -0.000604412               0.999999989              -0.000422354              -0.000599262               0.999999989              -0.000395644              -0.000587633               0.999999989              -0.000362353              -0.000569607               0.999999989              -0.000322985              -0.000545626               0.999999989              -0.000278531              -0.000516446               0.999999989              -0.000230123              -0.000482736               0.999999989              -0.000179292              -0.000445805               0.999999989              -0.000127500              -0.000407732               0.999999989              -0.000076073              -0.000370013               0.999999989              -0.000559824              -0.000846535               0.999999989              -0.000454849              -0.000726031               0.999999989              -0.000420067              -0.000690111               0.999999989              -0.000406993              -0.000683632               0.999999989              -0.000399718              -0.000687533               0.999999989              -0.000391277              -0.000693611               0.999999989              -0.000377877              -0.000697726               0.999999989              -0.000357483              -0.000697315               0.999999989              -0.000328902              -0.000690890               0.999999989              -0.000291853              -0.000677724               0.999999989              -0.000246898              -0.000658380               0.999999989              -0.000195167              -0.000633768               0.999999989              -0.000138092              -0.000604936               0.999999989              -0.000077403              -0.000573404               0.999999989              -0.000015016              -0.000540752               0.999999989               0.000047531              -0.000508546               0.999999989               0.000109417              -0.000477677               0.999999989              -0.000502148              -0.000930125               0.999999989              -0.000390899              -0.000827231               0.999999989              -0.000353859              -0.000788331               0.999999989              -0.000340460              -0.000777870               0.999999989              -0.000333664              -0.000779369               0.999999989              -0.000326917              -0.000785335               0.999999989              -0.000316378              -0.000791489               0.999999989              -0.000300029              -0.000795386               0.999999989              -0.000276358              -0.000795504               0.999999989              -0.000244837              -0.000790989               0.999999989              -0.000205467              -0.000781474               0.999999989              -0.000158953              -0.000767522               0.999999989              -0.000106064              -0.000750051               0.999999989              -0.000047969              -0.000729945               0.999999989               0.000013670              -0.000708311               0.999999989               0.000077348              -0.000686333               0.999999989               0.000141552              -0.000665252               0.999999989              -0.000439109              -0.001006666               0.999999989              -0.000329076              -0.000925830               0.999999989              -0.000290073              -0.000889671               0.999999989              -0.000275547              -0.000877468               0.999999989              -0.000268669              -0.000877503               0.999999989              -0.000262902              -0.000883465               0.999999989              -0.000254608              -0.000891471               0.999999989              -0.000241614              -0.000899125               0.999999989              -0.000222365              -0.000904814               0.999999989              -0.000196275              -0.000907462               0.999999989              -0.000162981              -0.000906564               0.999999989              -0.000122240              -0.000902019               0.999999989              -0.000074628              -0.000894520               0.999999989              -0.000020864              -0.000884591               0.999999989               0.000038048              -0.000873106               0.999999989               0.000100547              -0.000860808               0.999999989               0.000165059              -0.000848873               0.999999989              -0.000372015              -0.001074075               0.999999989              -0.000269639              -0.001018466               0.999999989              -0.000230339              -0.000989437               0.999999989              -0.000214583              -0.000978505               0.999999989              -0.000207173              -0.000978650               0.999999989              -0.000201673              -0.000985223               0.999999989              -0.000194888              -0.000995167               0.999999989              -0.000184724              -0.001006282               0.999999989              -0.000169492              -0.001016873               0.999999989              -0.000148361              -0.001025963               0.999999989              -0.000120781              -0.001032851               0.999999989              -0.000086440              -0.001037125               0.999999989              -0.000045252              -0.001038629               0.999999989               0.000002670              -0.001037741               0.999999989               0.000056943              -0.001035235               0.999999989               0.000116691              -0.001031825               0.999999989               0.000180456              -0.001028478               0.999999989              -0.000301539              -0.001131089               0.999999989              -0.000212606              -0.001101213               0.999999989              -0.000175599              -0.001082322               0.999999989              -0.000159439              -0.001075416               0.999999989              -0.000151468              -0.001077487               0.999999989              -0.000145988              -0.001085740               0.999999989              -0.000140203              -0.001097966               0.999999989              -0.000132279              -0.001112463               0.999999989              -0.000120639              -0.001127672               0.999999989              -0.000104050              -0.001142641               0.999999989              -0.000082171              -0.001156570               0.999999989              -0.000054548              -0.001168868               0.999999989              -0.000020522              -0.001179096               0.999999989               0.000020317              -0.001187291               0.999999989               0.000068407              -0.001193726               0.999999989               0.000123665              -0.001198981               0.999999989               0.000185693              -0.001203850               0.999999989              -0.000228510              -0.001176434               0.999999989              -0.000157715              -0.001170129               0.999999989              -0.000126013              -0.001162644               0.999999989              -0.000111037              -0.001161519               0.999999989              -0.000103188              -0.001166962               0.999999989              -0.000097984              -0.001177731               0.999999989              -0.000093271              -0.001192595               0.999999989              -0.000087139              -0.001210384               0.999999989              -0.000078494              -0.001229946               0.999999989              -0.000066337              -0.001250318               0.999999989              -0.000050061              -0.001270623               0.999999989              -0.000029198              -0.001290284               0.999999989              -0.000002999              -0.001308861               0.999999989               0.000029557              -0.001326038               0.999999989               0.000069414              -0.001341718               0.999999989               0.000117413              -0.001355942               0.999999989               0.000174338              -0.001369216               0.999999989              -0.000153495              -0.001209500               0.999999989              -0.000104374              -0.001221938               0.999999989              -0.000081057              -0.001224819               0.999999989              -0.000069465              -0.001229534               0.999999989              -0.000063035              -0.001238689               0.999999989              -0.000058743              -0.001252344               0.999999989              -0.000055207              -0.001269858               0.999999989              -0.000050915              -0.001290630               0.999999989              -0.000045131              -0.001313848               0.999999989              -0.000037109              -0.001338715               0.999999989              -0.000026341              -0.001364505               0.999999989              -0.000012354              -0.001390637               0.999999989               0.000005461              -0.001416546               0.999999989               0.000028187              -0.001441764               0.999999989               0.000057012              -0.001465955               0.999999989               0.000093208              -0.001488792               0.999999989               0.000138400              -0.001510181               0.999999989              -0.000077087              -0.001229641               0.999999989              -0.000051995              -0.001254064               0.999999989              -0.000039607              -0.001264115               0.999999989              -0.000033283              -0.001273373               0.999999989              -0.000029557              -0.001285502               0.999999989              -0.000027094              -0.001301325               0.999999989              -0.000025165              -0.001320836               0.999999989              -0.000022990              -0.001343702               0.999999989              -0.000020102              -0.001369331               0.999999989              -0.000016085              -0.001397151               0.999999989              -0.000010671              -0.001426582               0.999999989              -0.000003764              -0.001457102               0.999999989               0.000005202              -0.001488201               0.999999989               0.000016858              -0.001519356               0.999999989               0.000032086              -0.001549985               0.999999989               0.000051717              -0.001579480               0.999999989               0.000077176              -0.001607172               0.999999989              -0.000000000              -0.001236310               0.999999989               0.000000000              -0.001264891               0.999999989               0.000000000              -0.001277555               0.999999989               0.000000000              -0.001288465               0.999999989              -0.000000000              -0.001301713               0.999999989               0.000000000              -0.001318441               0.999999989              -0.000000000              -0.001338728               0.999999989              -0.000000000              -0.001362368               0.999999989               0.000000000              -0.001388910               0.999999989              -0.000000000              -0.001417726               0.999999989              -0.000000000              -0.001448343               0.999999989              -0.000000000              -0.001480428               0.999999989               0.000000000              -0.001513541               0.999999989              -0.000000000              -0.001547135               0.999999989              -0.000000000              -0.001580406               0.999999989               0.000000000              -0.001612562               0.999999989               0.000000000              -0.001642766               0.999999989               0.000818967              -0.000000000               0.999999989               0.000863502               0.000000000               0.999999989               0.000882279               0.000000000               0.999999989               0.000892624               0.000000000               0.999999989               0.000900825               0.000000000               0.999999989               0.000909253               0.000000000               0.999999989               0.000918449               0.000000000               0.999999989               0.000928279              -0.000000000               0.999999989               0.000938698              -0.000000000               0.999999989               0.000949389               0.000000000               0.999999989               0.000959964               0.000000000               0.999999989               0.000970156               0.000000000               0.999999989               0.000979603              -0.000000000               0.999999989               0.000987957               0.000000000               0.999999989               0.000994892               0.000000000               0.999999989               0.000999831              -0.000000000               0.999999989               0.001002138              -0.000000000               0.999999989               0.000814543              -0.000116359               0.999999989               0.000855266              -0.000092123               0.999999989               0.000871528              -0.000080710               0.999999989               0.000880300              -0.000075586               0.999999989               0.000887398              -0.000073756               0.999999989               0.000894854              -0.000073423               0.999999989               0.000903213              -0.000073496               0.999999989               0.000912344              -0.000073274               0.999999989               0.000921877              -0.000072499               0.999999989               0.000931477              -0.000070902               0.999999989               0.000940779              -0.000068141               0.999999989               0.000949435              -0.000063938               0.999999989               0.000957216              -0.000057972               0.999999989               0.000963737              -0.000049817               0.999999989               0.000968637              -0.000038959               0.999999989               0.000971355              -0.000024534               0.999999989               0.000971441              -0.000005409               0.999999989               0.000801216              -0.000231742               0.999999989               0.000830795              -0.000183892               0.999999989               0.000840103              -0.000162278               0.999999989               0.000844464              -0.000153152               0.999999989               0.000848476              -0.000150034               0.999999989               0.000853515              -0.000149899               0.999999989               0.000859691              -0.000150455               0.999999989               0.000866552              -0.000150364               0.999999989               0.000873565              -0.000148952               0.999999989               0.000880148              -0.000145673               0.999999989               0.000885899              -0.000140160               0.999999989               0.000890470              -0.000131988               0.999999989               0.000893576              -0.000120509               0.999999989               0.000894857              -0.000104924               0.999999989               0.000893975              -0.000084375               0.999999989               0.000890654              -0.000057765               0.999999989               0.000884777              -0.000023829               0.999999989               0.000779152              -0.000345107               0.999999989               0.000791219              -0.000275198               0.999999989               0.000790467              -0.000245507               0.999999989               0.000788711              -0.000233980               0.999999989               0.000788714              -0.000230850               0.999999989               0.000790725              -0.000231575               0.999999989               0.000793969              -0.000233030               0.999999989               0.000797494              -0.000233220               0.999999989               0.000800626              -0.000231349               0.999999989               0.000802790              -0.000226515               0.999999989               0.000803472              -0.000218311               0.999999989               0.000802204              -0.000206290               0.999999989               0.000798578              -0.000189654               0.999999989               0.000792270              -0.000167499               0.999999989               0.000783160              -0.000139152               0.999999989               0.000771257              -0.000103808               0.999999989               0.000756945              -0.000061010               0.999999989               0.000748902              -0.000455432               0.999999989               0.000738625              -0.000366036               0.999999989               0.000726547              -0.000330922               0.999999989               0.000718773              -0.000318796               0.999999989               0.000715176              -0.000316777               0.999999989               0.000714173              -0.000318836               0.999999989               0.000714215              -0.000321315               0.999999989               0.000713912              -0.000321857               0.999999989               0.000712370              -0.000319425               0.999999989               0.000708976              -0.000313093               0.999999989               0.000703108              -0.000302383               0.999999989               0.000694205              -0.000286611               0.999999989               0.000681969              -0.000265214               0.999999989               0.000666274              -0.000237688               0.999999989               0.000647360              -0.000203678               0.999999989               0.000625664              -0.000163296               0.999999989               0.000601987              -0.000116994               0.999999989               0.000710986              -0.000561811               0.999999989               0.000675609              -0.000456533               0.999999989               0.000653061              -0.000418684               0.999999989               0.000640698              -0.000407499               0.999999989               0.000634485              -0.000407197               0.999999989               0.000631083              -0.000410640               0.999999989               0.000627914              -0.000413948               0.999999989               0.000623340              -0.000414703               0.999999989               0.000616522              -0.000411650               0.999999989               0.000606556              -0.000403720               0.999999989               0.000592713              -0.000390307               0.999999989               0.000574680              -0.000371077               0.999999989               0.000552438              -0.000345785               0.999999989               0.000526366              -0.000314453               0.999999989               0.000497061              -0.000277272               0.999999989               0.000465397              -0.000235041               0.999999989               0.000432527              -0.000189445               0.999999989               0.000666153              -0.000663257               0.999999989               0.000605303              -0.000546749               0.999999989               0.000574665              -0.000508470               0.999999989               0.000559849              -0.000499065               0.999999989               0.000552375              -0.000500525               0.999999989               0.000547033              -0.000505101               0.999999989               0.000540646              -0.000508943               0.999999989               0.000531577              -0.000509644               0.999999989               0.000518665              -0.000505657               0.999999989               0.000500948              -0.000495922               0.999999989               0.000477997              -0.000479940               0.999999989               0.000449829              -0.000457784               0.999999989               0.000416968              -0.000429773               0.999999989               0.000380100              -0.000396393               0.999999989               0.000340228              -0.000358192               0.999999989               0.000298721              -0.000316726               0.999999989               0.000256725              -0.000274344               0.999999989               0.000615263              -0.000758719               0.999999989               0.000530838              -0.000636622               0.999999989               0.000495650              -0.000599413               0.999999989               0.000480879              -0.000591742               0.999999989               0.000473205              -0.000594611               0.999999989               0.000466264              -0.000600078               0.999999989               0.000456698              -0.000604104               0.999999989               0.000442456              -0.000604412               0.999999989               0.000422354              -0.000599262               0.999999989               0.000395644              -0.000587633               0.999999989               0.000362353              -0.000569607               0.999999989               0.000322985              -0.000545626               0.999999989               0.000278531              -0.000516446               0.999999989               0.000230123              -0.000482736               0.999999989               0.000179292              -0.000445805               0.999999989               0.000127500              -0.000407732               0.999999989               0.000076073              -0.000370013               0.999999989               0.000559824              -0.000846535               0.999999989               0.000454849              -0.000726031               0.999999989               0.000420067              -0.000690111               0.999999989               0.000406993              -0.000683632               0.999999989               0.000399718              -0.000687533               0.999999989               0.000391277              -0.000693611               0.999999989               0.000377877              -0.000697726               0.999999989               0.000357483              -0.000697315               0.999999989               0.000328902              -0.000690890               0.999999989               0.000291853              -0.000677724               0.999999989               0.000246898              -0.000658380               0.999999989               0.000195167              -0.000633768               0.999999989               0.000138092              -0.000604936               0.999999989               0.000077403              -0.000573404               0.999999989               0.000015016              -0.000540752               0.999999989              -0.000047531              -0.000508546               0.999999989              -0.000109417              -0.000477677               0.999999989               0.000502148              -0.000930125               0.999999989               0.000390899              -0.000827231               0.999999989               0.000353859              -0.000788331               0.999999989               0.000340460              -0.000777870               0.999999989               0.000333664              -0.000779369               0.999999989               0.000326917              -0.000785335               0.999999989               0.000316378              -0.000791489               0.999999989               0.000300029              -0.000795386               0.999999989               0.000276358              -0.000795504               0.999999989               0.000244837              -0.000790989               0.999999989               0.000205467              -0.000781474               0.999999989               0.000158953              -0.000767522               0.999999989               0.000106064              -0.000750051               0.999999989               0.000047969              -0.000729945               0.999999989              -0.000013670              -0.000708311               0.999999989              -0.000077348              -0.000686333               0.999999989              -0.000141552              -0.000665252               0.999999989               0.000439109              -0.001006666               0.999999989               0.000329076              -0.000925830               0.999999989               0.000290073              -0.000889671               0.999999989               0.000275547              -0.000877468               0.999999989               0.000268669              -0.000877503               0.999999989               0.000262902              -0.000883465               0.999999989               0.000254608              -0.000891471               0.999999989               0.000241614              -0.000899125               0.999999989               0.000222365              -0.000904814               0.999999989               0.000196275              -0.000907462               0.999999989               0.000162981              -0.000906564               0.999999989               0.000122240              -0.000902019               0.999999989               0.000074628              -0.000894520               0.999999989               0.000020864              -0.000884591               0.999999989              -0.000038048              -0.000873106               0.999999989              -0.000100547              -0.000860808               0.999999989              -0.000165059              -0.000848873               0.999999989               0.000372015              -0.001074075               0.999999989               0.000269639              -0.001018466               0.999999989               0.000230339              -0.000989437               0.999999989               0.000214583              -0.000978505               0.999999989               0.000207173              -0.000978650               0.999999989               0.000201673              -0.000985223               0.999999989               0.000194888              -0.000995167               0.999999989               0.000184724              -0.001006282               0.999999989               0.000169492              -0.001016873               0.999999989               0.000148361              -0.001025963               0.999999989               0.000120781              -0.001032851               0.999999989               0.000086440              -0.001037125               0.999999989               0.000045252              -0.001038629               0.999999989              -0.000002670              -0.001037741               0.999999989              -0.000056943              -0.001035235               0.999999989              -0.000116691              -0.001031825               0.999999989              -0.000180456              -0.001028478               0.999999989               0.000301539              -0.001131089               0.999999989               0.000212606              -0.001101213               0.999999989               0.000175599              -0.001082322               0.999999989               0.000159439              -0.001075416               0.999999989               0.000151468              -0.001077487               0.999999989               0.000145988              -0.001085740               0.999999989               0.000140203              -0.001097966               0.999999989               0.000132279              -0.001112463               0.999999989               0.000120639              -0.001127672               0.999999989               0.000104050              -0.001142641               0.999999989               0.000082171              -0.001156570               0.999999989               0.000054548              -0.001168868               0.999999989               0.000020522              -0.001179096               0.999999989              -0.000020317              -0.001187291               0.999999989              -0.000068407              -0.001193726               0.999999989              -0.000123665              -0.001198981               0.999999989              -0.000185693              -0.001203850               0.999999989               0.000228510              -0.001176434               0.999999989               0.000157715              -0.001170129               0.999999989               0.000126013              -0.001162644               0.999999989               0.000111037              -0.001161519               0.999999989               0.000103188              -0.001166962               0.999999989               0.000097984              -0.001177731               0.999999989               0.000093271              -0.001192595               0.999999989               0.000087139              -0.001210384               0.999999989               0.000078494              -0.001229946               0.999999989               0.000066337              -0.001250318               0.999999989               0.000050061              -0.001270623               0.999999989               0.000029198              -0.001290284               0.999999989               0.000002999              -0.001308861               0.999999989              -0.000029557              -0.001326038               0.999999989              -0.000069414              -0.001341718               0.999999989              -0.000117413              -0.001355942               0.999999989              -0.000174338              -0.001369216               0.999999989               0.000153495              -0.001209500               0.999999989               0.000104374              -0.001221938               0.999999989               0.000081057              -0.001224819               0.999999989               0.000069465              -0.001229534               0.999999989               0.000063035              -0.001238689               0.999999989               0.000058743              -0.001252344               0.999999989               0.000055207              -0.001269858               0.999999989               0.000050915              -0.001290630               0.999999989               0.000045131              -0.001313848               0.999999989               0.000037109              -0.001338715               0.999999989               0.000026341              -0.001364505               0.999999989               0.000012354              -0.001390637               0.999999989              -0.000005461              -0.001416546               0.999999989              -0.000028187              -0.001441764               0.999999989              -0.000057012              -0.001465955               0.999999989              -0.000093208              -0.001488792               0.999999989              -0.000138400              -0.001510181               0.999999989               0.000077087              -0.001229641               0.999999989               0.000051995              -0.001254064               0.999999989               0.000039607              -0.001264115               0.999999989               0.000033283              -0.001273373               0.999999989               0.000029557              -0.001285502               0.999999989               0.000027094              -0.001301325               0.999999989               0.000025165              -0.001320836               0.999999989               0.000022990              -0.001343702               0.999999989               0.000020102              -0.001369331               0.999999989               0.000016085              -0.001397151               0.999999989               0.000010671              -0.001426582               0.999999989               0.000003764              -0.001457102               0.999999989              -0.000005202              -0.001488201               0.999999989              -0.000016858              -0.001519356               0.999999989              -0.000032086              -0.001549985               0.999999989              -0.000051717              -0.001579480               0.999999989              -0.000077176              -0.001607172               0.999999989              -0.000000000              -0.001236310               0.999999989               0.000000000              -0.001264891               0.999999989               0.000000000              -0.001277555               0.999999989               0.000000000              -0.001288465               0.999999989              -0.000000000              -0.001301713               0.999999989               0.000000000              -0.001318441               0.999999989              -0.000000000              -0.001338728               0.999999989              -0.000000000              -0.001362368               0.999999989               0.000000000              -0.001388910               0.999999989              -0.000000000              -0.001417726               0.999999989              -0.000000000              -0.001448343               0.999999989              -0.000000000              -0.001480428               0.999999989               0.000000000              -0.001513541               0.999999989              -0.000000000              -0.001547135               0.999999989              -0.000000000              -0.001580406               0.999999989               0.000000000              -0.001612562               0.999999989               0.000000000              -0.001642766               0.999999989               0.000818967              -0.000000000               0.999999989               0.000863502               0.000000000               0.999999989               0.000882279               0.000000000               0.999999989               0.000892624               0.000000000               0.999999989               0.000900825               0.000000000               0.999999989               0.000909253               0.000000000               0.999999989               0.000918449               0.000000000               0.999999989               0.000928279              -0.000000000               0.999999989               0.000938698              -0.000000000               0.999999989               0.000949389               0.000000000               0.999999989               0.000959964               0.000000000               0.999999989               0.000970156               0.000000000               0.999999989               0.000979603              -0.000000000               0.999999989               0.000987957               0.000000000               0.999999989               0.000994892               0.000000000               0.999999989               0.000999831              -0.000000000               0.999999989               0.001002138              -0.000000000               0.999999989               0.000814543               0.000116359               0.999999989               0.000855266               0.000092123               0.999999989               0.000871528               0.000080710               0.999999989               0.000880300               0.000075586               0.999999989               0.000887398               0.000073756               0.999999989               0.000894854               0.000073423               0.999999989               0.000903213               0.000073496               0.999999989               0.000912344               0.000073274               0.999999989               0.000921877               0.000072499               0.999999989               0.000931477               0.000070902               0.999999989               0.000940779               0.000068141               0.999999989               0.000949435               0.000063938               0.999999989               0.000957216               0.000057972               0.999999989               0.000963737               0.000049817               0.999999989               0.000968637               0.000038959               0.999999989               0.000971355               0.000024534               0.999999989               0.000971441               0.000005409               0.999999989               0.000801216               0.000231742               0.999999989               0.000830795               0.000183892               0.999999989               0.000840103               0.000162278               0.999999989               0.000844464               0.000153152               0.999999989               0.000848476               0.000150034               0.999999989               0.000853515               0.000149899               0.999999989               0.000859691               0.000150455               0.999999989               0.000866552               0.000150364               0.999999989               0.000873565               0.000148952               0.999999989               0.000880148               0.000145673               0.999999989               0.000885899               0.000140160               0.999999989               0.000890470               0.000131988               0.999999989               0.000893576               0.000120509               0.999999989               0.000894857               0.000104924               0.999999989               0.000893975               0.000084375               0.999999989               0.000890654               0.000057765               0.999999989               0.000884777               0.000023829               0.999999989               0.000779152               0.000345107               0.999999989               0.000791219               0.000275198               0.999999989               0.000790467               0.000245507               0.999999989               0.000788711               0.000233980               0.999999989               0.000788714               0.000230850               0.999999989               0.000790725               0.000231575               0.999999989               0.000793969               0.000233030               0.999999989               0.000797494               0.000233220               0.999999989               0.000800626               0.000231349               0.999999989               0.000802790               0.000226515               0.999999989               0.000803472               0.000218311               0.999999989               0.000802204               0.000206290               0.999999989               0.000798578               0.000189654               0.999999989               0.000792270               0.000167499               0.999999989               0.000783160               0.000139152               0.999999989               0.000771257               0.000103808               0.999999989               0.000756945               0.000061010               0.999999989               0.000748902               0.000455432               0.999999989               0.000738625               0.000366036               0.999999989               0.000726547               0.000330922               0.999999989               0.000718773               0.000318796               0.999999989               0.000715176               0.000316777               0.999999989               0.000714173               0.000318836               0.999999989               0.000714215               0.000321315               0.999999989               0.000713912               0.000321857               0.999999989               0.000712370               0.000319425               0.999999989               0.000708976               0.000313093               0.999999989               0.000703108               0.000302383               0.999999989               0.000694205               0.000286611               0.999999989               0.000681969               0.000265214               0.999999989               0.000666274               0.000237688               0.999999989               0.000647360               0.000203678               0.999999989               0.000625664               0.000163296               0.999999989               0.000601987               0.000116994               0.999999989               0.000710986               0.000561811               0.999999989               0.000675609               0.000456533               0.999999989               0.000653061               0.000418684               0.999999989               0.000640698               0.000407499               0.999999989               0.000634485               0.000407197               0.999999989               0.000631083               0.000410640               0.999999989               0.000627914               0.000413948               0.999999989               0.000623340               0.000414703               0.999999989               0.000616522               0.000411650               0.999999989               0.000606556               0.000403720               0.999999989               0.000592713               0.000390307               0.999999989               0.000574680               0.000371077               0.999999989               0.000552438               0.000345785               0.999999989               0.000526366               0.000314453               0.999999989               0.000497061               0.000277272               0.999999989               0.000465397               0.000235041               0.999999989               0.000432527               0.000189445               0.999999989               0.000666153               0.000663257               0.999999989               0.000605303               0.000546749               0.999999989               0.000574665               0.000508470               0.999999989               0.000559849               0.000499065               0.999999989               0.000552375               0.000500525               0.999999989               0.000547033               0.000505101               0.999999989               0.000540646               0.000508943               0.999999989               0.000531577               0.000509644               0.999999989               0.000518665               0.000505657               0.999999989               0.000500948               0.000495922               0.999999989               0.000477997               0.000479940               0.999999989               0.000449829               0.000457784               0.999999989               0.000416968               0.000429773               0.999999989               0.000380100               0.000396393               0.999999989               0.000340228               0.000358192               0.999999989               0.000298721               0.000316726               0.999999989               0.000256725               0.000274344               0.999999989               0.000615263               0.000758719               0.999999989               0.000530838               0.000636622               0.999999989               0.000495650               0.000599413               0.999999989               0.000480879               0.000591742               0.999999989               0.000473205               0.000594611               0.999999989               0.000466264               0.000600078               0.999999989               0.000456698               0.000604104               0.999999989               0.000442456               0.000604412               0.999999989               0.000422354               0.000599262               0.999999989               0.000395644               0.000587633               0.999999989               0.000362353               0.000569607               0.999999989               0.000322985               0.000545626               0.999999989               0.000278531               0.000516446               0.999999989               0.000230123               0.000482736               0.999999989               0.000179292               0.000445805               0.999999989               0.000127500               0.000407732               0.999999989               0.000076073               0.000370013               0.999999989               0.000559824               0.000846535               0.999999989               0.000454849               0.000726031               0.999999989               0.000420067               0.000690111               0.999999989               0.000406993               0.000683632               0.999999989               0.000399718               0.000687533               0.999999989               0.000391277               0.000693611               0.999999989               0.000377877               0.000697726               0.999999989               0.000357483               0.000697315               0.999999989               0.000328902               0.000690890               0.999999989               0.000291853               0.000677724               0.999999989               0.000246898               0.000658380               0.999999989               0.000195167               0.000633768               0.999999989               0.000138092               0.000604936               0.999999989               0.000077403               0.000573404               0.999999989               0.000015016               0.000540752               0.999999989              -0.000047531               0.000508546               0.999999989              -0.000109417               0.000477677               0.999999989               0.000502148               0.000930125               0.999999989               0.000390899               0.000827231               0.999999989               0.000353859               0.000788331               0.999999989               0.000340460               0.000777870               0.999999989               0.000333664               0.000779369               0.999999989               0.000326917               0.000785335               0.999999989               0.000316378               0.000791489               0.999999989               0.000300029               0.000795386               0.999999989               0.000276358               0.000795504               0.999999989               0.000244837               0.000790989               0.999999989               0.000205467               0.000781474               0.999999989               0.000158953               0.000767522               0.999999989               0.000106064               0.000750051               0.999999989               0.000047969               0.000729945               0.999999989              -0.000013670               0.000708311               0.999999989              -0.000077348               0.000686333               0.999999989              -0.000141552               0.000665252               0.999999989               0.000439109               0.001006666               0.999999989               0.000329076               0.000925830               0.999999989               0.000290073               0.000889671               0.999999989               0.000275547               0.000877468               0.999999989               0.000268669               0.000877503               0.999999989               0.000262902               0.000883465               0.999999989               0.000254608               0.000891471               0.999999989               0.000241614               0.000899125               0.999999989               0.000222365               0.000904814               0.999999989               0.000196275               0.000907462               0.999999989               0.000162981               0.000906564               0.999999989               0.000122240               0.000902019               0.999999989               0.000074628               0.000894520               0.999999989               0.000020864               0.000884591               0.999999989              -0.000038048               0.000873106               0.999999989              -0.000100547               0.000860808               0.999999989              -0.000165059               0.000848873               0.999999989               0.000372015               0.001074075               0.999999989               0.000269639               0.001018466               0.999999989               0.000230339               0.000989437               0.999999989               0.000214583               0.000978505               0.999999989               0.000207173               0.000978650               0.999999989               0.000201673               0.000985223               0.999999989               0.000194888               0.000995167               0.999999989               0.000184724               0.001006282               0.999999989               0.000169492               0.001016873               0.999999989               0.000148361               0.001025963               0.999999989               0.000120781               0.001032851               0.999999989               0.000086440               0.001037125               0.999999989               0.000045252               0.001038629               0.999999989              -0.000002670               0.001037741               0.999999989              -0.000056943               0.001035235               0.999999989              -0.000116691               0.001031825               0.999999989              -0.000180456               0.001028478               0.999999989               0.000301539               0.001131089               0.999999989               0.000212606               0.001101213               0.999999989               0.000175599               0.001082322               0.999999989               0.000159439               0.001075416               0.999999989               0.000151468               0.001077487               0.999999989               0.000145988               0.001085740               0.999999989               0.000140203               0.001097966               0.999999989               0.000132279               0.001112463               0.999999989               0.000120639               0.001127672               0.999999989               0.000104050               0.001142641               0.999999989               0.000082171               0.001156570               0.999999989               0.000054548               0.001168868               0.999999989               0.000020522               0.001179096               0.999999989              -0.000020317               0.001187291               0.999999989              -0.000068407               0.001193726               0.999999989              -0.000123665               0.001198981               0.999999989              -0.000185693               0.001203850               0.999999989               0.000228510               0.001176434               0.999999989               0.000157715               0.001170129               0.999999989               0.000126013               0.001162644               0.999999989               0.000111037               0.001161519               0.999999989               0.000103188               0.001166962               0.999999989               0.000097984               0.001177731               0.999999989               0.000093271               0.001192595               0.999999989               0.000087139               0.001210384               0.999999989               0.000078494               0.001229946               0.999999989               0.000066337               0.001250318               0.999999989               0.000050061               0.001270623               0.999999989               0.000029198               0.001290284               0.999999989               0.000002999               0.001308861               0.999999989              -0.000029557               0.001326038               0.999999989              -0.000069414               0.001341718               0.999999989              -0.000117413               0.001355942               0.999999989              -0.000174338               0.001369216               0.999999989               0.000153495               0.001209500               0.999999989               0.000104374               0.001221938               0.999999989               0.000081057               0.001224819               0.999999989               0.000069465               0.001229534               0.999999989               0.000063035               0.001238689               0.999999989               0.000058743               0.001252344               0.999999989               0.000055207               0.001269858               0.999999989               0.000050915               0.001290630               0.999999989               0.000045131               0.001313848               0.999999989               0.000037109               0.001338715               0.999999989               0.000026341               0.001364505               0.999999989               0.000012354               0.001390637               0.999999989              -0.000005461               0.001416546               0.999999989              -0.000028187               0.001441764               0.999999989              -0.000057012               0.001465955               0.999999989              -0.000093208               0.001488792               0.999999989              -0.000138400               0.001510181               0.999999989               0.000077087               0.001229641               0.999999989               0.000051995               0.001254064               0.999999989               0.000039607               0.001264115               0.999999989               0.000033283               0.001273373               0.999999989               0.000029557               0.001285502               0.999999989               0.000027094               0.001301325               0.999999989               0.000025165               0.001320836               0.999999989               0.000022990               0.001343702               0.999999989               0.000020102               0.001369331               0.999999989               0.000016085               0.001397151               0.999999989               0.000010671               0.001426582               0.999999989               0.000003764               0.001457102               0.999999989              -0.000005202               0.001488201               0.999999989              -0.000016858               0.001519356               0.999999989              -0.000032086               0.001549985               0.999999989              -0.000051717               0.001579480               0.999999989              -0.000077176               0.001607172               0.999999989              -0.000000000               0.001236310               0.999999989              -0.000000000               0.001264891               0.999999989               0.000000000               0.001277555               0.999999989               0.000000000               0.001288465               0.999999989               0.000000000               0.001301713               0.999999989              -0.000000000               0.001318441               0.999999989              -0.000000000               0.001338728               0.999999989               0.000000000               0.001362368               0.999999989              -0.000000000               0.001388910               0.999999989               0.000000000               0.001417726               0.999999989               0.000000000               0.001448343               0.999999989               0.000000000               0.001480428               0.999999989              -0.000000000               0.001513541               0.999999989               0.000000000               0.001547135               0.999999989               0.000000000               0.001580406               0.999999989              -0.000000000               0.001612562               0.999999989              -0.000000000               0.001642766               0.999999989 </DataArray>
<DataArray type="Float64"                                    Name="stress"                                                      NumberOfComponents="10" format="ascii">
              0.001968270               0.021100463               0.000000000              -0.001899452               0.007666568               0.005767116               0.000000000               0.000000000               0.000000000               0.000000000               0.001870536               0.016157413              -0.000000000              -0.001318222               0.005825158               0.004506936               0.000000000               0.000000000               0.000000000               0.000000000               0.002387276               0.012115574              -0.000000000              -0.000619217               0.004244890               0.003625673               0.000000000               0.000000000               0.000000000               0.000000000               0.002187294               0.009816478              -0.000000000              -0.000406824               0.003407735               0.003000911               0.000000000               0.000000000               0.000000000               0.000000000               0.001798110               0.008361002               0.000000000              -0.000370833               0.002910584               0.002539751               0.000000000               0.000000000               0.000000000               0.000000000               0.001395869               0.007338354              -0.000000000              -0.000393843               0.002577375               0.002183532               0.000000000               0.000000000               0.000000000               0.000000000               0.001048444               0.006546945              -0.000000000              -0.000425201               0.002324027               0.001898826               0.000000000               0.000000000               0.000000000               0.000000000               0.000758085               0.005877684              -0.000000000              -0.000450428               0.002109351               0.001658923               0.000000000               0.000000000               0.000000000               0.000000000               0.000518556               0.005279805              -0.000000000              -0.000465516               0.001915089               0.001449573               0.000000000               0.000000000               0.000000000               0.000000000               0.000332967               0.004723762              -0.000000000              -0.000465607               0.001729774               0.001264167               0.000000000               0.000000000               0.000000000               0.000000000               0.000190294               0.004181524               0.000000000              -0.000451329               0.001544270               0.001092941               0.000000000               0.000000000               0.000000000               0.000000000               0.000080569               0.003633130              -0.000000000              -0.000423927               0.001352340               0.000928413               0.000000000               0.000000000               0.000000000               0.000000000               0.000002854               0.003063837               0.000000000              -0.000381908               0.001148571               0.000766663               0.000000000               0.000000000               0.000000000               0.000000000              -0.000047317               0.002456509              -0.000000000              -0.000324807               0.000927097               0.000602290               0.000000000               0.000000000               0.000000000               0.000000000              -0.000062721               0.001794910              -0.000000000              -0.000247884               0.000680925               0.000433041               0.000000000               0.000000000               0.000000000               0.000000000              -0.000038728               0.001052750               0.000000000              -0.000146117               0.000399619               0.000253502               0.000000000               0.000000000               0.000000000               0.000000000              -0.000078805               0.000484792               0.000000000              -0.000090151               0.000191646               0.000101495               0.000000000               0.000000000               0.000000000               0.000000000               0.002028423               0.020648919              -0.001400127              -0.001820452               0.007489722               0.005669270               0.000000000               0.000000000               0.000000000               0.000000000               0.001814007               0.015868504              -0.000626978              -0.001303307               0.005723884               0.004420577               0.000000000               0.000000000               0.000000000               0.000000000               0.002205130               0.012003322               0.000134449              -0.000673490               0.004225564               0.003552074               0.000000000               0.000000000               0.000000000               0.000000000               0.001957304               0.009798289               0.000448352              -0.000490796               0.003429663               0.002938866               0.000000000               0.000000000               0.000000000               0.000000000               0.001560785               0.008384718               0.000572549              -0.000462794               0.002949143               0.002486348               0.000000000               0.000000000               0.000000000               0.000000000               0.001168440               0.007386104               0.000607178              -0.000485097               0.002623709               0.002138612               0.000000000               0.000000000               0.000000000               0.000000000               0.000832527               0.006607289               0.000596546              -0.000513712               0.002373645               0.001859933               0.000000000               0.000000000               0.000000000               0.000000000               0.000563219               0.005946988               0.000568461              -0.000532165               0.002159698               0.001627533               0.000000000               0.000000000               0.000000000               0.000000000               0.000352737               0.005353087               0.000537855              -0.000536858               0.001963297               0.001426439               0.000000000               0.000000000               0.000000000               0.000000000               0.000192419               0.004794829               0.000506370              -0.000527195               0.001773992               0.001246797               0.000000000               0.000000000               0.000000000               0.000000000               0.000074582               0.004253594               0.000473137              -0.000503730               0.001585760               0.001082030               0.000000000               0.000000000               0.000000000               0.000000000              -0.000012424               0.003712272               0.000436332              -0.000468692               0.001393642               0.000924950               0.000000000               0.000000000               0.000000000               0.000000000              -0.000070645               0.003155321               0.000391214              -0.000420906               0.001192065               0.000771159               0.000000000               0.000000000               0.000000000               0.000000000              -0.000099231               0.002567955               0.000333750              -0.000358205               0.000975378               0.000617173               0.000000000               0.000000000               0.000000000               0.000000000              -0.000093308               0.001937603               0.000255756              -0.000277190               0.000738258               0.000461067               0.000000000               0.000000000               0.000000000               0.000000000              -0.000052753               0.001248728               0.000144320              -0.000175873               0.000474863               0.000298990               0.000000000               0.000000000               0.000000000               0.000000000              -0.000080490               0.000734610               0.000089743              -0.000122010               0.000285537               0.000163528               0.000000000               0.000000000               0.000000000               0.000000000               0.002162481               0.019353908              -0.002580733              -0.001608305               0.006987340               0.005379034               0.000000000               0.000000000               0.000000000               0.000000000               0.001626981               0.015053200              -0.001145771              -0.001271529               0.005441526               0.004169997               0.000000000               0.000000000               0.000000000               0.000000000               0.001678486               0.011687360               0.000253023              -0.000831486               0.004172910               0.003341424               0.000000000               0.000000000               0.000000000               0.000000000               0.001312412               0.009733954               0.000807129              -0.000724588               0.003486148               0.002761560               0.000000000               0.000000000               0.000000000               0.000000000               0.000900628               0.008443673               0.001015788              -0.000717722               0.003053770               0.002336048               0.000000000               0.000000000               0.000000000               0.000000000               0.000540496               0.007505180               0.001066714              -0.000735460               0.002746855               0.002011395               0.000000000               0.000000000               0.000000000               0.000000000               0.000258613               0.006755873               0.001040110              -0.000747503               0.002501103               0.001753600               0.000000000               0.000000000               0.000000000               0.000000000               0.000051863               0.006109445               0.000986902              -0.000744231               0.002284538               0.001540308               0.000000000               0.000000000               0.000000000               0.000000000              -0.000089913               0.005522914               0.000926462              -0.000724080               0.002082313               0.001358233               0.000000000               0.000000000               0.000000000               0.000000000              -0.000181115               0.004967229               0.000864371              -0.000688820               0.001885333               0.001196513               0.000000000               0.000000000               0.000000000               0.000000000              -0.000233235               0.004431123               0.000801978              -0.000641352               0.001690810               0.001049458               0.000000000               0.000000000               0.000000000               0.000000000              -0.000254919               0.003904918               0.000732325              -0.000583708               0.001496196               0.000912487               0.000000000               0.000000000               0.000000000               0.000000000              -0.000249502               0.003376572               0.000647337              -0.000515634               0.001297390               0.000781757               0.000000000               0.000000000               0.000000000               0.000000000              -0.000217027               0.002838020               0.000541568              -0.000436137               0.001091376               0.000655239               0.000000000               0.000000000               0.000000000               0.000000000              -0.000159308               0.002288371               0.000405060              -0.000345786               0.000878045               0.000532259               0.000000000               0.000000000               0.000000000               0.000000000              -0.000083347               0.001731923               0.000223969              -0.000247745               0.000659883               0.000412138               0.000000000               0.000000000               0.000000000               0.000000000              -0.000083665               0.001346578               0.000136772              -0.000199696               0.000515420               0.000315724               0.000000000               0.000000000               0.000000000               0.000000000               0.002262269               0.017384949              -0.003388136              -0.001324767               0.006236513               0.004911747               0.000000000               0.000000000               0.000000000               0.000000000               0.001283048               0.013838500              -0.001497245              -0.001248667               0.005029009               0.003780342               0.000000000               0.000000000               0.000000000               0.000000000               0.000869846               0.011217985               0.000316985              -0.001076053               0.004097975               0.003021922               0.000000000               0.000000000               0.000000000               0.000000000               0.000372723               0.009613758               0.000990318              -0.001061946               0.003558536               0.002496590               0.000000000               0.000000000               0.000000000               0.000000000              -0.000030453               0.008493497               0.001221740              -0.001073105               0.003188839               0.002115734               0.000000000               0.000000000               0.000000000               0.000000000              -0.000320769               0.007627222               0.001267500              -0.001073689               0.002900278               0.001826589               0.000000000               0.000000000               0.000000000               0.000000000              -0.000502089               0.006907991               0.001224301              -0.001051780               0.002653234               0.001601454               0.000000000               0.000000000               0.000000000               0.000000000              -0.000603403               0.006274753               0.001151812              -0.001010618               0.002428436               0.001417818               0.000000000               0.000000000               0.000000000               0.000000000              -0.000650671               0.005694458               0.001071502              -0.000955807               0.002216736               0.001260929               0.000000000               0.000000000               0.000000000               0.000000000              -0.000652988               0.005148215               0.000988076              -0.000888396               0.002012186               0.001123791               0.000000000               0.000000000               0.000000000               0.000000000              -0.000616041               0.004626683               0.000906358              -0.000809349               0.001811995               0.001002646               0.000000000               0.000000000               0.000000000               0.000000000              -0.000548031               0.004120246               0.000817605              -0.000720541               0.001613582               0.000893041               0.000000000               0.000000000               0.000000000               0.000000000              -0.000454199               0.003628584               0.000710480              -0.000623896               0.001417481               0.000793585               0.000000000               0.000000000               0.000000000               0.000000000              -0.000342828               0.003156535               0.000580209              -0.000523126               0.001226543               0.000703417               0.000000000               0.000000000               0.000000000               0.000000000              -0.000222030               0.002714141               0.000420597              -0.000422528               0.001045547               0.000623019               0.000000000               0.000000000               0.000000000               0.000000000              -0.000105065               0.002320291               0.000225917              -0.000329435               0.000883234               0.000553799               0.000000000               0.000000000               0.000000000               0.000000000              -0.000076491               0.002079120               0.000133725              -0.000288573               0.000789224               0.000500651               0.000000000               0.000000000               0.000000000               0.000000000               0.002196667               0.014986499              -0.003748424              -0.001049562               0.005345303               0.004295741               0.000000000               0.000000000               0.000000000               0.000000000               0.000762910               0.012387074              -0.001668522              -0.001262291               0.004549747               0.003287456               0.000000000               0.000000000               0.000000000               0.000000000              -0.000129135               0.010652115               0.000287262              -0.001379937               0.004010648               0.002630712               0.000000000               0.000000000               0.000000000               0.000000000              -0.000705882               0.009430188               0.000954177              -0.001443476               0.003624523               0.002181047               0.000000000               0.000000000               0.000000000               0.000000000              -0.001039669               0.008476952               0.001161457              -0.001449492               0.003308786               0.001859295               0.000000000               0.000000000               0.000000000               0.000000000              -0.001205978               0.007677799               0.001192398              -0.001411963               0.003029895               0.001617931               0.000000000               0.000000000               0.000000000               0.000000000              -0.001254237               0.006984061               0.001144224              -0.001343344               0.002775778               0.001432435               0.000000000               0.000000000               0.000000000               0.000000000              -0.001226395               0.006367359               0.001067266              -0.001255815               0.002541037               0.001285222               0.000000000               0.000000000               0.000000000               0.000000000              -0.001155383               0.005800509               0.000982214              -0.001158330               0.002319593               0.001161264               0.000000000               0.000000000               0.000000000               0.000000000              -0.001049182               0.005270218               0.000896597              -0.001052218               0.002107461               0.001055243               0.000000000               0.000000000               0.000000000               0.000000000              -0.000910749               0.004768942               0.000813302              -0.000937647               0.001902180               0.000964534               0.000000000               0.000000000               0.000000000               0.000000000              -0.000749573               0.004294980               0.000723044              -0.000817960               0.001704299               0.000886339               0.000000000               0.000000000               0.000000000               0.000000000              -0.000575022               0.003857344               0.000617346              -0.000697800               0.001518368               0.000820569               0.000000000               0.000000000               0.000000000               0.000000000              -0.000399314               0.003469123               0.000489140              -0.000583382               0.001350823               0.000767442               0.000000000               0.000000000               0.000000000               0.000000000              -0.000237007               0.003142288               0.000339683              -0.000481662               0.001207973               0.000726310               0.000000000               0.000000000               0.000000000               0.000000000              -0.000103829               0.002897265               0.000175092              -0.000401093               0.001099443               0.000698350               0.000000000               0.000000000               0.000000000               0.000000000              -0.000058321               0.002777816               0.000096761              -0.000369096               0.001048962               0.000679865               0.000000000               0.000000000               0.000000000               0.000000000               0.001847701               0.012407633              -0.003674174              -0.000858067               0.004421858               0.003563791               0.000000000               0.000000000               0.000000000               0.000000000               0.000064303               0.010855412              -0.001689090              -0.001332810               0.004062704               0.002729894               0.000000000               0.000000000               0.000000000               0.000000000              -0.001209127               0.010031724               0.000143721              -0.001707384               0.003913003               0.002205619               0.000000000               0.000000000               0.000000000               0.000000000              -0.001764244               0.009163915               0.000716180              -0.001807076               0.003656966               0.001849890               0.000000000               0.000000000               0.000000000               0.000000000              -0.001961876               0.008351163               0.000881286              -0.001779595               0.003376891               0.001597297               0.000000000               0.000000000               0.000000000               0.000000000              -0.001961971               0.007611762               0.000905872              -0.001687205               0.003099630               0.001412425               0.000000000               0.000000000               0.000000000               0.000000000              -0.001850205               0.006949957               0.000871526              -0.001562568               0.002837485               0.001274917               0.000000000               0.000000000               0.000000000               0.000000000              -0.001685010               0.006355740               0.000810117              -0.001426343               0.002594006               0.001167664               0.000000000               0.000000000               0.000000000               0.000000000              -0.001489806               0.005809588               0.000739277              -0.001284873               0.002364801               0.001079928               0.000000000               0.000000000               0.000000000               0.000000000              -0.001265645               0.005303588               0.000667030              -0.001137563               0.002147032               0.001009470               0.000000000               0.000000000               0.000000000               0.000000000              -0.001025567               0.004834529               0.000596828              -0.000988901               0.001941127               0.000952226               0.000000000               0.000000000               0.000000000               0.000000000              -0.000783050               0.004412237               0.000520519              -0.000845171               0.001752455               0.000907283               0.000000000               0.000000000               0.000000000               0.000000000              -0.000550581               0.004048906               0.000430076              -0.000712579               0.001587148               0.000874569               0.000000000               0.000000000               0.000000000               0.000000000              -0.000342803               0.003753801               0.000321203              -0.000597775               0.001450513               0.000852738               0.000000000               0.000000000               0.000000000               0.000000000              -0.000176436               0.003533532               0.000201540              -0.000507854               0.001347117               0.000839263               0.000000000               0.000000000               0.000000000               0.000000000              -0.000065821               0.003401599               0.000091743              -0.000449882               0.001283815               0.000833934               0.000000000               0.000000000               0.000000000               0.000000000              -0.000025681               0.003364235               0.000042358              -0.000430159               0.001264786               0.000834628               0.000000000               0.000000000               0.000000000               0.000000000               0.001153754               0.009863571              -0.003244699              -0.000800289               0.003554586               0.002754297               0.000000000               0.000000000               0.000000000               0.000000000              -0.000777931               0.009367788              -0.001611750              -0.001462695               0.003610129               0.002147434               0.000000000               0.000000000               0.000000000               0.000000000              -0.002251223               0.009374906              -0.000116314              -0.002016067               0.003796960               0.001780893               0.000000000               0.000000000               0.000000000               0.000000000              -0.002670355               0.008791829               0.000322887              -0.002100357               0.003630699               0.001530343               0.000000000               0.000000000               0.000000000               0.000000000              -0.002671567               0.008097498               0.000457086              -0.002014020               0.003370479               0.001356459               0.000000000               0.000000000               0.000000000               0.000000000              -0.002482657               0.007425349               0.000494930              -0.001859160               0.003094812               0.001235651               0.000000000               0.000000000               0.000000000               0.000000000              -0.002208313               0.006807506               0.000491105              -0.001679052               0.002828830               0.001149778               0.000000000               0.000000000               0.000000000               0.000000000              -0.001905995               0.006245483               0.000463276              -0.001495430               0.002580283               0.001084854               0.000000000               0.000000000               0.000000000               0.000000000              -0.001589787               0.005728750               0.000424854              -0.001312261               0.002346984               0.001034724               0.000000000               0.000000000               0.000000000               0.000000000              -0.001266180               0.005258058               0.000382272              -0.001132072               0.002130026               0.000997954               0.000000000               0.000000000               0.000000000               0.000000000              -0.000949177               0.004844207               0.000337109              -0.000961465               0.001935208               0.000973743               0.000000000               0.000000000               0.000000000               0.000000000              -0.000657837               0.004494822               0.000286219              -0.000808540               0.001767772               0.000959233               0.000000000               0.000000000               0.000000000               0.000000000              -0.000403693               0.004217499               0.000223206              -0.000678571               0.001632009               0.000953438               0.000000000               0.000000000               0.000000000               0.000000000              -0.000200480               0.004012899               0.000146312              -0.000576791               0.001529883               0.000953092               0.000000000               0.000000000               0.000000000               0.000000000              -0.000068120               0.003885256               0.000069386              -0.000511201               0.001465472               0.000954272               0.000000000               0.000000000               0.000000000               0.000000000              -0.000010008               0.003839331               0.000019464              -0.000483668               0.001440987               0.000957319               0.000000000               0.000000000               0.000000000               0.000000000               0.000006332               0.003847500               0.000001454              -0.000478562               0.001442008               0.000963446               0.000000000               0.000000000               0.000000000               0.000000000               0.000149728               0.007521831              -0.002560910              -0.000884081               0.002801945               0.001917864               0.000000000               0.000000000               0.000000000               0.000000000              -0.001711864               0.008009023              -0.001488936              -0.001643074               0.003217339               0.001574265               0.000000000               0.000000000               0.000000000               0.000000000              -0.003149218               0.008681810              -0.000484895              -0.002266177               0.003649300               0.001383123               0.000000000               0.000000000               0.000000000               0.000000000              -0.003330047               0.008316693              -0.000162325              -0.002288348               0.003534986               0.001246638               0.000000000               0.000000000               0.000000000               0.000000000              -0.003108326               0.007735858              -0.000025771              -0.002132599               0.003289460               0.001156861               0.000000000               0.000000000               0.000000000               0.000000000              -0.002736951               0.007142970               0.000044524              -0.001919223               0.003020707               0.001101484               0.000000000               0.000000000               0.000000000               0.000000000              -0.002313199               0.006584363               0.000085173              -0.001690491               0.002758263               0.001067772               0.000000000               0.000000000               0.000000000               0.000000000              -0.001884420               0.006065669               0.000107214              -0.001464862               0.002510157               0.001045295               0.000000000               0.000000000               0.000000000               0.000000000              -0.001465981               0.005592036               0.000113256              -0.001248744               0.002280241               0.001031497               0.000000000               0.000000000               0.000000000               0.000000000              -0.001069232               0.005175864               0.000111627              -0.001047943               0.002074585               0.001026642               0.000000000               0.000000000               0.000000000               0.000000000              -0.000710281               0.004833215               0.000105196              -0.000870505               0.001901224               0.001030719               0.000000000               0.000000000               0.000000000               0.000000000              -0.000405439               0.004568221               0.000090210              -0.000723066               0.001763747               0.001040681               0.000000000               0.000000000               0.000000000               0.000000000              -0.000167239               0.004380464               0.000062874              -0.000610271               0.001663564               0.001053293               0.000000000               0.000000000               0.000000000               0.000000000              -0.000006390               0.004273515               0.000024041              -0.000536584               0.001603352               0.001066768               0.000000000               0.000000000               0.000000000               0.000000000               0.000069010               0.004247041              -0.000007561              -0.000505000               0.001584000               0.001078999               0.000000000               0.000000000               0.000000000               0.000000000               0.000061886               0.004280947              -0.000016142              -0.000511910               0.001597605               0.001085695               0.000000000               0.000000000               0.000000000               0.000000000               0.000041596               0.004325186              -0.000018869              -0.000525049               0.001616730               0.001091682               0.000000000               0.000000000               0.000000000               0.000000000              -0.001043818               0.005554238              -0.001741151              -0.001085710               0.002213297               0.001127587               0.000000000               0.000000000               0.000000000               0.000000000              -0.002631665               0.006798358              -0.001364007              -0.001836665               0.002878318               0.001041653               0.000000000               0.000000000               0.000000000               0.000000000              -0.003860201               0.007990984              -0.000931621              -0.002446442               0.003479115               0.001032673               0.000000000               0.000000000               0.000000000               0.000000000              -0.003778129               0.007859860              -0.000679867              -0.002399275               0.003419685               0.001020410               0.000000000               0.000000000               0.000000000               0.000000000              -0.003370894               0.007418264              -0.000515003              -0.002191363               0.003203184               0.001011821               0.000000000               0.000000000               0.000000000               0.000000000              -0.002854581               0.006925766              -0.000397622              -0.001936184               0.002953960               0.001017776               0.000000000               0.000000000               0.000000000               0.000000000              -0.002313111               0.006438824              -0.000305509              -0.001672265               0.002703675               0.001031410               0.000000000               0.000000000               0.000000000               0.000000000              -0.001782545               0.005973130              -0.000230989              -0.001415092               0.002462721               0.001047629               0.000000000               0.000000000               0.000000000               0.000000000              -0.001284771               0.005545396              -0.000171616              -0.001174961               0.002240100               0.001065140               0.000000000               0.000000000               0.000000000               0.000000000              -0.000834634               0.005179524              -0.000124744              -0.000960426               0.002046633               0.001086207               0.000000000               0.000000000               0.000000000               0.000000000              -0.000450339               0.004887563              -0.000084619              -0.000779821               0.001889111               0.001109291               0.000000000               0.000000000               0.000000000               0.000000000              -0.000142138               0.004675048              -0.000054450              -0.000637681               0.001770894               0.001133213               0.000000000               0.000000000               0.000000000               0.000000000               0.000079708               0.004547445              -0.000034803              -0.000538539               0.001695313               0.001156774               0.000000000               0.000000000               0.000000000               0.000000000               0.000209361               0.004509683              -0.000027039              -0.000485199               0.001664946               0.001179747               0.000000000               0.000000000               0.000000000               0.000000000               0.000252370               0.004554659              -0.000023952              -0.000474693               0.001676436               0.001201743               0.000000000               0.000000000               0.000000000               0.000000000               0.000227303               0.004657373              -0.000016441              -0.000496932               0.001718086               0.001221154               0.000000000               0.000000000               0.000000000               0.000000000               0.000192097               0.004729307              -0.000012061              -0.000519126               0.001749462               0.001230336               0.000000000               0.000000000               0.000000000               0.000000000              -0.002429578               0.003735972              -0.000886604              -0.001378085               0.001704673               0.000326588               0.000000000               0.000000000               0.000000000               0.000000000              -0.003414932               0.005402966              -0.001230987              -0.001955966               0.002452959               0.000496993               0.000000000               0.000000000               0.000000000               0.000000000              -0.004300334               0.006974293              -0.001402297              -0.002484406               0.003152876               0.000668470               0.000000000               0.000000000               0.000000000               0.000000000              -0.004066879               0.007197287              -0.001230090              -0.002424735               0.003207316               0.000782582               0.000000000               0.000000000               0.000000000               0.000000000              -0.003573707               0.007004753              -0.001038201              -0.002215729               0.003073470               0.000857742               0.000000000               0.000000000               0.000000000               0.000000000              -0.003011775               0.006693722              -0.000874266              -0.001966126               0.002886594               0.000920468               0.000000000               0.000000000               0.000000000               0.000000000              -0.002436812               0.006346930              -0.000733964              -0.001707167               0.002684678               0.000977511               0.000000000               0.000000000               0.000000000               0.000000000              -0.001876389               0.005999558              -0.000609748              -0.001453587               0.002484361               0.001030775               0.000000000               0.000000000               0.000000000               0.000000000              -0.001349272               0.005665487              -0.000497898              -0.001214160               0.002293197               0.001079037               0.000000000               0.000000000               0.000000000               0.000000000              -0.000867164               0.005358593              -0.000401117              -0.000995008               0.002117849               0.001122841               0.000000000               0.000000000               0.000000000               0.000000000              -0.000444768               0.005098180              -0.000313942              -0.000804058               0.001967396               0.001163337               0.000000000               0.000000000               0.000000000               0.000000000              -0.000096086               0.004906566              -0.000231383              -0.000649351               0.001851956               0.001202605               0.000000000               0.000000000               0.000000000               0.000000000               0.000172542               0.004788983              -0.000155870              -0.000533918               0.001774284               0.001240366               0.000000000               0.000000000               0.000000000               0.000000000               0.000353584               0.004739428              -0.000093585              -0.000459833               0.001733071               0.001273238               0.000000000               0.000000000               0.000000000               0.000000000               0.000449765               0.004760037              -0.000046959              -0.000426342               0.001728777               0.001302435               0.000000000               0.000000000               0.000000000               0.000000000               0.000481462               0.004853326              -0.000016327              -0.000426116               0.001759798               0.001333682               0.000000000               0.000000000               0.000000000               0.000000000               0.000470866               0.004917168              -0.000002540              -0.000438070               0.001785063               0.001346993               0.000000000               0.000000000               0.000000000               0.000000000              -0.004174217               0.002089096              -0.000058389              -0.001826465               0.001305178              -0.000521287               0.000000000               0.000000000               0.000000000               0.000000000              -0.004289803               0.003985599              -0.001042437              -0.002106871               0.002030809              -0.000076062               0.000000000               0.000000000               0.000000000               0.000000000              -0.004655590               0.005760297              -0.001786466              -0.002465878               0.002742039               0.000276161               0.000000000               0.000000000               0.000000000               0.000000000              -0.004289172               0.006321609              -0.001758286              -0.002398635               0.002906727               0.000508091               0.000000000               0.000000000               0.000000000               0.000000000              -0.003741840               0.006411740              -0.001573346              -0.002204652               0.002872109               0.000667457               0.000000000               0.000000000               0.000000000               0.000000000              -0.003164869               0.006314909              -0.001376918              -0.001976185               0.002763677               0.000787492               0.000000000               0.000000000               0.000000000               0.000000000              -0.002582269               0.006142833              -0.001197412              -0.001736201               0.002626324               0.000890123               0.000000000               0.000000000               0.000000000               0.000000000              -0.002010905               0.005936584              -0.001032111              -0.001496159               0.002477561               0.000981402               0.000000000               0.000000000               0.000000000               0.000000000              -0.001466935               0.005709747              -0.000880050              -0.001263816               0.002324502               0.001060686               0.000000000               0.000000000               0.000000000               0.000000000              -0.000959245               0.005480687              -0.000743542              -0.001044800               0.002175144               0.001130344               0.000000000               0.000000000               0.000000000               0.000000000              -0.000495169               0.005268926              -0.000613809              -0.000844302               0.002037725               0.001193423               0.000000000               0.000000000               0.000000000               0.000000000              -0.000086074               0.005098164              -0.000486333              -0.000669547               0.001922553               0.001253006               0.000000000               0.000000000               0.000000000               0.000000000               0.000256022               0.004972190              -0.000361436              -0.000525514               0.001832552               0.001307037               0.000000000               0.000000000               0.000000000               0.000000000               0.000519993               0.004893786              -0.000241113              -0.000416725               0.001770154               0.001353429               0.000000000               0.000000000               0.000000000               0.000000000               0.000696923               0.004868369              -0.000135330              -0.000347199               0.001738507               0.001391307               0.000000000               0.000000000               0.000000000               0.000000000               0.000794865               0.004908915              -0.000054239              -0.000315539               0.001741468               0.001425929               0.000000000               0.000000000               0.000000000               0.000000000               0.000819449               0.004947812              -0.000019207              -0.000311182               0.001752982               0.001441799               0.000000000               0.000000000               0.000000000               0.000000000              -0.006160773               0.000746948               0.000657641              -0.002403656               0.001050194              -0.001353462               0.000000000               0.000000000               0.000000000               0.000000000              -0.005291440               0.002639183              -0.000785654              -0.002314184               0.001651111              -0.000663073               0.000000000               0.000000000               0.000000000               0.000000000              -0.004946809               0.004360460              -0.001977691              -0.002400106               0.002253506              -0.000146600               0.000000000               0.000000000               0.000000000               0.000000000              -0.004374174               0.005154779              -0.002130765              -0.002284657               0.002479794               0.000195137               0.000000000               0.000000000               0.000000000               0.000000000              -0.003762914               0.005504005              -0.001999274              -0.002099089               0.002534346               0.000435257               0.000000000               0.000000000               0.000000000               0.000000000              -0.003169510               0.005636930              -0.001805558              -0.001893178               0.002510017               0.000616839               0.000000000               0.000000000               0.000000000               0.000000000              -0.002588593               0.005660946              -0.001612728              -0.001678337               0.002446408               0.000768071               0.000000000               0.000000000               0.000000000               0.000000000              -0.002017371               0.005615555              -0.001428550              -0.001458455               0.002357984               0.000899529               0.000000000               0.000000000               0.000000000               0.000000000              -0.001464146               0.005526045              -0.001253467              -0.001239808               0.002255265               0.001015458               0.000000000               0.000000000               0.000000000               0.000000000              -0.000942635               0.005414429              -0.001091038              -0.001030290               0.002148221               0.001117932               0.000000000               0.000000000               0.000000000               0.000000000              -0.000452048               0.005290630              -0.000937957              -0.000830845               0.002040474               0.001209629               0.000000000               0.000000000               0.000000000               0.000000000               0.000004512               0.005165288              -0.000788229              -0.000643968               0.001936401               0.001292434               0.000000000               0.000000000               0.000000000               0.000000000               0.000407824               0.005049599              -0.000632494              -0.000478265               0.001842604               0.001364339               0.000000000               0.000000000               0.000000000               0.000000000               0.000745884               0.004970262              -0.000467375              -0.000341576               0.001770596               0.001429020               0.000000000               0.000000000               0.000000000               0.000000000               0.000999984               0.004933466              -0.000299152              -0.000241689               0.001725035               0.001483346               0.000000000               0.000000000               0.000000000               0.000000000               0.001156829               0.004948141              -0.000142695              -0.000184706               0.001710932               0.001526226               0.000000000               0.000000000               0.000000000               0.000000000               0.001204549               0.004968208              -0.000068521              -0.000169320               0.001712493               0.001543173               0.000000000               0.000000000               0.000000000               0.000000000              -0.008240845              -0.000211684               0.001151891              -0.003063854               0.000950717              -0.002113137               0.000000000               0.000000000               0.000000000               0.000000000              -0.006363797               0.001445223              -0.000505490              -0.002567074               0.001337423              -0.001229651               0.000000000               0.000000000               0.000000000               0.000000000              -0.005201949               0.002899889              -0.001944651              -0.002313213               0.001737688              -0.000575525               0.000000000               0.000000000               0.000000000               0.000000000              -0.004347870               0.003801614              -0.002256068              -0.002105649               0.001969073              -0.000136575               0.000000000               0.000000000               0.000000000               0.000000000              -0.003641689               0.004349660              -0.002205830              -0.001909337               0.002086317               0.000176980               0.000000000               0.000000000               0.000000000               0.000000000              -0.003015105               0.004691992              -0.002050455              -0.001717160               0.002136367               0.000419208               0.000000000               0.000000000               0.000000000               0.000000000              -0.002428885               0.004911665              -0.001873785              -0.001524787               0.002145467               0.000620680               0.000000000               0.000000000               0.000000000               0.000000000              -0.001870754               0.005039119              -0.001694662              -0.001331420               0.002123496               0.000792076               0.000000000               0.000000000               0.000000000               0.000000000              -0.001324949               0.005104698              -0.001518390              -0.001134941               0.002079862               0.000944921               0.000000000               0.000000000               0.000000000               0.000000000              -0.000794129               0.005128081              -0.001352821              -0.000938807               0.002022279               0.001083472               0.000000000               0.000000000               0.000000000               0.000000000              -0.000282778               0.005114113              -0.001199677              -0.000745305               0.001953122               0.001207817               0.000000000               0.000000000               0.000000000               0.000000000               0.000206507               0.005071943              -0.001045569              -0.000556552               0.001876148               0.001319596               0.000000000               0.000000000               0.000000000               0.000000000               0.000663845               0.005020379              -0.000879408              -0.000378605               0.001799645               0.001421039               0.000000000               0.000000000               0.000000000               0.000000000               0.001072505               0.004979664              -0.000691541              -0.000220268               0.001733294               0.001513026               0.000000000               0.000000000               0.000000000               0.000000000               0.001410515               0.004958132              -0.000479391              -0.000090823               0.001682969               0.001592145               0.000000000               0.000000000               0.000000000               0.000000000               0.001654096               0.004968052              -0.000248537              -0.000000721               0.001656241               0.001655520               0.000000000               0.000000000               0.000000000               0.000000000               0.001754971               0.004984397              -0.000131800               0.000035064               0.001649761               0.001684825               0.000000000               0.000000000               0.000000000               0.000000000              -0.010213566              -0.000791955               0.001329022              -0.003731090               0.000979705              -0.002751386               0.000000000               0.000000000               0.000000000               0.000000000              -0.007411849               0.000483349              -0.000257494              -0.002839859               0.001107729              -0.001732131               0.000000000               0.000000000               0.000000000               0.000000000              -0.005430071               0.001532625              -0.001685223              -0.002227852               0.001253483              -0.000974369               0.000000000               0.000000000               0.000000000               0.000000000              -0.004243224               0.002422623              -0.002076672              -0.001894034               0.001438875              -0.000455159               0.000000000               0.000000000               0.000000000               0.000000000              -0.003406043               0.003089996              -0.002101043              -0.001663512               0.001584491              -0.000079021               0.000000000               0.000000000               0.000000000               0.000000000              -0.002734127               0.003591468              -0.002003554              -0.001474228               0.001688552               0.000214324               0.000000000               0.000000000               0.000000000               0.000000000              -0.002138905               0.003980433              -0.001864201              -0.001299641               0.001760011               0.000460370               0.000000000               0.000000000               0.000000000               0.000000000              -0.001589699               0.004276193              -0.001710424              -0.001130659               0.001802269               0.000671610               0.000000000               0.000000000               0.000000000               0.000000000              -0.001058125               0.004497176              -0.001559016              -0.000958942               0.001818691               0.000859748               0.000000000               0.000000000               0.000000000               0.000000000              -0.000530660               0.004656738              -0.001415249              -0.000781089               0.001812593               0.001031504               0.000000000               0.000000000               0.000000000               0.000000000              -0.000010621               0.004765489              -0.001281308              -0.000599668               0.001788370               0.001188701               0.000000000               0.000000000               0.000000000               0.000000000               0.000503604               0.004838407              -0.001146499              -0.000415949               0.001751436               0.001335487               0.000000000               0.000000000               0.000000000               0.000000000               0.001011619               0.004885643              -0.000993892              -0.000231348               0.001705648               0.001474299               0.000000000               0.000000000               0.000000000               0.000000000               0.001500973               0.004916777              -0.000809470              -0.000051733               0.001656153               0.001604421               0.000000000               0.000000000               0.000000000               0.000000000               0.001954789               0.004938243              -0.000586599               0.000115764               0.001607477               0.001723241               0.000000000               0.000000000               0.000000000               0.000000000               0.002351205               0.004965067              -0.000317238               0.000261066               0.001567984               0.001829050               0.000000000               0.000000000               0.000000000               0.000000000               0.002577234               0.005000419              -0.000179741               0.000341407               0.001552987               0.001894394               0.000000000               0.000000000               0.000000000               0.000000000              -0.011868620              -0.001084096               0.001148946              -0.004315218               0.001077033              -0.003238185               0.000000000               0.000000000               0.000000000               0.000000000              -0.008315821              -0.000211762              -0.000089396              -0.003091960               0.000960060              -0.002131901               0.000000000               0.000000000               0.000000000               0.000000000              -0.005622925               0.000411213              -0.001234704              -0.002159996               0.000857064              -0.001302933               0.000000000               0.000000000               0.000000000               0.000000000              -0.004114051               0.001217891              -0.001595451              -0.001695003               0.000970957              -0.000724046               0.000000000               0.000000000               0.000000000               0.000000000              -0.003133189               0.001940803              -0.001655029              -0.001417544               0.001119441              -0.000298103               0.000000000               0.000000000               0.000000000               0.000000000              -0.002404937               0.002546810              -0.001608289              -0.001220200               0.001255660               0.000035460               0.000000000               0.000000000               0.000000000               0.000000000              -0.001799517               0.003057907              -0.001517302              -0.001057055               0.001371643               0.000314588               0.000000000               0.000000000               0.000000000               0.000000000              -0.001250423               0.003488120              -0.001407664              -0.000904922               0.001464335               0.000559413               0.000000000               0.000000000               0.000000000               0.000000000              -0.000728299               0.003839454              -0.001297074              -0.000753043               0.001530819               0.000777777               0.000000000               0.000000000               0.000000000               0.000000000              -0.000213026               0.004122616              -0.001190444              -0.000595211               0.001572595               0.000977384               0.000000000               0.000000000               0.000000000               0.000000000               0.000307110               0.004351492              -0.001091967              -0.000428770               0.001593406               0.001164636               0.000000000               0.000000000               0.000000000               0.000000000               0.000840066               0.004536182              -0.000994347              -0.000251998               0.001596045               0.001344047               0.000000000               0.000000000               0.000000000               0.000000000               0.001388558               0.004680749              -0.000880110              -0.000064385               0.001581696               0.001517311               0.000000000               0.000000000               0.000000000               0.000000000               0.001957654               0.004794540              -0.000734158               0.000134801               0.001553230               0.001688032               0.000000000               0.000000000               0.000000000               0.000000000               0.002544753               0.004880310              -0.000547135               0.000344240               0.001512007               0.001856247               0.000000000               0.000000000               0.000000000               0.000000000               0.003145228               0.004945942              -0.000303432               0.000561212               0.001461560               0.002022772               0.000000000               0.000000000               0.000000000               0.000000000               0.003554740               0.005014856              -0.000179570               0.000706163               0.001436214               0.002142378               0.000000000               0.000000000               0.000000000               0.000000000              -0.012979629              -0.001206381               0.000665518              -0.004716560               0.001170052              -0.003546509               0.000000000               0.000000000               0.000000000               0.000000000              -0.008938742              -0.000633091              -0.000011923              -0.003272890               0.000879927              -0.002392963               0.000000000               0.000000000               0.000000000               0.000000000              -0.005758084              -0.000319524              -0.000649993              -0.002119340               0.000599934              -0.001519405               0.000000000               0.000000000               0.000000000               0.000000000              -0.004018570               0.000399501              -0.000866640              -0.001556900               0.000652129              -0.000904771               0.000000000               0.000000000               0.000000000               0.000000000              -0.002922526               0.001129989              -0.000913746              -0.001237194               0.000789055              -0.000448139               0.000000000               0.000000000               0.000000000               0.000000000              -0.002140127               0.001790927              -0.000899632              -0.001026411               0.000939106              -0.000087305               0.000000000               0.000000000               0.000000000               0.000000000              -0.001520367               0.002375727              -0.000857335              -0.000867102               0.001080935               0.000213833               0.000000000               0.000000000               0.000000000               0.000000000              -0.000975060               0.002885840              -0.000801176              -0.000726376               0.001204062               0.000477686               0.000000000               0.000000000               0.000000000               0.000000000              -0.000462720               0.003320635              -0.000741819              -0.000588598               0.001303066               0.000714468               0.000000000               0.000000000               0.000000000               0.000000000               0.000044216               0.003690057              -0.000683134              -0.000444675               0.001378232               0.000933556               0.000000000               0.000000000               0.000000000               0.000000000               0.000562390               0.004006309              -0.000630939              -0.000289892               0.001432053               0.001142161               0.000000000               0.000000000               0.000000000               0.000000000               0.001102774               0.004276987              -0.000580358              -0.000121083               0.001466009               0.001344926               0.000000000               0.000000000               0.000000000               0.000000000               0.001676824               0.004504099              -0.000520449               0.000065796               0.001479420               0.001545215               0.000000000               0.000000000               0.000000000               0.000000000               0.002301689               0.004688122              -0.000442094               0.000277115               0.001470320               0.001747435               0.000000000               0.000000000               0.000000000               0.000000000               0.002994090               0.004828398              -0.000337393               0.000519229               0.001436373               0.001955602               0.000000000               0.000000000               0.000000000               0.000000000               0.003771184               0.004927250              -0.000192420               0.000798280               0.001376307               0.002174587               0.000000000               0.000000000               0.000000000               0.000000000               0.004351515               0.005025813              -0.000118651               0.001003581               0.001340727               0.002344309               0.000000000               0.000000000               0.000000000               0.000000000              -0.013370291              -0.001234846               0.000000000              -0.004859500               0.001208210              -0.003651290               0.000000000               0.000000000               0.000000000               0.000000000              -0.009162389              -0.000771651               0.000000000              -0.003339437               0.000855923              -0.002483514               0.000000000               0.000000000               0.000000000               0.000000000              -0.005808593              -0.000572754              -0.000000000              -0.002106627               0.000511288              -0.001595339               0.000000000               0.000000000               0.000000000               0.000000000              -0.003985369               0.000107141              -0.000000000              -0.001507905               0.000538345              -0.000969560               0.000000000               0.000000000               0.000000000               0.000000000              -0.002840510               0.000838513              -0.000000000              -0.001170004               0.000669501              -0.000500503               0.000000000               0.000000000               0.000000000               0.000000000              -0.002035135               0.001517369               0.000000000              -0.000952845               0.000823399              -0.000129446               0.000000000               0.000000000               0.000000000               0.000000000              -0.001410840               0.002124402               0.000000000              -0.000794613               0.000972998               0.000178385               0.000000000               0.000000000               0.000000000               0.000000000              -0.000870045               0.002660750              -0.000000000              -0.000658859               0.001106527               0.000447668               0.000000000               0.000000000               0.000000000               0.000000000              -0.000363580               0.003122338               0.000000000              -0.000526633               0.001216313               0.000689680               0.000000000               0.000000000               0.000000000               0.000000000               0.000140002               0.003519048               0.000000000              -0.000387380               0.001302131               0.000914751               0.000000000               0.000000000               0.000000000               0.000000000               0.000658942               0.003869492               0.000000000              -0.000236583               0.001368679               0.001132096               0.000000000               0.000000000               0.000000000               0.000000000               0.001200238               0.004178486              -0.000000000              -0.000072222               0.001416889               0.001344667               0.000000000               0.000000000               0.000000000               0.000000000               0.001783110               0.004444028              -0.000000000               0.000113162               0.001443607               0.001556769               0.000000000               0.000000000               0.000000000               0.000000000               0.002427912               0.004657217               0.000000000               0.000328311               0.001442953               0.001771264               0.000000000               0.000000000               0.000000000               0.000000000               0.003159887               0.004814907              -0.000000000               0.000583088               0.001410590               0.001993678               0.000000000               0.000000000               0.000000000               0.000000000               0.004006446               0.004922739               0.000000000               0.000887066               0.001345208               0.002232274               0.000000000               0.000000000               0.000000000               0.000000000               0.004657532               0.005032315              -0.000000000               0.001117524               0.001304914               0.002422438               0.000000000               0.000000000               0.000000000               0.000000000               0.000000000               0.000000000               0.000000000               0.000000000               0.000000000               0.000000000               0.000000000               0.000000000               0.000000000               0.000000000               0.000000000               0.000000000               0.000000000               0.000000000               0.000000000               0.000000000               0.000000000               0.000000000               0.000000000               0.000000000               0.000000000               0.000000000               0.000000000               0.000000000               0.000000000               0.000000000               0.000000000               0.000000000               0.000000000               0.000000000               0.000000000               0.000000000               0.000000000               0.000000000               0.000000000               0.000000000               0.000000000               0.000000000               0.000000000               0.000000000               0.000000000               0.000000000               0.000000000               0.000000000               0.000000000               0.000000000               0.000000000               0.000000000               0.000000000               0.000000000               0.000000000               0.000000000               0.000000000               0.000000000               0.000000000               0.000000000               0.000000000               0.000000000               0.000000000               0.000000000               0.000000000               0.000000000               0.000000000               0.000000000               0.000000000               0.000000000               0.000000000               0.000000000               0.000000000               0.000000000               0.000000000               0.000000000               0.000000000               0.000000000               0.000000000               0.000000000               0.000000000               0.000000000               0.000000000               0.000000000               0.000000000               0.000000000               0.000000000               0.000000000               0.000000000               0.000000000               0.000000000               0.000000000               0.000000000               0.000000000               0.000000000               0.000000000               0.000000000               0.000000000               0.000000000               0.000000000               0.000000000               0.000000000               0.000000000               0.000000000               0.000000000               0.000000000               0.000000000               0.000000000               0.000000000               0.000000000               0.000000000               0.000000000               0.000000000               0.000000000               0.000000000               0.000000000               0.000000000               0.000000000               0.000000000               0.000000000               0.000000000               0.000000000               0.000000000               0.000000000               0.000000000               0.000000000               0.000000000               0.000000000               0.000000000               0.000000000               0.000000000               0.000000000               0.000000000               0.000000000               0.000000000               0.000000000               0.000000000               0.000000000               0.000000000               0.000000000               0.000000000               0.000000000               0.000000000               0.000000000               0.000000000               0.000000000               0.000000000               0.000000000               0.000000000               0.000000000               0.000000000               0.000000000               0.000000000               0.000000000               0.000000000               0.000000000               0.000000000               0.000000000               0.000000000               0.000000000               0.000000000               0.000000000               0.000000000               0.000000000               0.000000000               0.000000000               0.000000000               0.000000000               0.000000000               0.000000000               0.000000000               0.000000000               0.000000000               0.000000000               0.002028423               0.020648919               0.001400127              -0.001820452               0.007489722               0.005669270               0.000000000               0.000000000               0.000000000               0.000000000               0.001814007               0.015868504               0.000626978              -0.001303307               0.005723884               0.004420577               0.000000000               0.000000000               0.000000000               0.000000000               0.002205130               0.012003322              -0.000134449              -0.000673490               0.004225564               0.003552074               0.000000000               0.000000000               0.000000000               0.000000000               0.001957304               0.009798289              -0.000448352              -0.000490796               0.003429663               0.002938866               0.000000000               0.000000000               0.000000000               0.000000000               0.001560785               0.008384718              -0.000572549              -0.000462794               0.002949143               0.002486348               0.000000000               0.000000000               0.000000000               0.000000000               0.001168440               0.007386104              -0.000607178              -0.000485097               0.002623709               0.002138612               0.000000000               0.000000000               0.000000000               0.000000000               0.000832527               0.006607289              -0.000596546              -0.000513712               0.002373645               0.001859933               0.000000000               0.000000000               0.000000000               0.000000000               0.000563219               0.005946988              -0.000568461              -0.000532165               0.002159698               0.001627533               0.000000000               0.000000000               0.000000000               0.000000000               0.000352737               0.005353087              -0.000537855              -0.000536858               0.001963297               0.001426439               0.000000000               0.000000000               0.000000000               0.000000000               0.000192419               0.004794829              -0.000506370              -0.000527195               0.001773992               0.001246797               0.000000000               0.000000000               0.000000000               0.000000000               0.000074582               0.004253594              -0.000473137              -0.000503730               0.001585760               0.001082030               0.000000000               0.000000000               0.000000000               0.000000000              -0.000012424               0.003712272              -0.000436332              -0.000468692               0.001393642               0.000924950               0.000000000               0.000000000               0.000000000               0.000000000              -0.000070645               0.003155321              -0.000391214              -0.000420906               0.001192065               0.000771159               0.000000000               0.000000000               0.000000000               0.000000000              -0.000099231               0.002567955              -0.000333750              -0.000358205               0.000975378               0.000617173               0.000000000               0.000000000               0.000000000               0.000000000              -0.000093308               0.001937603              -0.000255756              -0.000277190               0.000738258               0.000461067               0.000000000               0.000000000               0.000000000               0.000000000              -0.000052753               0.001248728              -0.000144320              -0.000175873               0.000474863               0.000298990               0.000000000               0.000000000               0.000000000               0.000000000              -0.000080490               0.000734610              -0.000089743              -0.000122010               0.000285537               0.000163528               0.000000000               0.000000000               0.000000000               0.000000000               0.002162481               0.019353908               0.002580733              -0.001608305               0.006987340               0.005379034               0.000000000               0.000000000               0.000000000               0.000000000               0.001626981               0.015053200               0.001145771              -0.001271529               0.005441526               0.004169997               0.000000000               0.000000000               0.000000000               0.000000000               0.001678486               0.011687360              -0.000253023              -0.000831486               0.004172910               0.003341424               0.000000000               0.000000000               0.000000000               0.000000000               0.001312412               0.009733954              -0.000807129              -0.000724588               0.003486148               0.002761560               0.000000000               0.000000000               0.000000000               0.000000000               0.000900628               0.008443673              -0.001015788              -0.000717722               0.003053770               0.002336048               0.000000000               0.000000000               0.000000000               0.000000000               0.000540496               0.007505180              -0.001066714              -0.000735460               0.002746855               0.002011395               0.000000000               0.000000000               0.000000000               0.000000000               0.000258613               0.006755873              -0.001040110              -0.000747503               0.002501103               0.001753600               0.000000000               0.000000000               0.000000000               0.000000000               0.000051863               0.006109445              -0.000986902              -0.000744231               0.002284538               0.001540308               0.000000000               0.000000000               0.000000000               0.000000000              -0.000089913               0.005522914              -0.000926462              -0.000724080               0.002082313               0.001358233               0.000000000               0.000000000               0.000000000               0.000000000              -0.000181115               0.004967229              -0.000864371              -0.000688820               0.001885333               0.001196513               0.000000000               0.000000000               0.000000000               0.000000000              -0.000233235               0.004431123              -0.000801978              -0.000641352               0.001690810               0.001049458               0.000000000               0.000000000               0.000000000               0.000000000              -0.000254919               0.003904918              -0.000732325              -0.000583708               0.001496196               0.000912487               0.000000000               0.000000000               0.000000000               0.000000000              -0.000249502               0.003376572              -0.000647337              -0.000515634               0.001297390               0.000781757               0.000000000               0.000000000               0.000000000               0.000000000              -0.000217027               0.002838020              -0.000541568              -0.000436137               0.001091376               0.000655239               0.000000000               0.000000000               0.000000000               0.000000000              -0.000159308               0.002288371              -0.000405060              -0.000345786               0.000878045               0.000532259               0.000000000               0.000000000               0.000000000               0.000000000              -0.000083347               0.001731923              -0.000223969              -0.000247745               0.000659883               0.000412138               0.000000000               0.000000000               0.000000000               0.000000000              -0.000083665               0.001346578              -0.000136772              -0.000199696               0.000515420               0.000315724               0.000000000               0.000000000               0.000000000               0.000000000               0.002262269               0.017384949               0.003388136              -0.001324767               0.006236513               0.004911747               0.000000000               0.000000000               0.000000000               0.000000000               0.001283048               0.013838500               0.001497245              -0.001248667               0.005029009               0.003780342               0.000000000               0.000000000               0.000000000               0.000000000               0.000869846               0.011217985              -0.000316985              -0.001076053               0.004097975               0.003021922               0.000000000               0.000000000               0.000000000               0.000000000               0.000372723               0.009613758              -0.000990318              -0.001061946               0.003558536               0.002496590               0.000000000               0.000000000               0.000000000               0.000000000              -0.000030453               0.008493497              -0.001221740              -0.001073105               0.003188839               0.002115734               0.000000000               0.000000000               0.000000000               0.000000000              -0.000320769               0.007627222              -0.001267500              -0.001073689               0.002900278               0.001826589               0.000000000               0.000000000               0.000000000               0.000000000              -0.000502089               0.006907991              -0.001224301              -0.001051780               0.002653234               0.001601454               0.000000000               0.000000000               0.000000000               0.000000000              -0.000603403               0.006274753              -0.001151812              -0.001010618               0.002428436               0.001417818               0.000000000               0.000000000               0.000000000               0.000000000              -0.000650671               0.005694458              -0.001071502              -0.000955807               0.002216736               0.001260929               0.000000000               0.000000000               0.000000000               0.000000000              -0.000652988               0.005148215              -0.000988076              -0.000888396               0.002012186               0.001123791               0.000000000               0.000000000               0.000000000               0.000000000              -0.000616041               0.004626683              -0.000906358              -0.000809349               0.001811995               0.001002646               0.000000000               0.000000000               0.000000000               0.000000000              -0.000548031               0.004120246              -0.000817605              -0.000720541               0.001613582               0.000893041               0.000000000               0.000000000               0.000000000               0.000000000              -0.000454199               0.003628584              -0.000710480              -0.000623896               0.001417481               0.000793585               0.000000000               0.000000000               0.000000000               0.000000000              -0.000342828               0.003156535              -0.000580209              -0.000523126               0.001226543               0.000703417               0.000000000               0.000000000               0.000000000               0.000000000              -0.000222030               0.002714141              -0.000420597              -0.000422528               0.001045547               0.000623019               0.000000000               0.000000000               0.000000000               0.000000000              -0.000105065               0.002320291              -0.000225917              -0.000329435               0.000883234               0.000553799               0.000000000               0.000000000               0.000000000               0.000000000              -0.000076491               0.002079120              -0.000133725              -0.000288573               0.000789224               0.000500651               0.000000000               0.000000000               0.000000000               0.000000000               0.002196667               0.014986499               0.003748424              -0.001049562               0.005345303               0.004295741               0.000000000               0.000000000               0.000000000               0.000000000               0.000762910               0.012387074               0.001668522              -0.001262291               0.004549747               0.003287456               0.000000000               0.000000000               0.000000000               0.000000000              -0.000129135               0.010652115              -0.000287262              -0.001379937               0.004010648               0.002630712               0.000000000               0.000000000               0.000000000               0.000000000              -0.000705882               0.009430188              -0.000954177              -0.001443476               0.003624523               0.002181047               0.000000000               0.000000000               0.000000000               0.000000000              -0.001039669               0.008476952              -0.001161457              -0.001449492               0.003308786               0.001859295               0.000000000               0.000000000               0.000000000               0.000000000              -0.001205978               0.007677799              -0.001192398              -0.001411963               0.003029895               0.001617931               0.000000000               0.000000000               0.000000000               0.000000000              -0.001254237               0.006984061              -0.001144224              -0.001343344               0.002775778               0.001432435               0.000000000               0.000000000               0.000000000               0.000000000              -0.001226395               0.006367359              -0.001067266              -0.001255815               0.002541037               0.001285222               0.000000000               0.000000000               0.000000000               0.000000000              -0.001155383               0.005800509              -0.000982214              -0.001158330               0.002319593               0.001161264               0.000000000               0.000000000               0.000000000               0.000000000              -0.001049182               0.005270218              -0.000896597              -0.001052218               0.002107461               0.001055243               0.000000000               0.000000000               0.000000000               0.000000000              -0.000910749               0.004768942              -0.000813302              -0.000937647               0.001902180               0.000964534               0.000000000               0.000000000               0.000000000               0.000000000              -0.000749573               0.004294980              -0.000723044              -0.000817960               0.001704299               0.000886339               0.000000000               0.000000000               0.000000000               0.000000000              -0.000575022               0.003857344              -0.000617346              -0.000697800               0.001518368               0.000820569               0.000000000               0.000000000               0.000000000               0.000000000              -0.000399314               0.003469123              -0.000489140              -0.000583382               0.001350823               0.000767442               0.000000000               0.000000000               0.000000000               0.000000000              -0.000237007               0.003142288              -0.000339683              -0.000481662               0.001207973               0.000726310               0.000000000               0.000000000               0.000000000               0.000000000              -0.000103829               0.002897265              -0.000175092              -0.000401093               0.001099443               0.000698350               0.000000000               0.000000000               0.000000000               0.000000000              -0.000058321               0.002777816              -0.000096761              -0.000369096               0.001048962               0.000679865               0.000000000               0.000000000               0.000000000               0.000000000               0.001847701               0.012407633               0.003674174              -0.000858067               0.004421858               0.003563791               0.000000000               0.000000000               0.000000000               0.000000000               0.000064303               0.010855412               0.001689090              -0.001332810               0.004062704               0.002729894               0.000000000               0.000000000               0.000000000               0.000000000              -0.001209127               0.010031724              -0.000143721              -0.001707384               0.003913003               0.002205619               0.000000000               0.000000000               0.000000000               0.000000000              -0.001764244               0.009163915              -0.000716180              -0.001807076               0.003656966               0.001849890               0.000000000               0.000000000               0.000000000               0.000000000              -0.001961876               0.008351163              -0.000881286              -0.001779595               0.003376891               0.001597297               0.000000000               0.000000000               0.000000000               0.000000000              -0.001961971               0.007611762              -0.000905872              -0.001687205               0.003099630               0.001412425               0.000000000               0.000000000               0.000000000               0.000000000              -0.001850205               0.006949957              -0.000871526              -0.001562568               0.002837485               0.001274917               0.000000000               0.000000000               0.000000000               0.000000000              -0.001685010               0.006355740              -0.000810117              -0.001426343               0.002594006               0.001167664               0.000000000               0.000000000               0.000000000               0.000000000              -0.001489806               0.005809588              -0.000739277              -0.001284873               0.002364801               0.001079928               0.000000000               0.000000000               0.000000000               0.000000000              -0.001265645               0.005303588              -0.000667030              -0.001137563               0.002147032               0.001009470               0.000000000               0.000000000               0.000000000               0.000000000              -0.001025567               0.004834529              -0.000596828              -0.000988901               0.001941127               0.000952226               0.000000000               0.000000000               0.000000000               0.000000000              -0.000783050               0.004412237              -0.000520519              -0.000845171               0.001752455               0.000907283               0.000000000               0.000000000               0.000000000               0.000000000              -0.000550581               0.004048906              -0.000430076              -0.000712579               0.001587148               0.000874569               0.000000000               0.000000000               0.000000000               0.000000000              -0.000342803               0.003753801              -0.000321203              -0.000597775               0.001450513               0.000852738               0.000000000               0.000000000               0.000000000               0.000000000              -0.000176436               0.003533532              -0.000201540              -0.000507854               0.001347117               0.000839263               0.000000000               0.000000000               0.000000000               0.000000000              -0.000065821               0.003401599              -0.000091743              -0.000449882               0.001283815               0.000833934               0.000000000               0.000000000               0.000000000               0.000000000              -0.000025681               0.003364235              -0.000042358              -0.000430159               0.001264786               0.000834628               0.000000000               0.000000000               0.000000000               0.000000000               0.001153754               0.009863571               0.003244699              -0.000800289               0.003554586               0.002754297               0.000000000               0.000000000               0.000000000               0.000000000              -0.000777931               0.009367788               0.001611750              -0.001462695               0.003610129               0.002147434               0.000000000               0.000000000               0.000000000               0.000000000              -0.002251223               0.009374906               0.000116314              -0.002016067               0.003796960               0.001780893               0.000000000               0.000000000               0.000000000               0.000000000              -0.002670355               0.008791829              -0.000322887              -0.002100357               0.003630699               0.001530343               0.000000000               0.000000000               0.000000000               0.000000000              -0.002671567               0.008097498              -0.000457086              -0.002014020               0.003370479               0.001356459               0.000000000               0.000000000               0.000000000               0.000000000              -0.002482657               0.007425349              -0.000494930              -0.001859160               0.003094812               0.001235651               0.000000000               0.000000000               0.000000000               0.000000000              -0.002208313               0.006807506              -0.000491105              -0.001679052               0.002828830               0.001149778               0.000000000               0.000000000               0.000000000               0.000000000              -0.001905995               0.006245483              -0.000463276              -0.001495430               0.002580283               0.001084854               0.000000000               0.000000000               0.000000000               0.000000000              -0.001589787               0.005728750              -0.000424854              -0.001312261               0.002346984               0.001034724               0.000000000               0.000000000               0.000000000               0.000000000              -0.001266180               0.005258058              -0.000382272              -0.001132072               0.002130026               0.000997954               0.000000000               0.000000000               0.000000000               0.000000000              -0.000949177               0.004844207              -0.000337109              -0.000961465               0.001935208               0.000973743               0.000000000               0.000000000               0.000000000               0.000000000              -0.000657837               0.004494822              -0.000286219              -0.000808540               0.001767772               0.000959233               0.000000000               0.000000000               0.000000000               0.000000000              -0.000403693               0.004217499              -0.000223206              -0.000678571               0.001632009               0.000953438               0.000000000               0.000000000               0.000000000               0.000000000              -0.000200480               0.004012899              -0.000146312              -0.000576791               0.001529883               0.000953092               0.000000000               0.000000000               0.000000000               0.000000000              -0.000068120               0.003885256              -0.000069386              -0.000511201               0.001465472               0.000954272               0.000000000               0.000000000               0.000000000               0.000000000              -0.000010008               0.003839331              -0.000019464              -0.000483668               0.001440987               0.000957319               0.000000000               0.000000000               0.000000000               0.000000000               0.000006332               0.003847500              -0.000001454              -0.000478562               0.001442008               0.000963446               0.000000000               0.000000000               0.000000000               0.000000000               0.000149728               0.007521831               0.002560910              -0.000884081               0.002801945               0.001917864               0.000000000               0.000000000               0.000000000               0.000000000              -0.001711864               0.008009023               0.001488936              -0.001643074               0.003217339               0.001574265               0.000000000               0.000000000               0.000000000               0.000000000              -0.003149218               0.008681810               0.000484895              -0.002266177               0.003649300               0.001383123               0.000000000               0.000000000               0.000000000               0.000000000              -0.003330047               0.008316693               0.000162325              -0.002288348               0.003534986               0.001246638               0.000000000               0.000000000               0.000000000               0.000000000              -0.003108326               0.007735858               0.000025771              -0.002132599               0.003289460               0.001156861               0.000000000               0.000000000               0.000000000               0.000000000              -0.002736951               0.007142970              -0.000044524              -0.001919223               0.003020707               0.001101484               0.000000000               0.000000000               0.000000000               0.000000000              -0.002313199               0.006584363              -0.000085173              -0.001690491               0.002758263               0.001067772               0.000000000               0.000000000               0.000000000               0.000000000              -0.001884420               0.006065669              -0.000107214              -0.001464862               0.002510157               0.001045295               0.000000000               0.000000000               0.000000000               0.000000000              -0.001465981               0.005592036              -0.000113256              -0.001248744               0.002280241               0.001031497               0.000000000               0.000000000               0.000000000               0.000000000              -0.001069232               0.005175864              -0.000111627              -0.001047943               0.002074585               0.001026642               0.000000000               0.000000000               0.000000000               0.000000000              -0.000710281               0.004833215              -0.000105196              -0.000870505               0.001901224               0.001030719               0.000000000               0.000000000               0.000000000               0.000000000              -0.000405439               0.004568221              -0.000090210              -0.000723066               0.001763747               0.001040681               0.000000000               0.000000000               0.000000000               0.000000000              -0.000167239               0.004380464              -0.000062874              -0.000610271               0.001663564               0.001053293               0.000000000               0.000000000               0.000000000               0.000000000              -0.000006390               0.004273515              -0.000024041              -0.000536584               0.001603352               0.001066768               0.000000000               0.000000000               0.000000000               0.000000000               0.000069010               0.004247041               0.000007561              -0.000505000               0.001584000               0.001078999               0.000000000               0.000000000               0.000000000               0.000000000               0.000061886               0.004280947               0.000016142              -0.000511910               0.001597605               0.001085695               0.000000000               0.000000000               0.000000000               0.000000000               0.000041596               0.004325186               0.000018869              -0.000525049               0.001616730               0.001091682               0.000000000               0.000000000               0.000000000               0.000000000              -0.001043818               0.005554238               0.001741151              -0.001085710               0.002213297               0.001127587               0.000000000               0.000000000               0.000000000               0.000000000              -0.002631665               0.006798358               0.001364007              -0.001836665               0.002878318               0.001041653               0.000000000               0.000000000               0.000000000               0.000000000              -0.003860201               0.007990984               0.000931621              -0.002446442               0.003479115               0.001032673               0.000000000               0.000000000               0.000000000               0.000000000              -0.003778129               0.007859860               0.000679867              -0.002399275               0.003419685               0.001020410               0.000000000               0.000000000               0.000000000               0.000000000              -0.003370894               0.007418264               0.000515003              -0.002191363               0.003203184               0.001011821               0.000000000               0.000000000               0.000000000               0.000000000              -0.002854581               0.006925766               0.000397622              -0.001936184               0.002953960               0.001017776               0.000000000               0.000000000               0.000000000               0.000000000              -0.002313111               0.006438824               0.000305509              -0.001672265               0.002703675               0.001031410               0.000000000               0.000000000               0.000000000               0.000000000              -0.001782545               0.005973130               0.000230989              -0.001415092               0.002462721               0.001047629               0.000000000               0.000000000               0.000000000               0.000000000              -0.001284771               0.005545396               0.000171616              -0.001174961               0.002240100               0.001065140               0.000000000               0.000000000               0.000000000               0.000000000              -0.000834634               0.005179524               0.000124744              -0.000960426               0.002046633               0.001086207               0.000000000               0.000000000               0.000000000               0.000000000              -0.000450339               0.004887563               0.000084619              -0.000779821               0.001889111               0.001109291               0.000000000               0.000000000               0.000000000               0.000000000              -0.000142138               0.004675048               0.000054450              -0.000637681               0.001770894               0.001133213               0.000000000               0.000000000               0.000000000               0.000000000               0.000079708               0.004547445               0.000034803              -0.000538539               0.001695313               0.001156774               0.000000000               0.000000000               0.000000000               0.000000000               0.000209361               0.004509683               0.000027039              -0.000485199               0.001664946               0.001179747               0.000000000               0.000000000               0.000000000               0.000000000               0.000252370               0.004554659               0.000023952              -0.000474693               0.001676436               0.001201743               0.000000000               0.000000000               0.000000000               0.000000000               0.000227303               0.004657373               0.000016441              -0.000496932               0.001718086               0.001221154               0.000000000               0.000000000               0.000000000               0.000000000               0.000192097               0.004729307               0.000012061              -0.000519126               0.001749462               0.001230336               0.000000000               0.000000000               0.000000000               0.000000000              -0.002429578               0.003735972               0.000886604              -0.001378085               0.001704673               0.000326588               0.000000000               0.000000000               0.000000000               0.000000000              -0.003414932               0.005402966               0.001230987              -0.001955966               0.002452959               0.000496993               0.000000000               0.000000000               0.000000000               0.000000000              -0.004300334               0.006974293               0.001402297              -0.002484406               0.003152876               0.000668470               0.000000000               0.000000000               0.000000000               0.000000000              -0.004066879               0.007197287               0.001230090              -0.002424735               0.003207316               0.000782582               0.000000000               0.000000000               0.000000000               0.000000000              -0.003573707               0.007004753               0.001038201              -0.002215729               0.003073470               0.000857742               0.000000000               0.000000000               0.000000000               0.000000000              -0.003011775               0.006693722               0.000874266              -0.001966126               0.002886594               0.000920468               0.000000000               0.000000000               0.000000000               0.000000000              -0.002436812               0.006346930               0.000733964              -0.001707167               0.002684678               0.000977511               0.000000000               0.000000000               0.000000000               0.000000000              -0.001876389               0.005999558               0.000609748              -0.001453587               0.002484361               0.001030775               0.000000000               0.000000000               0.000000000               0.000000000              -0.001349272               0.005665487               0.000497898              -0.001214160               0.002293197               0.001079037               0.000000000               0.000000000               0.000000000               0.000000000              -0.000867164               0.005358593               0.000401117              -0.000995008               0.002117849               0.001122841               0.000000000               0.000000000               0.000000000               0.000000000              -0.000444768               0.005098180               0.000313942              -0.000804058               0.001967396               0.001163337               0.000000000               0.000000000               0.000000000               0.000000000              -0.000096086               0.004906566               0.000231383              -0.000649351               0.001851956               0.001202605               0.000000000               0.000000000               0.000000000               0.000000000               0.000172542               0.004788983               0.000155870              -0.000533918               0.001774284               0.001240366               0.000000000               0.000000000               0.000000000               0.000000000               0.000353584               0.004739428               0.000093585              -0.000459833               0.001733071               0.001273238               0.000000000               0.000000000               0.000000000               0.000000000               0.000449765               0.004760037               0.000046959              -0.000426342               0.001728777               0.001302435               0.000000000               0.000000000               0.000000000               0.000000000               0.000481462               0.004853326               0.000016327              -0.000426116               0.001759798               0.001333682               0.000000000               0.000000000               0.000000000               0.000000000               0.000470866               0.004917168               0.000002540              -0.000438070               0.001785063               0.001346993               0.000000000               0.000000000               0.000000000               0.000000000              -0.004174217               0.002089096               0.000058389              -0.001826465               0.001305178              -0.000521287               0.000000000               0.000000000               0.000000000               0.000000000              -0.004289803               0.003985599               0.001042437              -0.002106871               0.002030809              -0.000076062               0.000000000               0.000000000               0.000000000               0.000000000              -0.004655590               0.005760297               0.001786466              -0.002465878               0.002742039               0.000276161               0.000000000               0.000000000               0.000000000               0.000000000              -0.004289172               0.006321609               0.001758286              -0.002398635               0.002906727               0.000508091               0.000000000               0.000000000               0.000000000               0.000000000              -0.003741840               0.006411740               0.001573346              -0.002204652               0.002872109               0.000667457               0.000000000               0.000000000               0.000000000               0.000000000              -0.003164869               0.006314909               0.001376918              -0.001976185               0.002763677               0.000787492               0.000000000               0.000000000               0.000000000               0.000000000              -0.002582269               0.006142833               0.001197412              -0.001736201               0.002626324               0.000890123               0.000000000               0.000000000               0.000000000               0.000000000              -0.002010905               0.005936584               0.001032111              -0.001496159               0.002477561               0.000981402               0.000000000               0.000000000               0.000000000               0.000000000              -0.001466935               0.005709747               0.000880050              -0.001263816               0.002324502               0.001060686               0.000000000               0.000000000               0.000000000               0.000000000              -0.000959245               0.005480687               0.000743542              -0.001044800               0.002175144               0.001130344               0.000000000               0.000000000               0.000000000               0.000000000              -0.000495169               0.005268926               0.000613809              -0.000844302               0.002037725               0.001193423               0.000000000               0.000000000               0.000000000               0.000000000              -0.000086074               0.005098164               0.000486333              -0.000669547               0.001922553               0.001253006               0.000000000               0.000000000               0.000000000               0.000000000               0.000256022               0.004972190               0.000361436              -0.000525514               0.001832552               0.001307037               0.000000000               0.000000000               0.000000000               0.000000000               0.000519993               0.004893786               0.000241113              -0.000416725               0.001770154               0.001353429               0.000000000               0.000000000               0.000000000               0.000000000               0.000696923               0.004868369               0.000135330              -0.000347199               0.001738507               0.001391307               0.000000000               0.000000000               0.000000000               0.000000000               0.000794865               0.004908915               0.000054239              -0.000315539               0.001741468               0.001425929               0.000000000               0.000000000               0.000000000               0.000000000               0.000819449               0.004947812               0.000019207              -0.000311182               0.001752982               0.001441799               0.000000000               0.000000000               0.000000000               0.000000000              -0.006160773               0.000746948              -0.000657641              -0.002403656               0.001050194              -0.001353462               0.000000000               0.000000000               0.000000000               0.000000000              -0.005291440               0.002639183               0.000785654              -0.002314184               0.001651111              -0.000663073               0.000000000               0.000000000               0.000000000               0.000000000              -0.004946809               0.004360460               0.001977691              -0.002400106               0.002253506              -0.000146600               0.000000000               0.000000000               0.000000000               0.000000000              -0.004374174               0.005154779               0.002130765              -0.002284657               0.002479794               0.000195137               0.000000000               0.000000000               0.000000000               0.000000000              -0.003762914               0.005504005               0.001999274              -0.002099089               0.002534346               0.000435257               0.000000000               0.000000000               0.000000000               0.000000000              -0.003169510               0.005636930               0.001805558              -0.001893178               0.002510017               0.000616839               0.000000000               0.000000000               0.000000000               0.000000000              -0.002588593               0.005660946               0.001612728              -0.001678337               0.002446408               0.000768071               0.000000000               0.000000000               0.000000000               0.000000000              -0.002017371               0.005615555               0.001428550              -0.001458455               0.002357984               0.000899529               0.000000000               0.000000000               0.000000000               0.000000000              -0.001464146               0.005526045               0.001253467              -0.001239808               0.002255265               0.001015458               0.000000000               0.000000000               0.000000000               0.000000000              -0.000942635               0.005414429               0.001091038              -0.001030290               0.002148221               0.001117932               0.000000000               0.000000000               0.000000000               0.000000000              -0.000452048               0.005290630               0.000937957              -0.000830845               0.002040474               0.001209629               0.000000000               0.000000000               0.000000000               0.000000000               0.000004512               0.005165288               0.000788229              -0.000643968               0.001936401               0.001292434               0.000000000               0.000000000               0.000000000               0.000000000               0.000407824               0.005049599               0.000632494              -0.000478265               0.001842604               0.001364339               0.000000000               0.000000000               0.000000000               0.000000000               0.000745884               0.004970262               0.000467375              -0.000341576               0.001770596               0.001429020               0.000000000               0.000000000               0.000000000               0.000000000               0.000999984               0.004933466               0.000299152              -0.000241689               0.001725035               0.001483346               0.000000000               0.000000000               0.000000000               0.000000000               0.001156829               0.004948141               0.000142695              -0.000184706               0.001710932               0.001526226               0.000000000               0.000000000               0.000000000               0.000000000               0.001204549               0.004968208               0.000068521              -0.000169320               0.001712493               0.001543173               0.000000000               0.000000000               0.000000000               0.000000000              -0.008240845              -0.000211684              -0.001151891              -0.003063854               0.000950717              -0.002113137               0.000000000               0.000000000               0.000000000               0.000000000              -0.006363797               0.001445223               0.000505490              -0.002567074               0.001337423              -0.001229651               0.000000000               0.000000000               0.000000000               0.000000000              -0.005201949               0.002899889               0.001944651              -0.002313213               0.001737688              -0.000575525               0.000000000               0.000000000               0.000000000               0.000000000              -0.004347870               0.003801614               0.002256068              -0.002105649               0.001969073              -0.000136575               0.000000000               0.000000000               0.000000000               0.000000000              -0.003641689               0.004349660               0.002205830              -0.001909337               0.002086317               0.000176980               0.000000000               0.000000000               0.000000000               0.000000000              -0.003015105               0.004691992               0.002050455              -0.001717160               0.002136367               0.000419208               0.000000000               0.000000000               0.000000000               0.000000000              -0.002428885               0.004911665               0.001873785              -0.001524787               0.002145467               0.000620680               0.000000000               0.000000000               0.000000000               0.000000000              -0.001870754               0.005039119               0.001694662              -0.001331420               0.002123496               0.000792076               0.000000000               0.000000000               0.000000000               0.000000000              -0.001324949               0.005104698               0.001518390              -0.001134941               0.002079862               0.000944921               0.000000000               0.000000000               0.000000000               0.000000000              -0.000794129               0.005128081               0.001352821              -0.000938807               0.002022279               0.001083472               0.000000000               0.000000000               0.000000000               0.000000000              -0.000282778               0.005114113               0.001199677              -0.000745305               0.001953122               0.001207817               0.000000000               0.000000000               0.000000000               0.000000000               0.000206507               0.005071943               0.001045569              -0.000556552               0.001876148               0.001319596               0.000000000               0.000000000               0.000000000               0.000000000               0.000663845               0.005020379               0.000879408              -0.000378605               0.001799645               0.001421039               0.000000000               0.000000000               0.000000000               0.000000000               0.001072505               0.004979664               0.000691541              -0.000220268               0.001733294               0.001513026               0.000000000               0.000000000               0.000000000               0.000000000               0.001410515               0.004958132               0.000479391              -0.000090823               0.001682969               0.001592145               0.000000000               0.000000000               0.000000000               0.000000000               0.001654096               0.004968052               0.000248537              -0.000000721               0.001656241               0.001655520               0.000000000               0.000000000               0.000000000               0.000000000               0.001754971               0.004984397               0.000131800               0.000035064               0.001649761               0.001684825               0.000000000               0.000000000               0.000000000               0.000000000              -0.010213566              -0.000791955              -0.001329022              -0.003731090               0.000979705              -0.002751386               0.000000000               0.000000000               0.000000000               0.000000000              -0.007411849               0.000483349               0.000257494              -0.002839859               0.001107729              -0.001732131               0.000000000               0.000000000               0.000000000               0.000000000              -0.005430071               0.001532625               0.001685223              -0.002227852               0.001253483              -0.000974369               0.000000000               0.000000000               0.000000000               0.000000000              -0.004243224               0.002422623               0.002076672              -0.001894034               0.001438875              -0.000455159               0.000000000               0.000000000               0.000000000               0.000000000              -0.003406043               0.003089996               0.002101043              -0.001663512               0.001584491              -0.000079021               0.000000000               0.000000000               0.000000000               0.000000000              -0.002734127               0.003591468               0.002003554              -0.001474228               0.001688552               0.000214324               0.000000000               0.000000000               0.000000000               0.000000000              -0.002138905               0.003980433               0.001864201              -0.001299641               0.001760011               0.000460370               0.000000000               0.000000000               0.000000000               0.000000000              -0.001589699               0.004276193               0.001710424              -0.001130659               0.001802269               0.000671610               0.000000000               0.000000000               0.000000000               0.000000000              -0.001058125               0.004497176               0.001559016              -0.000958942               0.001818691               0.000859748               0.000000000               0.000000000               0.000000000               0.000000000              -0.000530660               0.004656738               0.001415249              -0.000781089               0.001812593               0.001031504               0.000000000               0.000000000               0.000000000               0.000000000              -0.000010621               0.004765489               0.001281308              -0.000599668               0.001788370               0.001188701               0.000000000               0.000000000               0.000000000               0.000000000               0.000503604               0.004838407               0.001146499              -0.000415949               0.001751436               0.001335487               0.000000000               0.000000000               0.000000000               0.000000000               0.001011619               0.004885643               0.000993892              -0.000231348               0.001705648               0.001474299               0.000000000               0.000000000               0.000000000               0.000000000               0.001500973               0.004916777               0.000809470              -0.000051733               0.001656153               0.001604421               0.000000000               0.000000000               0.000000000               0.000000000               0.001954789               0.004938243               0.000586599               0.000115764               0.001607477               0.001723241               0.000000000               0.000000000               0.000000000               0.000000000               0.002351205               0.004965067               0.000317238               0.000261066               0.001567984               0.001829050               0.000000000               0.000000000               0.000000000               0.000000000               0.002577234               0.005000419               0.000179741               0.000341407               0.001552987               0.001894394               0.000000000               0.000000000               0.000000000               0.000000000              -0.011868620              -0.001084096              -0.001148946              -0.004315218               0.001077033              -0.003238185               0.000000000               0.000000000               0.000000000               0.000000000              -0.008315821              -0.000211762               0.000089396              -0.003091960               0.000960060              -0.002131901               0.000000000               0.000000000               0.000000000               0.000000000              -0.005622925               0.000411213               0.001234704              -0.002159996               0.000857064              -0.001302933               0.000000000               0.000000000               0.000000000               0.000000000              -0.004114051               0.001217891               0.001595451              -0.001695003               0.000970957              -0.000724046               0.000000000               0.000000000               0.000000000               0.000000000              -0.003133189               0.001940803               0.001655029              -0.001417544               0.001119441              -0.000298103               0.000000000               0.000000000               0.000000000               0.000000000              -0.002404937               0.002546810               0.001608289              -0.001220200               0.001255660               0.000035460               0.000000000               0.000000000               0.000000000               0.000000000              -0.001799517               0.003057907               0.001517302              -0.001057055               0.001371643               0.000314588               0.000000000               0.000000000               0.000000000               0.000000000              -0.001250423               0.003488120               0.001407664              -0.000904922               0.001464335               0.000559413               0.000000000               0.000000000               0.000000000               0.000000000              -0.000728299               0.003839454               0.001297074              -0.000753043               0.001530819               0.000777777               0.000000000               0.000000000               0.000000000               0.000000000              -0.000213026               0.004122616               0.001190444              -0.000595211               0.001572595               0.000977384               0.000000000               0.000000000               0.000000000               0.000000000               0.000307110               0.004351492               0.001091967              -0.000428770               0.001593406               0.001164636               0.000000000               0.000000000               0.000000000               0.000000000               0.000840066               0.004536182               0.000994347              -0.000251998               0.001596045               0.001344047               0.000000000               0.000000000               0.000000000               0.000000000               0.001388558               0.004680749               0.000880110              -0.000064385               0.001581696               0.001517311               0.000000000               0.000000000               0.000000000               0.000000000               0.001957654               0.004794540               0.000734158               0.000134801               0.001553230               0.001688032               0.000000000               0.000000000               0.000000000               0.000000000               0.002544753               0.004880310               0.000547135               0.000344240               0.001512007               0.001856247               0.000000000               0.000000000               0.000000000               0.000000000               0.003145228               0.004945942               0.000303432               0.000561212               0.001461560               0.002022772               0.000000000               0.000000000               0.000000000               0.000000000               0.003554740               0.005014856               0.000179570               0.000706163               0.001436214               0.002142378               0.000000000               0.000000000               0.000000000               0.000000000              -0.012979629              -0.001206381              -0.000665518              -0.004716560               0.001170052              -0.003546509               0.000000000               0.000000000               0.000000000               0.000000000              -0.008938742              -0.000633091               0.000011923              -0.003272890               0.000879927              -0.002392963               0.000000000               0.000000000               0.000000000               0.000000000              -0.005758084              -0.000319524               0.000649993              -0.002119340               0.000599934              -0.001519405               0.000000000               0.000000000               0.000000000               0.000000000              -0.004018570               0.000399501               0.000866640              -0.001556900               0.000652129              -0.000904771               0.000000000               0.000000000               0.000000000               0.000000000              -0.002922526               0.001129989               0.000913746              -0.001237194               0.000789055              -0.000448139               0.000000000               0.000000000               0.000000000               0.000000000              -0.002140127               0.001790927               0.000899632              -0.001026411               0.000939106              -0.000087305               0.000000000               0.000000000               0.000000000               0.000000000              -0.001520367               0.002375727               0.000857335              -0.000867102               0.001080935               0.000213833               0.000000000               0.000000000               0.000000000               0.000000000              -0.000975060               0.002885840               0.000801176              -0.000726376               0.001204062               0.000477686               0.000000000               0.000000000               0.000000000               0.000000000              -0.000462720               0.003320635               0.000741819              -0.000588598               0.001303066               0.000714468               0.000000000               0.000000000               0.000000000               0.000000000               0.000044216               0.003690057               0.000683134              -0.000444675               0.001378232               0.000933556               0.000000000               0.000000000               0.000000000               0.000000000               0.000562390               0.004006309               0.000630939              -0.000289892               0.001432053               0.001142161               0.000000000               0.000000000               0.000000000               0.000000000               0.001102774               0.004276987               0.000580358              -0.000121083               0.001466009               0.001344926               0.000000000               0.000000000               0.000000000               0.000000000               0.001676824               0.004504099               0.000520449               0.000065796               0.001479420               0.001545215               0.000000000               0.000000000               0.000000000               0.000000000               0.002301689               0.004688122               0.000442094               0.000277115               0.001470320               0.001747435               0.000000000               0.000000000               0.000000000               0.000000000               0.002994090               0.004828398               0.000337393               0.000519229               0.001436373               0.001955602               0.000000000               0.000000000               0.000000000               0.000000000               0.003771184               0.004927250               0.000192420               0.000798280               0.001376307               0.002174587               0.000000000               0.000000000               0.000000000               0.000000000               0.004351515               0.005025813               0.000118651               0.001003581               0.001340727               0.002344309               0.000000000               0.000000000               0.000000000               0.000000000              -0.013370291              -0.001234846              -0.000000000              -0.004859500               0.001208210              -0.003651290               0.000000000               0.000000000               0.000000000               0.000000000              -0.009162389              -0.000771651              -0.000000000              -0.003339437               0.000855923              -0.002483514               0.000000000               0.000000000               0.000000000               0.000000000              -0.005808593              -0.000572754               0.000000000              -0.002106627               0.000511288              -0.001595339               0.000000000               0.000000000               0.000000000               0.000000000              -0.003985369               0.000107141               0.000000000              -0.001507905               0.000538345              -0.000969560               0.000000000               0.000000000               0.000000000               0.000000000              -0.002840510               0.000838513              -0.000000000              -0.001170004               0.000669501              -0.000500503               0.000000000               0.000000000               0.000000000               0.000000000              -0.002035135               0.001517369              -0.000000000              -0.000952845               0.000823399              -0.000129446               0.000000000               0.000000000               0.000000000               0.000000000              -0.001410840               0.002124402               0.000000000              -0.000794613               0.000972998               0.000178385               0.000000000               0.000000000               0.000000000               0.000000000              -0.000870045               0.002660750              -0.000000000              -0.000658859               0.001106527               0.000447668               0.000000000               0.000000000               0.000000000               0.000000000              -0.000363580               0.003122338               0.000000000              -0.000526633               0.001216313               0.000689680               0.000000000               0.000000000               0.000000000               0.000000000               0.000140002               0.003519048               0.000000000              -0.000387380               0.001302131               0.000914751               0.000000000               0.000000000               0.000000000               0.000000000               0.000658942               0.003869492              -0.000000000              -0.000236583               0.001368679               0.001132096               0.000000000               0.000000000               0.000000000               0.000000000               0.001200238               0.004178486              -0.000000000              -0.000072222               0.001416889               0.001344667               0.000000000               0.000000000               0.000000000               0.000000000               0.001783110               0.004444028              -0.000000000               0.000113162               0.001443607               0.001556769               0.000000000               0.000000000               0.000000000               0.000000000               0.002427912               0.004657217               0.000000000               0.000328311               0.001442953               0.001771264               0.000000000               0.000000000               0.000000000               0.000000000               0.003159887               0.004814907              -0.000000000               0.000583088               0.001410590               0.001993678               0.000000000               0.000000000               0.000000000               0.000000000               0.004006446               0.004922739              -0.000000000               0.000887066               0.001345208               0.002232274               0.000000000               0.000000000               0.000000000               0.000000000               0.004657532               0.005032315               0.000000000               0.001117524               0.001304914               0.002422438               0.000000000               0.000000000               0.000000000               0.000000000               0.001968270               0.021100463              -0.000000000              -0.001899452               0.007666568               0.005767116               0.000000000               0.000000000               0.000000000               0.000000000               0.001870536               0.016157413              -0.000000000              -0.001318222               0.005825158               0.004506936               0.000000000               0.000000000               0.000000000               0.000000000               0.002387276               0.012115574               0.000000000              -0.000619217               0.004244890               0.003625673               0.000000000               0.000000000               0.000000000               0.000000000               0.002187294               0.009816478               0.000000000              -0.000406824               0.003407735               0.003000911               0.000000000               0.000000000               0.000000000               0.000000000               0.001798110               0.008361002               0.000000000              -0.000370833               0.002910584               0.002539751               0.000000000               0.000000000               0.000000000               0.000000000               0.001395869               0.007338354              -0.000000000              -0.000393843               0.002577375               0.002183532               0.000000000               0.000000000               0.000000000               0.000000000               0.001048444               0.006546945              -0.000000000              -0.000425201               0.002324027               0.001898826               0.000000000               0.000000000               0.000000000               0.000000000               0.000758085               0.005877684               0.000000000              -0.000450428               0.002109351               0.001658923               0.000000000               0.000000000               0.000000000               0.000000000               0.000518556               0.005279805              -0.000000000              -0.000465516               0.001915089               0.001449573               0.000000000               0.000000000               0.000000000               0.000000000               0.000332967               0.004723762              -0.000000000              -0.000465607               0.001729774               0.001264167               0.000000000               0.000000000               0.000000000               0.000000000               0.000190294               0.004181524              -0.000000000              -0.000451329               0.001544270               0.001092941               0.000000000               0.000000000               0.000000000               0.000000000               0.000080569               0.003633130               0.000000000              -0.000423927               0.001352340               0.000928413               0.000000000               0.000000000               0.000000000               0.000000000               0.000002854               0.003063837               0.000000000              -0.000381908               0.001148571               0.000766663               0.000000000               0.000000000               0.000000000               0.000000000              -0.000047317               0.002456509               0.000000000              -0.000324807               0.000927097               0.000602290               0.000000000               0.000000000               0.000000000               0.000000000              -0.000062721               0.001794910               0.000000000              -0.000247884               0.000680925               0.000433041               0.000000000               0.000000000               0.000000000               0.000000000              -0.000038728               0.001052750               0.000000000              -0.000146117               0.000399619               0.000253502               0.000000000               0.000000000               0.000000000               0.000000000              -0.000078805               0.000484792               0.000000000              -0.000090151               0.000191646               0.000101495               0.000000000               0.000000000               0.000000000               0.000000000               0.002028423               0.020648919              -0.001400127              -0.001820452               0.007489722               0.005669270               0.000000000               0.000000000               0.000000000               0.000000000               0.001814007               0.015868504              -0.000626978              -0.001303307               0.005723884               0.004420577               0.000000000               0.000000000               0.000000000               0.000000000               0.002205130               0.012003322               0.000134449              -0.000673490               0.004225564               0.003552074               0.000000000               0.000000000               0.000000000               0.000000000               0.001957304               0.009798289               0.000448352              -0.000490796               0.003429663               0.002938866               0.000000000               0.000000000               0.000000000               0.000000000               0.001560785               0.008384718               0.000572549              -0.000462794               0.002949143               0.002486348               0.000000000               0.000000000               0.000000000               0.000000000               0.001168440               0.007386104               0.000607178              -0.000485097               0.002623709               0.002138612               0.000000000               0.000000000               0.000000000               0.000000000               0.000832527               0.006607289               0.000596546              -0.000513712               0.002373645               0.001859933               0.000000000               0.000000000               0.000000000               0.000000000               0.000563219               0.005946988               0.000568461              -0.000532165               0.002159698               0.001627533               0.000000000               0.000000000               0.000000000               0.000000000               0.000352737               0.005353087               0.000537855              -0.000536858               0.001963297               0.001426439               0.000000000               0.000000000               0.000000000               0.000000000               0.000192419               0.004794829               0.000506370              -0.000527195               0.001773992               0.001246797               0.000000000               0.000000000               0.000000000               0.000000000               0.000074582               0.004253594               0.000473137              -0.000503730               0.001585760               0.001082030               0.000000000               0.000000000               0.000000000               0.000000000              -0.000012424               0.003712272               0.000436332              -0.000468692               0.001393642               0.000924950               0.000000000               0.000000000               0.000000000               0.000000000              -0.000070645               0.003155321               0.000391214              -0.000420906               0.001192065               0.000771159               0.000000000               0.000000000               0.000000000               0.000000000              -0.000099231               0.002567955               0.000333750              -0.000358205               0.000975378               0.000617173               0.000000000               0.000000000               0.000000000               0.000000000              -0.000093308               0.001937603               0.000255756              -0.000277190               0.000738258               0.000461067               0.000000000               0.000000000               0.000000000               0.000000000              -0.000052753               0.001248728               0.000144320              -0.000175873               0.000474863               0.000298990               0.000000000               0.000000000               0.000000000               0.000000000              -0.000080490               0.000734610               0.000089743              -0.000122010               0.000285537               0.000163528               0.000000000               0.000000000               0.000000000               0.000000000               0.002162481               0.019353908              -0.002580733              -0.001608305               0.006987340               0.005379034               0.000000000               0.000000000               0.000000000               0.000000000               0.001626981               0.015053200              -0.001145771              -0.001271529               0.005441526               0.004169997               0.000000000               0.000000000               0.000000000               0.000000000               0.001678486               0.011687360               0.000253023              -0.000831486               0.004172910               0.003341424               0.000000000               0.000000000               0.000000000               0.000000000               0.001312412               0.009733954               0.000807129              -0.000724588               0.003486148               0.002761560               0.000000000               0.000000000               0.000000000               0.000000000               0.000900628               0.008443673               0.001015788              -0.000717722               0.003053770               0.002336048               0.000000000               0.000000000               0.000000000               0.000000000               0.000540496               0.007505180               0.001066714              -0.000735460               0.002746855               0.002011395               0.000000000               0.000000000               0.000000000               0.000000000               0.000258613               0.006755873               0.001040110              -0.000747503               0.002501103               0.001753600               0.000000000               0.000000000               0.000000000               0.000000000               0.000051863               0.006109445               0.000986902              -0.000744231               0.002284538               0.001540308               0.000000000               0.000000000               0.000000000               0.000000000              -0.000089913               0.005522914               0.000926462              -0.000724080               0.002082313               0.001358233               0.000000000               0.000000000               0.000000000               0.000000000              -0.000181115               0.004967229               0.000864371              -0.000688820               0.001885333               0.001196513               0.000000000               0.000000000               0.000000000               0.000000000              -0.000233235               0.004431123               0.000801978              -0.000641352               0.001690810               0.001049458               0.000000000               0.000000000               0.000000000               0.000000000              -0.000254919               0.003904918               0.000732325              -0.000583708               0.001496196               0.000912487               0.000000000               0.000000000               0.000000000               0.000000000              -0.000249502               0.003376572               0.000647337              -0.000515634               0.001297390               0.000781757               0.000000000               0.000000000               0.000000000               0.000000000              -0.000217027               0.002838020               0.000541568              -0.000436137               0.001091376               0.000655239               0.000000000               0.000000000               0.000000000               0.000000000              -0.000159308               0.002288371               0.000405060              -0.000345786               0.000878045               0.000532259               0.000000000               0.000000000               0.000000000               0.000000000              -0.000083347               0.001731923               0.000223969              -0.000247745               0.000659883               0.000412138               0.000000000               0.000000000               0.000000000               0.000000000              -0.000083665               0.001346578               0.000136772              -0.000199696               0.000515420               0.000315724               0.000000000               0.000000000               0.000000000               0.000000000               0.002262269               0.017384949              -0.003388136              -0.001324767               0.006236513               0.004911747               0.000000000               0.000000000               0.000000000               0.000000000               0.001283048               0.013838500              -0.001497245              -0.001248667               0.005029009               0.003780342               0.000000000               0.000000000               0.000000000               0.000000000               0.000869846               0.011217985               0.000316985              -0.001076053               0.004097975               0.003021922               0.000000000               0.000000000               0.000000000               0.000000000               0.000372723               0.009613758               0.000990318              -0.001061946               0.003558536               0.002496590               0.000000000               0.000000000               0.000000000               0.000000000              -0.000030453               0.008493497               0.001221740              -0.001073105               0.003188839               0.002115734               0.000000000               0.000000000               0.000000000               0.000000000              -0.000320769               0.007627222               0.001267500              -0.001073689               0.002900278               0.001826589               0.000000000               0.000000000               0.000000000               0.000000000              -0.000502089               0.006907991               0.001224301              -0.001051780               0.002653234               0.001601454               0.000000000               0.000000000               0.000000000               0.000000000              -0.000603403               0.006274753               0.001151812              -0.001010618               0.002428436               0.001417818               0.000000000               0.000000000               0.000000000               0.000000000              -0.000650671               0.005694458               0.001071502              -0.000955807               0.002216736               0.001260929               0.000000000               0.000000000               0.000000000               0.000000000              -0.000652988               0.005148215               0.000988076              -0.000888396               0.002012186               0.001123791               0.000000000               0.000000000               0.000000000               0.000000000              -0.000616041               0.004626683               0.000906358              -0.000809349               0.001811995               0.001002646               0.000000000               0.000000000               0.000000000               0.000000000              -0.000548031               0.004120246               0.000817605              -0.000720541               0.001613582               0.000893041               0.000000000               0.000000000               0.000000000               0.000000000              -0.000454199               0.003628584               0.000710480              -0.000623896               0.001417481               0.000793585               0.000000000               0.000000000               0.000000000               0.000000000              -0.000342828               0.003156535               0.000580209              -0.000523126               0.001226543               0.000703417               0.000000000               0.000000000               0.000000000               0.000000000              -0.000222030               0.002714141               0.000420597              -0.000422528               0.001045547               0.000623019               0.000000000               0.000000000               0.000000000               0.000000000              -0.000105065               0.002320291               0.000225917              -0.000329435               0.000883234               0.000553799               0.000000000               0.000000000               0.000000000               0.000000000              -0.000076491               0.002079120               0.000133725              -0.000288573               0.000789224               0.000500651               0.000000000               0.000000000               0.000000000               0.000000000               0.002196667               0.014986499              -0.003748424              -0.001049562               0.005345303               0.004295741               0.000000000               0.000000000               0.000000000               0.000000000               0.000762910               0.012387074              -0.001668522              -0.001262291               0.004549747               0.003287456               0.000000000               0.000000000               0.000000000               0.000000000              -0.000129135               0.010652115               0.000287262              -0.001379937               0.004010648               0.002630712               0.000000000               0.000000000               0.000000000               0.000000000              -0.000705882               0.009430188               0.000954177              -0.001443476               0.003624523               0.002181047               0.000000000               0.000000000               0.000000000               0.000000000              -0.001039669               0.008476952               0.001161457              -0.001449492               0.003308786               0.001859295               0.000000000               0.000000000               0.000000000               0.000000000              -0.001205978               0.007677799               0.001192398              -0.001411963               0.003029895               0.001617931               0.000000000               0.000000000               0.000000000               0.000000000              -0.001254237               0.006984061               0.001144224              -0.001343344               0.002775778               0.001432435               0.000000000               0.000000000               0.000000000               0.000000000              -0.001226395               0.006367359               0.001067266              -0.001255815               0.002541037               0.001285222               0.000000000               0.000000000               0.000000000               0.000000000              -0.001155383               0.005800509               0.000982214              -0.001158330               0.002319593               0.001161264               0.000000000               0.000000000               0.000000000               0.000000000              -0.001049182               0.005270218               0.000896597              -0.001052218               0.002107461               0.001055243               0.000000000               0.000000000               0.000000000               0.000000000              -0.000910749               0.004768942               0.000813302              -0.000937647               0.001902180               0.000964534               0.000000000               0.000000000               0.000000000               0.000000000              -0.000749573               0.004294980               0.000723044              -0.000817960               0.001704299               0.000886339               0.000000000               0.000000000               0.000000000               0.000000000              -0.000575022               0.003857344               0.000617346              -0.000697800               0.001518368               0.000820569               0.000000000               0.000000000               0.000000000               0.000000000              -0.000399314               0.003469123               0.000489140              -0.000583382               0.001350823               0.000767442               0.000000000               0.000000000               0.000000000               0.000000000              -0.000237007               0.003142288               0.000339683              -0.000481662               0.001207973               0.000726310               0.000000000               0.000000000               0.000000000               0.000000000              -0.000103829               0.002897265               0.000175092              -0.000401093               0.001099443               0.000698350               0.000000000               0.000000000               0.000000000               0.000000000              -0.000058321               0.002777816               0.000096761              -0.000369096               0.001048962               0.000679865               0.000000000               0.000000000               0.000000000               0.000000000               0.001847701               0.012407633              -0.003674174              -0.000858067               0.004421858               0.003563791               0.000000000               0.000000000               0.000000000               0.000000000               0.000064303               0.010855412              -0.001689090              -0.001332810               0.004062704               0.002729894               0.000000000               0.000000000               0.000000000               0.000000000              -0.001209127               0.010031724               0.000143721              -0.001707384               0.003913003               0.002205619               0.000000000               0.000000000               0.000000000               0.000000000              -0.001764244               0.009163915               0.000716180              -0.001807076               0.003656966               0.001849890               0.000000000               0.000000000               0.000000000               0.000000000              -0.001961876               0.008351163               0.000881286              -0.001779595               0.003376891               0.001597297               0.000000000               0.000000000               0.000000000               0.000000000              -0.001961971               0.007611762               0.000905872              -0.001687205               0.003099630               0.001412425               0.000000000               0.000000000               0.000000000               0.000000000              -0.001850205               0.006949957               0.000871526              -0.001562568               0.002837485               0.001274917               0.000000000               0.000000000               0.000000000               0.000000000              -0.001685010               0.006355740               0.000810117              -0.001426343               0.002594006               0.001167664               0.000000000               0.000000000               0.000000000               0.000000000              -0.001489806               0.005809588               0.000739277              -0.001284873               0.002364801               0.001079928               0.000000000               0.000000000               0.000000000               0.000000000              -0.001265645               0.005303588               0.000667030              -0.001137563               0.002147032               0.001009470               0.000000000               0.000000000               0.000000000               0.000000000              -0.001025567               0.004834529               0.000596828              -0.000988901               0.001941127               0.000952226               0.000000000               0.000000000               0.000000000               0.000000000              -0.000783050               0.004412237               0.000520519              -0.000845171               0.001752455               0.000907283               0.000000000               0.000000000               0.000000000               0.000000000              -0.000550581               0.004048906               0.000430076              -0.000712579               0.001587148               0.000874569               0.000000000               0.000000000               0.000000000               0.000000000              -0.000342803               0.003753801               0.000321203              -0.000597775               0.001450513               0.000852738               0.000000000               0.000000000               0.000000000               0.000000000              -0.000176436               0.003533532               0.000201540              -0.000507854               0.001347117               0.000839263               0.000000000               0.000000000               0.000000000               0.000000000              -0.000065821               0.003401599               0.000091743              -0.000449882               0.001283815               0.000833934               0.000000000               0.000000000               0.000000000               0.000000000              -0.000025681               0.003364235               0.000042358              -0.000430159               0.001264786               0.000834628               0.000000000               0.000000000               0.000000000               0.000000000               0.001153754               0.009863571              -0.003244699              -0.000800289               0.003554586               0.002754297               0.000000000               0.000000000               0.000000000               0.000000000              -0.000777931               0.009367788              -0.001611750              -0.001462695               0.003610129               0.002147434               0.000000000               0.000000000               0.000000000               0.000000000              -0.002251223               0.009374906              -0.000116314              -0.002016067               0.003796960               0.001780893               0.000000000               0.000000000               0.000000000               0.000000000              -0.002670355               0.008791829               0.000322887              -0.002100357               0.003630699               0.001530343               0.000000000               0.000000000               0.000000000               0.000000000              -0.002671567               0.008097498               0.000457086              -0.002014020               0.003370479               0.001356459               0.000000000               0.000000000               0.000000000               0.000000000              -0.002482657               0.007425349               0.000494930              -0.001859160               0.003094812               0.001235651               0.000000000               0.000000000               0.000000000               0.000000000              -0.002208313               0.006807506               0.000491105              -0.001679052               0.002828830               0.001149778               0.000000000               0.000000000               0.000000000               0.000000000              -0.001905995               0.006245483               0.000463276              -0.001495430               0.002580283               0.001084854               0.000000000               0.000000000               0.000000000               0.000000000              -0.001589787               0.005728750               0.000424854              -0.001312261               0.002346984               0.001034724               0.000000000               0.000000000               0.000000000               0.000000000              -0.001266180               0.005258058               0.000382272              -0.001132072               0.002130026               0.000997954               0.000000000               0.000000000               0.000000000               0.000000000              -0.000949177               0.004844207               0.000337109              -0.000961465               0.001935208               0.000973743               0.000000000               0.000000000               0.000000000               0.000000000              -0.000657837               0.004494822               0.000286219              -0.000808540               0.001767772               0.000959233               0.000000000               0.000000000               0.000000000               0.000000000              -0.000403693               0.004217499               0.000223206              -0.000678571               0.001632009               0.000953438               0.000000000               0.000000000               0.000000000               0.000000000              -0.000200480               0.004012899               0.000146312              -0.000576791               0.001529883               0.000953092               0.000000000               0.000000000               0.000000000               0.000000000              -0.000068120               0.003885256               0.000069386              -0.000511201               0.001465472               0.000954272               0.000000000               0.000000000               0.000000000               0.000000000              -0.000010008               0.003839331               0.000019464              -0.000483668               0.001440987               0.000957319               0.000000000               0.000000000               0.000000000               0.000000000               0.000006332               0.003847500               0.000001454              -0.000478562               0.001442008               0.000963446               0.000000000               0.000000000               0.000000000               0.000000000               0.000149728               0.007521831              -0.002560910              -0.000884081               0.002801945               0.001917864               0.000000000               0.000000000               0.000000000               0.000000000              -0.001711864               0.008009023              -0.001488936              -0.001643074               0.003217339               0.001574265               0.000000000               0.000000000               0.000000000               0.000000000              -0.003149218               0.008681810              -0.000484895              -0.002266177               0.003649300               0.001383123               0.000000000               0.000000000               0.000000000               0.000000000              -0.003330047               0.008316693              -0.000162325              -0.002288348               0.003534986               0.001246638               0.000000000               0.000000000               0.000000000               0.000000000              -0.003108326               0.007735858              -0.000025771              -0.002132599               0.003289460               0.001156861               0.000000000               0.000000000               0.000000000               0.000000000              -0.002736951               0.007142970               0.000044524              -0.001919223               0.003020707               0.001101484               0.000000000               0.000000000               0.000000000               0.000000000              -0.002313199               0.006584363               0.000085173              -0.001690491               0.002758263               0.001067772               0.000000000               0.000000000               0.000000000               0.000000000              -0.001884420               0.006065669               0.000107214              -0.001464862               0.002510157               0.001045295               0.000000000               0.000000000               0.000000000               0.000000000              -0.001465981               0.005592036               0.000113256              -0.001248744               0.002280241               0.001031497               0.000000000               0.000000000               0.000000000               0.000000000              -0.001069232               0.005175864               0.000111627              -0.001047943               0.002074585               0.001026642               0.000000000               0.000000000               0.000000000               0.000000000              -0.000710281               0.004833215               0.000105196              -0.000870505               0.001901224               0.001030719               0.000000000               0.000000000               0.000000000               0.000000000              -0.000405439               0.004568221               0.000090210              -0.000723066               0.001763747               0.001040681               0.000000000               0.000000000               0.000000000               0.000000000              -0.000167239               0.004380464               0.000062874              -0.000610271               0.001663564               0.001053293               0.000000000               0.000000000               0.000000000               0.000000000              -0.000006390               0.004273515               0.000024041              -0.000536584               0.001603352               0.001066768               0.000000000               0.000000000               0.000000000               0.000000000               0.000069010               0.004247041              -0.000007561              -0.000505000               0.001584000               0.001078999               0.000000000               0.000000000               0.000000000               0.000000000               0.000061886               0.004280947              -0.000016142              -0.000511910               0.001597605               0.001085695               0.000000000               0.000000000               0.000000000               0.000000000               0.000041596               0.004325186              -0.000018869              -0.000525049               0.001616730               0.001091682               0.000000000               0.000000000               0.000000000               0.000000000              -0.001043818               0.005554238              -0.001741151              -0.001085710               0.002213297               0.001127587               0.000000000               0.000000000               0.000000000               0.000000000              -0.002631665               0.006798358              -0.001364007              -0.001836665               0.002878318               0.001041653               0.000000000               0.000000000               0.000000000               0.000000000              -0.003860201               0.007990984              -0.000931621              -0.002446442               0.003479115               0.001032673               0.000000000               0.000000000               0.000000000               0.000000000              -0.003778129               0.007859860              -0.000679867              -0.002399275               0.003419685               0.001020410               0.000000000               0.000000000               0.000000000               0.000000000              -0.003370894               0.007418264              -0.000515003              -0.002191363               0.003203184               0.001011821               0.000000000               0.000000000               0.000000000               0.000000000              -0.002854581               0.006925766              -0.000397622              -0.001936184               0.002953960               0.001017776               0.000000000               0.000000000               0.000000000               0.000000000              -0.002313111               0.006438824              -0.000305509              -0.001672265               0.002703675               0.001031410               0.000000000               0.000000000               0.000000000               0.000000000              -0.001782545               0.005973130              -0.000230989              -0.001415092               0.002462721               0.001047629               0.000000000               0.000000000               0.000000000               0.000000000              -0.001284771               0.005545396              -0.000171616              -0.001174961               0.002240100               0.001065140               0.000000000               0.000000000               0.000000000               0.000000000              -0.000834634               0.005179524              -0.000124744              -0.000960426               0.002046633               0.001086207               0.000000000               0.000000000               0.000000000               0.000000000              -0.000450339               0.004887563              -0.000084619              -0.000779821               0.001889111               0.001109291               0.000000000               0.000000000               0.000000000               0.000000000              -0.000142138               0.004675048              -0.000054450              -0.000637681               0.001770894               0.001133213               0.000000000               0.000000000               0.000000000               0.000000000               0.000079708               0.004547445              -0.000034803              -0.000538539               0.001695313               0.001156774               0.000000000               0.000000000               0.000000000               0.000000000               0.000209361               0.004509683              -0.000027039              -0.000485199               0.001664946               0.001179747               0.000000000               0.000000000               0.000000000               0.000000000               0.000252370               0.004554659              -0.000023952              -0.000474693               0.001676436               0.001201743               0.000000000               0.000000000               0.000000000               0.000000000               0.000227303               0.004657373              -0.000016441              -0.000496932               0.001718086               0.001221154               0.000000000               0.000000000               0.000000000               0.000000000               0.000192097               0.004729307              -0.000012061              -0.000519126               0.001749462               0.001230336               0.000000000               0.000000000               0.000000000               0.000000000              -0.002429578               0.003735972              -0.000886604              -0.001378085               0.001704673               0.000326588               0.000000000               0.000000000               0.000000000               0.000000000              -0.003414932               0.005402966              -0.001230987              -0.001955966               0.002452959               0.000496993               0.000000000               0.000000000               0.000000000               0.000000000              -0.004300334               0.006974293              -0.001402297              -0.002484406               0.003152876               0.000668470               0.000000000               0.000000000               0.000000000               0.000000000              -0.004066879               0.007197287              -0.001230090              -0.002424735               0.003207316               0.000782582               0.000000000               0.000000000               0.000000000               0.000000000              -0.003573707               0.007004753              -0.001038201              -0.002215729               0.003073470               0.000857742               0.000000000               0.000000000               0.000000000               0.000000000              -0.003011775               0.006693722              -0.000874266              -0.001966126               0.002886594               0.000920468               0.000000000               0.000000000               0.000000000               0.000000000              -0.002436812               0.006346930              -0.000733964              -0.001707167               0.002684678               0.000977511               0.000000000               0.000000000               0.000000000               0.000000000              -0.001876389               0.005999558              -0.000609748              -0.001453587               0.002484361               0.001030775               0.000000000               0.000000000               0.000000000               0.000000000              -0.001349272               0.005665487              -0.000497898              -0.001214160               0.002293197               0.001079037               0.000000000               0.000000000               0.000000000               0.000000000              -0.000867164               0.005358593              -0.000401117              -0.000995008               0.002117849               0.001122841               0.000000000               0.000000000               0.000000000               0.000000000              -0.000444768               0.005098180              -0.000313942              -0.000804058               0.001967396               0.001163337               0.000000000               0.000000000               0.000000000               0.000000000              -0.000096086               0.004906566              -0.000231383              -0.000649351               0.001851956               0.001202605               0.000000000               0.000000000               0.000000000               0.000000000               0.000172542               0.004788983              -0.000155870              -0.000533918               0.001774284               0.001240366               0.000000000               0.000000000               0.000000000               0.000000000               0.000353584               0.004739428              -0.000093585              -0.000459833               0.001733071               0.001273238               0.000000000               0.000000000               0.000000000               0.000000000               0.000449765               0.004760037              -0.000046959              -0.000426342               0.001728777               0.001302435               0.000000000               0.000000000               0.000000000               0.000000000               0.000481462               0.004853326              -0.000016327              -0.000426116               0.001759798               0.001333682               0.000000000               0.000000000               0.000000000               0.000000000               0.000470866               0.004917168              -0.000002540              -0.000438070               0.001785063               0.001346993               0.000000000               0.000000000               0.000000000               0.000000000              -0.004174217               0.002089096              -0.000058389              -0.001826465               0.001305178              -0.000521287               0.000000000               0.000000000               0.000000000               0.000000000              -0.004289803               0.003985599              -0.001042437              -0.002106871               0.002030809              -0.000076062               0.000000000               0.000000000               0.000000000               0.000000000              -0.004655590               0.005760297              -0.001786466              -0.002465878               0.002742039               0.000276161               0.000000000               0.000000000               0.000000000               0.000000000              -0.004289172               0.006321609              -0.001758286              -0.002398635               0.002906727               0.000508091               0.000000000               0.000000000               0.000000000               0.000000000              -0.003741840               0.006411740              -0.001573346              -0.002204652               0.002872109               0.000667457               0.000000000               0.000000000               0.000000000               0.000000000              -0.003164869               0.006314909              -0.001376918              -0.001976185               0.002763677               0.000787492               0.000000000               0.000000000               0.000000000               0.000000000              -0.002582269               0.006142833              -0.001197412              -0.001736201               0.002626324               0.000890123               0.000000000               0.000000000               0.000000000               0.000000000              -0.002010905               0.005936584              -0.001032111              -0.001496159               0.002477561               0.000981402               0.000000000               0.000000000               0.000000000               0.000000000              -0.001466935               0.005709747              -0.000880050              -0.001263816               0.002324502               0.001060686               0.000000000               0.000000000               0.000000000               0.000000000              -0.000959245               0.005480687              -0.000743542              -0.001044800               0.002175144               0.001130344               0.000000000               0.000000000               0.000000000               0.000000000              -0.000495169               0.005268926              -0.000613809              -0.000844302               0.002037725               0.001193423               0.000000000               0.000000000               0.000000000               0.000000000              -0.000086074               0.005098164              -0.000486333              -0.000669547               0.001922553               0.001253006               0.000000000               0.000000000               0.000000000               0.000000000               0.000256022               0.004972190              -0.000361436              -0.000525514               0.001832552               0.001307037               0.000000000               0.000000000               0.000000000               0.000000000               0.000519993               0.004893786              -0.000241113              -0.000416725               0.001770154               0.001353429               0.000000000               0.000000000               0.000000000               0.000000000               0.000696923               0.004868369              -0.000135330              -0.000347199               0.001738507               0.001391307               0.000000000               0.000000000               0.000000000               0.000000000               0.000794865               0.004908915              -0.000054239              -0.000315539               0.001741468               0.001425929               0.000000000               0.000000000               0.000000000               0.000000000               0.000819449               0.004947812              -0.000019207              -0.000311182               0.001752982               0.001441799               0.000000000               0.000000000               0.000000000               0.000000000              -0.006160773               0.000746948               0.000657641              -0.002403656               0.001050194              -0.001353462               0.000000000               0.000000000               0.000000000               0.000000000              -0.005291440               0.002639183              -0.000785654              -0.002314184               0.001651111              -0.000663073               0.000000000               0.000000000               0.000000000               0.000000000              -0.004946809               0.004360460              -0.001977691              -0.002400106               0.002253506              -0.000146600               0.000000000               0.000000000               0.000000000               0.000000000              -0.004374174               0.005154779              -0.002130765              -0.002284657               0.002479794               0.000195137               0.000000000               0.000000000               0.000000000               0.000000000              -0.003762914               0.005504005              -0.001999274              -0.002099089               0.002534346               0.000435257               0.000000000               0.000000000               0.000000000               0.000000000              -0.003169510               0.005636930              -0.001805558              -0.001893178               0.002510017               0.000616839               0.000000000               0.000000000               0.000000000               0.000000000              -0.002588593               0.005660946              -0.001612728              -0.001678337               0.002446408               0.000768071               0.000000000               0.000000000               0.000000000               0.000000000              -0.002017371               0.005615555              -0.001428550              -0.001458455               0.002357984               0.000899529               0.000000000               0.000000000               0.000000000               0.000000000              -0.001464146               0.005526045              -0.001253467              -0.001239808               0.002255265               0.001015458               0.000000000               0.000000000               0.000000000               0.000000000              -0.000942635               0.005414429              -0.001091038              -0.001030290               0.002148221               0.001117932               0.000000000               0.000000000               0.000000000               0.000000000              -0.000452048               0.005290630              -0.000937957              -0.000830845               0.002040474               0.001209629               0.000000000               0.000000000               0.000000000               0.000000000               0.000004512               0.005165288              -0.000788229              -0.000643968               0.001936401               0.001292434               0.000000000               0.000000000               0.000000000               0.000000000               0.000407824               0.005049599              -0.000632494              -0.000478265               0.001842604               0.001364339               0.000000000               0.000000000               0.000000000               0.000000000               0.000745884               0.004970262              -0.000467375              -0.000341576               0.001770596               0.001429020               0.000000000               0.000000000               0.000000000               0.000000000               0.000999984               0.004933466              -0.000299152              -0.000241689               0.001725035               0.001483346               0.000000000               0.000000000               0.000000000               0.000000000               0.001156829               0.004948141              -0.000142695              -0.000184706               0.001710932               0.001526226               0.000000000               0.000000000               0.000000000               0.000000000               0.001204549               0.004968208              -0.000068521              -0.000169320               0.001712493               0.001543173               0.000000000               0.000000000               0.000000000               0.000000000              -0.008240845              -0.000211684               0.001151891              -0.003063854               0.000950717              -0.002113137               0.000000000               0.000000000               0.000000000               0.000000000              -0.006363797               0.001445223              -0.000505490              -0.002567074               0.001337423              -0.001229651               0.000000000               0.000000000               0.000000000               0.000000000              -0.005201949               0.002899889              -0.001944651              -0.002313213               0.001737688              -0.000575525               0.000000000               0.000000000               0.000000000               0.000000000              -0.004347870               0.003801614              -0.002256068              -0.002105649               0.001969073              -0.000136575               0.000000000               0.000000000               0.000000000               0.000000000              -0.003641689               0.004349660              -0.002205830              -0.001909337               0.002086317               0.000176980               0.000000000               0.000000000               0.000000000               0.000000000              -0.003015105               0.004691992              -0.002050455              -0.001717160               0.002136367               0.000419208               0.000000000               0.000000000               0.000000000               0.000000000              -0.002428885               0.004911665              -0.001873785              -0.001524787               0.002145467               0.000620680               0.000000000               0.000000000               0.000000000               0.000000000              -0.001870754               0.005039119              -0.001694662              -0.001331420               0.002123496               0.000792076               0.000000000               0.000000000               0.000000000               0.000000000              -0.001324949               0.005104698              -0.001518390              -0.001134941               0.002079862               0.000944921               0.000000000               0.000000000               0.000000000               0.000000000              -0.000794129               0.005128081              -0.001352821              -0.000938807               0.002022279               0.001083472               0.000000000               0.000000000               0.000000000               0.000000000              -0.000282778               0.005114113              -0.001199677              -0.000745305               0.001953122               0.001207817               0.000000000               0.000000000               0.000000000               0.000000000               0.000206507               0.005071943              -0.001045569              -0.000556552               0.001876148               0.001319596               0.000000000               0.000000000               0.000000000               0.000000000               0.000663845               0.005020379              -0.000879408              -0.000378605               0.001799645               0.001421039               0.000000000               0.000000000               0.000000000               0.000000000               0.001072505               0.004979664              -0.000691541              -0.000220268               0.001733294               0.001513026               0.000000000               0.000000000               0.000000000               0.000000000               0.001410515               0.004958132              -0.000479391              -0.000090823               0.001682969               0.001592145               0.000000000               0.000000000               0.000000000               0.000000000               0.001654096               0.004968052              -0.000248537              -0.000000721               0.001656241               0.001655520               0.000000000               0.000000000               0.000000000               0.000000000               0.001754971               0.004984397              -0.000131800               0.000035064               0.001649761               0.001684825               0.000000000               0.000000000               0.000000000               0.000000000              -0.010213566              -0.000791955               0.001329022              -0.003731090               0.000979705              -0.002751386               0.000000000               0.000000000               0.000000000               0.000000000              -0.007411849               0.000483349              -0.000257494              -0.002839859               0.001107729              -0.001732131               0.000000000               0.000000000               0.000000000               0.000000000              -0.005430071               0.001532625              -0.001685223              -0.002227852               0.001253483              -0.000974369               0.000000000               0.000000000               0.000000000               0.000000000              -0.004243224               0.002422623              -0.002076672              -0.001894034               0.001438875              -0.000455159               0.000000000               0.000000000               0.000000000               0.000000000              -0.003406043               0.003089996              -0.002101043              -0.001663512               0.001584491              -0.000079021               0.000000000               0.000000000               0.000000000               0.000000000              -0.002734127               0.003591468              -0.002003554              -0.001474228               0.001688552               0.000214324               0.000000000               0.000000000               0.000000000               0.000000000              -0.002138905               0.003980433              -0.001864201              -0.001299641               0.001760011               0.000460370               0.000000000               0.000000000               0.000000000               0.000000000              -0.001589699               0.004276193              -0.001710424              -0.001130659               0.001802269               0.000671610               0.000000000               0.000000000               0.000000000               0.000000000              -0.001058125               0.004497176              -0.001559016              -0.000958942               0.001818691               0.000859748               0.000000000               0.000000000               0.000000000               0.000000000              -0.000530660               0.004656738              -0.001415249              -0.000781089               0.001812593               0.001031504               0.000000000               0.000000000               0.000000000               0.000000000              -0.000010621               0.004765489              -0.001281308              -0.000599668               0.001788370               0.001188701               0.000000000               0.000000000               0.000000000               0.000000000               0.000503604               0.004838407              -0.001146499              -0.000415949               0.001751436               0.001335487               0.000000000               0.000000000               0.000000000               0.000000000               0.001011619               0.004885643              -0.000993892              -0.000231348               0.001705648               0.001474299               0.000000000               0.000000000               0.000000000               0.000000000               0.001500973               0.004916777              -0.000809470              -0.000051733               0.001656153               0.001604421               0.000000000               0.000000000               0.000000000               0.000000000               0.001954789               0.004938243              -0.000586599               0.000115764               0.001607477               0.001723241               0.000000000               0.000000000               0.000000000               0.000000000               0.002351205               0.004965067              -0.000317238               0.000261066               0.001567984               0.001829050               0.000000000               0.000000000               0.000000000               0.000000000               0.002577234               0.005000419              -0.000179741               0.000341407               0.001552987               0.001894394               0.000000000               0.000000000               0.000000000               0.000000000              -0.011868620              -0.001084096               0.001148946              -0.004315218               0.001077033              -0.003238185               0.000000000               0.000000000               0.000000000               0.000000000              -0.008315821              -0.000211762              -0.000089396              -0.003091960               0.000960060              -0.002131901               0.000000000               0.000000000               0.000000000               0.000000000              -0.005622925               0.000411213              -0.001234704              -0.002159996               0.000857064              -0.001302933               0.000000000               0.000000000               0.000000000               0.000000000              -0.004114051               0.001217891              -0.001595451              -0.001695003               0.000970957              -0.000724046               0.000000000               0.000000000               0.000000000               0.000000000              -0.003133189               0.001940803              -0.001655029              -0.001417544               0.001119441              -0.000298103               0.000000000               0.000000000               0.000000000               0.000000000              -0.002404937               0.002546810              -0.001608289              -0.001220200               0.001255660               0.000035460               0.000000000               0.000000000               0.000000000               0.000000000              -0.001799517               0.003057907              -0.001517302              -0.001057055               0.001371643               0.000314588               0.000000000               0.000000000               0.000000000               0.000000000              -0.001250423               0.003488120              -0.001407664              -0.000904922               0.001464335               0.000559413               0.000000000               0.000000000               0.000000000               0.000000000              -0.000728299               0.003839454              -0.001297074              -0.000753043               0.001530819               0.000777777               0.000000000               0.000000000               0.000000000               0.000000000              -0.000213026               0.004122616              -0.001190444              -0.000595211               0.001572595               0.000977384               0.000000000               0.000000000               0.000000000               0.000000000               0.000307110               0.004351492              -0.001091967              -0.000428770               0.001593406               0.001164636               0.000000000               0.000000000               0.000000000               0.000000000               0.000840066               0.004536182              -0.000994347              -0.000251998               0.001596045               0.001344047               0.000000000               0.000000000               0.000000000               0.000000000               0.001388558               0.004680749              -0.000880110              -0.000064385               0.001581696               0.001517311               0.000000000               0.000000000               0.000000000               0.000000000               0.001957654               0.004794540              -0.000734158               0.000134801               0.001553230               0.001688032               0.000000000               0.000000000               0.000000000               0.000000000               0.002544753               0.004880310              -0.000547135               0.000344240               0.001512007               0.001856247               0.000000000               0.000000000               0.000000000               0.000000000               0.003145228               0.004945942              -0.000303432               0.000561212               0.001461560               0.002022772               0.000000000               0.000000000               0.000000000               0.000000000               0.003554740               0.005014856              -0.000179570               0.000706163               0.001436214               0.002142378               0.000000000               0.000000000               0.000000000               0.000000000              -0.012979629              -0.001206381               0.000665518              -0.004716560               0.001170052              -0.003546509               0.000000000               0.000000000               0.000000000               0.000000000              -0.008938742              -0.000633091              -0.000011923              -0.003272890               0.000879927              -0.002392963               0.000000000               0.000000000               0.000000000               0.000000000              -0.005758084              -0.000319524              -0.000649993              -0.002119340               0.000599934              -0.001519405               0.000000000               0.000000000               0.000000000               0.000000000              -0.004018570               0.000399501              -0.000866640              -0.001556900               0.000652129              -0.000904771               0.000000000               0.000000000               0.000000000               0.000000000              -0.002922526               0.001129989              -0.000913746              -0.001237194               0.000789055              -0.000448139               0.000000000               0.000000000               0.000000000               0.000000000              -0.002140127               0.001790927              -0.000899632              -0.001026411               0.000939106              -0.000087305               0.000000000               0.000000000               0.000000000               0.000000000              -0.001520367               0.002375727              -0.000857335              -0.000867102               0.001080935               0.000213833               0.000000000               0.000000000               0.000000000               0.000000000              -0.000975060               0.002885840              -0.000801176              -0.000726376               0.001204062               0.000477686               0.000000000               0.000000000               0.000000000               0.000000000              -0.000462720               0.003320635              -0.000741819              -0.000588598               0.001303066               0.000714468               0.000000000               0.000000000               0.000000000               0.000000000               0.000044216               0.003690057              -0.000683134              -0.000444675               0.001378232               0.000933556               0.000000000               0.000000000               0.000000000               0.000000000               0.000562390               0.004006309              -0.000630939              -0.000289892               0.001432053               0.001142161               0.000000000               0.000000000               0.000000000               0.000000000               0.001102774               0.004276987              -0.000580358              -0.000121083               0.001466009               0.001344926               0.000000000               0.000000000               0.000000000               0.000000000               0.001676824               0.004504099              -0.000520449               0.000065796               0.001479420               0.001545215               0.000000000               0.000000000               0.000000000               0.000000000               0.002301689               0.004688122              -0.000442094               0.000277115               0.001470320               0.001747435               0.000000000               0.000000000               0.000000000               0.000000000               0.002994090               0.004828398              -0.000337393               0.000519229               0.001436373               0.001955602               0.000000000               0.000000000               0.000000000               0.000000000               0.003771184               0.004927250              -0.000192420               0.000798280               0.001376307               0.002174587               0.000000000               0.000000000               0.000000000               0.000000000               0.004351515               0.005025813              -0.000118651               0.001003581               0.001340727               0.002344309               0.000000000               0.000000000               0.000000000               0.000000000               0.000000000               0.000000000               0.000000000               0.000000000               0.000000000               0.000000000               0.000000000               0.000000000               0.000000000               0.000000000               0.000000000               0.000000000               0.000000000               0.000000000               0.000000000               0.000000000               0.000000000               0.000000000               0.000000000               0.000000000               0.000000000               0.000000000               0.000000000               0.000000000               0.000000000               0.000000000               0.000000000               0.000000000               0.000000000               0.000000000               0.000000000               0.000000000               0.000000000               0.000000000               0.000000000               0.000000000               0.000000000               0.000000000               0.000000000               0.000000000               0.000000000               0.000000000               0.000000000               0.000000000               0.000000000               0.000000000               0.000000000               0.000000000               0.000000000               0.000000000               0.000000000               0.000000000               0.000000000               0.000000000               0.000000000               0.000000000               0.000000000               0.000000000               0.000000000               0.000000000               0.000000000               0.000000000               0.000000000               0.000000000               0.000000000               0.000000000               0.000000000               0.000000000               0.000000000               0.000000000               0.000000000               0.000000000               0.000000000               0.000000000               0.000000000               0.000000000               0.000000000               0.000000000               0.000000000               0.000000000               0.000000000               0.000000000               0.000000000               0.000000000               0.000000000               0.000000000               0.000000000               0.000000000               0.000000000               0.000000000               0.000000000               0.000000000               0.000000000               0.000000000               0.000000000               0.000000000               0.000000000               0.000000000               0.000000000               0.000000000               0.000000000               0.000000000               0.000000000               0.000000000               0.000000000               0.000000000               0.000000000               0.000000000               0.000000000               0.000000000               0.000000000               0.000000000               0.000000000               0.000000000               0.000000000               0.000000000               0.000000000               0.000000000               0.000000000               0.000000000               0.000000000               0.000000000               0.000000000               0.000000000               0.000000000               0.000000000               0.000000000               0.000000000               0.000000000               0.000000000               0.000000000               0.000000000               0.000000000               0.000000000               0.000000000               0.000000000               0.000000000               0.000000000               0.000000000               0.000000000               0.000000000               0.000000000               0.000000000               0.000000000               0.000000000               0.000000000               0.000000000               0.000000000               0.000000000               0.000000000               0.000000000               0.000000000               0.000000000               0.000000000               0.000000000               0.000000000               0.000000000               0.000000000               0.000000000               0.000000000               0.000000000               0.000000000               0.000000000               0.000000000               0.000000000               0.000000000               0.000000000               0.000000000               0.000000000               0.000000000               0.000000000               0.000000000               0.000000000               0.000000000               0.000000000               0.000000000               0.000000000               0.000000000               0.000000000               0.000000000               0.000000000               0.000000000               0.000000000               0.000000000               0.000000000               0.000000000               0.000000000               0.000000000               0.000000000               0.000000000               0.000000000               0.000000000               0.000000000               0.000000000               0.000000000               0.000000000               0.000000000               0.000000000               0.000000000               0.000000000               0.000000000               0.000000000               0.000000000               0.000000000               0.000000000               0.000000000               0.000000000               0.000000000               0.000000000               0.000000000               0.000000000               0.000000000               0.000000000               0.000000000               0.000000000               0.000000000               0.000000000               0.000000000               0.000000000               0.000000000               0.000000000               0.000000000               0.000000000               0.000000000               0.000000000               0.000000000               0.000000000               0.000000000               0.000000000               0.000000000               0.000000000               0.000000000               0.000000000               0.000000000               0.000000000               0.000000000               0.000000000               0.000000000               0.000000000               0.000000000               0.000000000               0.000000000               0.000000000               0.000000000               0.000000000               0.000000000               0.000000000               0.000000000               0.000000000               0.000000000               0.000000000               0.000000000               0.000000000               0.000000000               0.000000000               0.000000000               0.000000000               0.000000000               0.000000000               0.000000000               0.000000000               0.000000000               0.000000000               0.000000000               0.000000000               0.000000000               0.000000000               0.000000000               0.000000000               0.000000000               0.000000000               0.000000000               0.000000000               0.000000000               0.000000000               0.000000000               0.000000000               0.000000000               0.000000000               0.000000000               0.000000000               0.000000000               0.000000000               0.000000000               0.000000000               0.000000000               0.000000000               0.000000000               0.000000000               0.000000000               0.000000000               0.000000000               0.000000000               0.000000000               0.000000000               0.000000000               0.000000000               0.000000000               0.000000000               0.000000000               0.000000000               0.000000000               0.000000000               0.000000000               0.000000000               0.000000000               0.000000000               0.000000000               0.000000000               0.000000000               0.000000000               0.000000000               0.000000000               0.000000000               0.000000000               0.000000000               0.000000000               0.000000000               0.000000000               0.000000000               0.000000000               0.000000000               0.000000000               0.000000000               0.000000000               0.000000000               0.000000000               0.000000000               0.000000000               0.000000000               0.000000000               0.000000000               0.000000000               0.000000000               0.000000000               0.000000000               0.000000000               0.000000000               0.000000000               0.000000000               0.002028423               0.020648919               0.001400127              -0.001820452               0.007489722               0.005669270               0.000000000               0.000000000               0.000000000               0.000000000               0.001814007               0.015868504               0.000626978              -0.001303307               0.005723884               0.004420577               0.000000000               0.000000000               0.000000000               0.000000000               0.002205130               0.012003322              -0.000134449              -0.000673490               0.004225564               0.003552074               0.000000000               0.000000000               0.000000000               0.000000000               0.001957304               0.009798289              -0.000448352              -0.000490796               0.003429663               0.002938866               0.000000000               0.000000000               0.000000000               0.000000000               0.001560785               0.008384718              -0.000572549              -0.000462794               0.002949143               0.002486348               0.000000000               0.000000000               0.000000000               0.000000000               0.001168440               0.007386104              -0.000607178              -0.000485097               0.002623709               0.002138612               0.000000000               0.000000000               0.000000000               0.000000000               0.000832527               0.006607289              -0.000596546              -0.000513712               0.002373645               0.001859933               0.000000000               0.000000000               0.000000000               0.000000000               0.000563219               0.005946988              -0.000568461              -0.000532165               0.002159698               0.001627533               0.000000000               0.000000000               0.000000000               0.000000000               0.000352737               0.005353087              -0.000537855              -0.000536858               0.001963297               0.001426439               0.000000000               0.000000000               0.000000000               0.000000000               0.000192419               0.004794829              -0.000506370              -0.000527195               0.001773992               0.001246797               0.000000000               0.000000000               0.000000000               0.000000000               0.000074582               0.004253594              -0.000473137              -0.000503730               0.001585760               0.001082030               0.000000000               0.000000000               0.000000000               0.000000000              -0.000012424               0.003712272              -0.000436332              -0.000468692               0.001393642               0.000924950               0.000000000               0.000000000               0.000000000               0.000000000              -0.000070645               0.003155321              -0.000391214              -0.000420906               0.001192065               0.000771159               0.000000000               0.000000000               0.000000000               0.000000000              -0.000099231               0.002567955              -0.000333750              -0.000358205               0.000975378               0.000617173               0.000000000               0.000000000               0.000000000               0.000000000              -0.000093308               0.001937603              -0.000255756              -0.000277190               0.000738258               0.000461067               0.000000000               0.000000000               0.000000000               0.000000000              -0.000052753               0.001248728              -0.000144320              -0.000175873               0.000474863               0.000298990               0.000000000               0.000000000               0.000000000               0.000000000              -0.000080490               0.000734610              -0.000089743              -0.000122010               0.000285537               0.000163528               0.000000000               0.000000000               0.000000000               0.000000000               0.002162481               0.019353908               0.002580733              -0.001608305               0.006987340               0.005379034               0.000000000               0.000000000               0.000000000               0.000000000               0.001626981               0.015053200               0.001145771              -0.001271529               0.005441526               0.004169997               0.000000000               0.000000000               0.000000000               0.000000000               0.001678486               0.011687360              -0.000253023              -0.000831486               0.004172910               0.003341424               0.000000000               0.000000000               0.000000000               0.000000000               0.001312412               0.009733954              -0.000807129              -0.000724588               0.003486148               0.002761560               0.000000000               0.000000000               0.000000000               0.000000000               0.000900628               0.008443673              -0.001015788              -0.000717722               0.003053770               0.002336048               0.000000000               0.000000000               0.000000000               0.000000000               0.000540496               0.007505180              -0.001066714              -0.000735460               0.002746855               0.002011395               0.000000000               0.000000000               0.000000000               0.000000000               0.000258613               0.006755873              -0.001040110              -0.000747503               0.002501103               0.001753600               0.000000000               0.000000000               0.000000000               0.000000000               0.000051863               0.006109445              -0.000986902              -0.000744231               0.002284538               0.001540308               0.000000000               0.000000000               0.000000000               0.000000000              -0.000089913               0.005522914              -0.000926462              -0.000724080               0.002082313               0.001358233               0.000000000               0.000000000               0.000000000               0.000000000              -0.000181115               0.004967229              -0.000864371              -0.000688820               0.001885333               0.001196513               0.000000000               0.000000000               0.000000000               0.000000000              -0.000233235               0.004431123              -0.000801978              -0.000641352               0.001690810               0.001049458               0.000000000               0.000000000               0.000000000               0.000000000              -0.000254919               0.003904918              -0.000732325              -0.000583708               0.001496196               0.000912487               0.000000000               0.000000000               0.000000000               0.000000000              -0.000249502               0.003376572              -0.000647337              -0.000515634               0.001297390               0.000781757               0.000000000               0.000000000               0.000000000               0.000000000              -0.000217027               0.002838020              -0.000541568              -0.000436137               0.001091376               0.000655239               0.000000000               0.000000000               0.000000000               0.000000000              -0.000159308               0.002288371              -0.000405060              -0.000345786               0.000878045               0.000532259               0.000000000               0.000000000               0.000000000               0.000000000              -0.000083347               0.001731923              -0.000223969              -0.000247745               0.000659883               0.000412138               0.000000000               0.000000000               0.000000000               0.000000000              -0.000083665               0.001346578              -0.000136772              -0.000199696               0.000515420               0.000315724               0.000000000               0.000000000               0.000000000               0.000000000               0.002262269               0.017384949               0.003388136              -0.001324767               0.006236513               0.004911747               0.000000000               0.000000000               0.000000000               0.000000000               0.001283048               0.013838500               0.001497245              -0.001248667               0.005029009               0.003780342               0.000000000               0.000000000               0.000000000               0.000000000               0.000869846               0.011217985              -0.000316985              -0.001076053               0.004097975               0.003021922               0.000000000               0.000000000               0.000000000               0.000000000               0.000372723               0.009613758              -0.000990318              -0.001061946               0.003558536               0.002496590               0.000000000               0.000000000               0.000000000               0.000000000              -0.000030453               0.008493497              -0.001221740              -0.001073105               0.003188839               0.002115734               0.000000000               0.000000000               0.000000000               0.000000000              -0.000320769               0.007627222              -0.001267500              -0.001073689               0.002900278               0.001826589               0.000000000               0.000000000               0.000000000               0.000000000              -0.000502089               0.006907991              -0.001224301              -0.001051780               0.002653234               0.001601454               0.000000000               0.000000000               0.000000000               0.000000000              -0.000603403               0.006274753              -0.001151812              -0.001010618               0.002428436               0.001417818               0.000000000               0.000000000               0.000000000               0.000000000              -0.000650671               0.005694458              -0.001071502              -0.000955807               0.002216736               0.001260929               0.000000000               0.000000000               0.000000000               0.000000000              -0.000652988               0.005148215              -0.000988076              -0.000888396               0.002012186               0.001123791               0.000000000               0.000000000               0.000000000               0.000000000              -0.000616041               0.004626683              -0.000906358              -0.000809349               0.001811995               0.001002646               0.000000000               0.000000000               0.000000000               0.000000000              -0.000548031               0.004120246              -0.000817605              -0.000720541               0.001613582               0.000893041               0.000000000               0.000000000               0.000000000               0.000000000              -0.000454199               0.003628584              -0.000710480              -0.000623896               0.001417481               0.000793585               0.000000000               0.000000000               0.000000000               0.000000000              -0.000342828               0.003156535              -0.000580209              -0.000523126               0.001226543               0.000703417               0.000000000               0.000000000               0.000000000               0.000000000              -0.000222030               0.002714141              -0.000420597              -0.000422528               0.001045547               0.000623019               0.000000000               0.000000000               0.000000000               0.000000000              -0.000105065               0.002320291              -0.000225917              -0.000329435               0.000883234               0.000553799               0.000000000               0.000000000               0.000000000               0.000000000              -0.000076491               0.002079120              -0.000133725              -0.000288573               0.000789224               0.000500651               0.000000000               0.000000000               0.000000000               0.000000000               0.002196667               0.014986499               0.003748424              -0.001049562               0.005345303               0.004295741               0.000000000               0.000000000               0.000000000               0.000000000               0.000762910               0.012387074               0.001668522              -0.001262291               0.004549747               0.003287456               0.000000000               0.000000000               0.000000000               0.000000000              -0.000129135               0.010652115              -0.000287262              -0.001379937               0.004010648               0.002630712               0.000000000               0.000000000               0.000000000               0.000000000              -0.000705882               0.009430188              -0.000954177              -0.001443476               0.003624523               0.002181047               0.000000000               0.000000000               0.000000000               0.000000000              -0.001039669               0.008476952              -0.001161457              -0.001449492               0.003308786               0.001859295               0.000000000               0.000000000               0.000000000               0.000000000              -0.001205978               0.007677799              -0.001192398              -0.001411963               0.003029895               0.001617931               0.000000000               0.000000000               0.000000000               0.000000000              -0.001254237               0.006984061              -0.001144224              -0.001343344               0.002775778               0.001432435               0.000000000               0.000000000               0.000000000               0.000000000              -0.001226395               0.006367359              -0.001067266              -0.001255815               0.002541037               0.001285222               0.000000000               0.000000000               0.000000000               0.000000000              -0.001155383               0.005800509              -0.000982214              -0.001158330               0.002319593               0.001161264               0.000000000               0.000000000               0.000000000               0.000000000              -0.001049182               0.005270218              -0.000896597              -0.001052218               0.002107461               0.001055243               0.000000000               0.000000000               0.000000000               0.000000000              -0.000910749               0.004768942              -0.000813302              -0.000937647               0.001902180               0.000964534               0.000000000               0.000000000               0.000000000               0.000000000              -0.000749573               0.004294980              -0.000723044              -0.000817960               0.001704299               0.000886339               0.000000000               0.000000000               0.000000000               0.000000000              -0.000575022               0.003857344              -0.000617346              -0.000697800               0.001518368               0.000820569               0.000000000               0.000000000               0.000000000               0.000000000              -0.000399314               0.003469123              -0.000489140              -0.000583382               0.001350823               0.000767442               0.000000000               0.000000000               0.000000000               0.000000000              -0.000237007               0.003142288              -0.000339683              -0.000481662               0.001207973               0.000726310               0.000000000               0.000000000               0.000000000               0.000000000              -0.000103829               0.002897265              -0.000175092              -0.000401093               0.001099443               0.000698350               0.000000000               0.000000000               0.000000000               0.000000000              -0.000058321               0.002777816              -0.000096761              -0.000369096               0.001048962               0.000679865               0.000000000               0.000000000               0.000000000               0.000000000               0.001847701               0.012407633               0.003674174              -0.000858067               0.004421858               0.003563791               0.000000000               0.000000000               0.000000000               0.000000000               0.000064303               0.010855412               0.001689090              -0.001332810               0.004062704               0.002729894               0.000000000               0.000000000               0.000000000               0.000000000              -0.001209127               0.010031724              -0.000143721              -0.001707384               0.003913003               0.002205619               0.000000000               0.000000000               0.000000000               0.000000000              -0.001764244               0.009163915              -0.000716180              -0.001807076               0.003656966               0.001849890               0.000000000               0.000000000               0.000000000               0.000000000              -0.001961876               0.008351163              -0.000881286              -0.001779595               0.003376891               0.001597297               0.000000000               0.000000000               0.000000000               0.000000000              -0.001961971               0.007611762              -0.000905872              -0.001687205               0.003099630               0.001412425               0.000000000               0.000000000               0.000000000               0.000000000              -0.001850205               0.006949957              -0.000871526              -0.001562568               0.002837485               0.001274917               0.000000000               0.000000000               0.000000000               0.000000000              -0.001685010               0.006355740              -0.000810117              -0.001426343               0.002594006               0.001167664               0.000000000               0.000000000               0.000000000               0.000000000              -0.001489806               0.005809588              -0.000739277              -0.001284873               0.002364801               0.001079928               0.000000000               0.000000000               0.000000000               0.000000000              -0.001265645               0.005303588              -0.000667030              -0.001137563               0.002147032               0.001009470               0.000000000               0.000000000               0.000000000               0.000000000              -0.001025567               0.004834529              -0.000596828              -0.000988901               0.001941127               0.000952226               0.000000000               0.000000000               0.000000000               0.000000000              -0.000783050               0.004412237              -0.000520519              -0.000845171               0.001752455               0.000907283               0.000000000               0.000000000               0.000000000               0.000000000              -0.000550581               0.004048906              -0.000430076              -0.000712579               0.001587148               0.000874569               0.000000000               0.000000000               0.000000000               0.000000000              -0.000342803               0.003753801              -0.000321203              -0.000597775               0.001450513               0.000852738               0.000000000               0.000000000               0.000000000               0.000000000              -0.000176436               0.003533532              -0.000201540              -0.000507854               0.001347117               0.000839263               0.000000000               0.000000000               0.000000000               0.000000000              -0.000065821               0.003401599              -0.000091743              -0.000449882               0.001283815               0.000833934               0.000000000               0.000000000               0.000000000               0.000000000              -0.000025681               0.003364235              -0.000042358              -0.000430159               0.001264786               0.000834628               0.000000000               0.000000000               0.000000000               0.000000000               0.001153754               0.009863571               0.003244699              -0.000800289               0.003554586               0.002754297               0.000000000               0.000000000               0.000000000               0.000000000              -0.000777931               0.009367788               0.001611750              -0.001462695               0.003610129               0.002147434               0.000000000               0.000000000               0.000000000               0.000000000              -0.002251223               0.009374906               0.000116314              -0.002016067               0.003796960               0.001780893               0.000000000               0.000000000               0.000000000               0.000000000              -0.002670355               0.008791829              -0.000322887              -0.002100357               0.003630699               0.001530343               0.000000000               0.000000000               0.000000000               0.000000000              -0.002671567               0.008097498              -0.000457086              -0.002014020               0.003370479               0.001356459               0.000000000               0.000000000               0.000000000               0.000000000              -0.002482657               0.007425349              -0.000494930              -0.001859160               0.003094812               0.001235651               0.000000000               0.000000000               0.000000000               0.000000000              -0.002208313               0.006807506              -0.000491105              -0.001679052               0.002828830               0.001149778               0.000000000               0.000000000               0.000000000               0.000000000              -0.001905995               0.006245483              -0.000463276              -0.001495430               0.002580283               0.001084854               0.000000000               0.000000000               0.000000000               0.000000000              -0.001589787               0.005728750              -0.000424854              -0.001312261               0.002346984               0.001034724               0.000000000               0.000000000               0.000000000               0.000000000              -0.001266180               0.005258058              -0.000382272              -0.001132072               0.002130026               0.000997954               0.000000000               0.000000000               0.000000000               0.000000000              -0.000949177               0.004844207              -0.000337109              -0.000961465               0.001935208               0.000973743               0.000000000               0.000000000               0.000000000               0.000000000              -0.000657837               0.004494822              -0.000286219              -0.000808540               0.001767772               0.000959233               0.000000000               0.000000000               0.000000000               0.000000000              -0.000403693               0.004217499              -0.000223206              -0.000678571               0.001632009               0.000953438               0.000000000               0.000000000               0.000000000               0.000000000              -0.000200480               0.004012899              -0.000146312              -0.000576791               0.001529883               0.000953092               0.000000000               0.000000000               0.000000000               0.000000000              -0.000068120               0.003885256              -0.000069386              -0.000511201               0.001465472               0.000954272               0.000000000               0.000000000               0.000000000               0.000000000              -0.000010008               0.003839331              -0.000019464              -0.000483668               0.001440987               0.000957319               0.000000000               0.000000000               0.000000000               0.000000000               0.000006332               0.003847500              -0.000001454              -0.000478562               0.001442008               0.000963446               0.000000000               0.000000000               0.000000000               0.000000000               0.000149728               0.007521831               0.002560910              -0.000884081               0.002801945               0.001917864               0.000000000               0.000000000               0.000000000               0.000000000              -0.001711864               0.008009023               0.001488936              -0.001643074               0.003217339               0.001574265               0.000000000               0.000000000               0.000000000               0.000000000              -0.003149218               0.008681810               0.000484895              -0.002266177               0.003649300               0.001383123               0.000000000               0.000000000               0.000000000               0.000000000              -0.003330047               0.008316693               0.000162325              -0.002288348               0.003534986               0.001246638               0.000000000               0.000000000               0.000000000               0.000000000              -0.003108326               0.007735858               0.000025771              -0.002132599               0.003289460               0.001156861               0.000000000               0.000000000               0.000000000               0.000000000              -0.002736951               0.007142970              -0.000044524              -0.001919223               0.003020707               0.001101484               0.000000000               0.000000000               0.000000000               0.000000000              -0.002313199               0.006584363              -0.000085173              -0.001690491               0.002758263               0.001067772               0.000000000               0.000000000               0.000000000               0.000000000              -0.001884420               0.006065669              -0.000107214              -0.001464862               0.002510157               0.001045295               0.000000000               0.000000000               0.000000000               0.000000000              -0.001465981               0.005592036              -0.000113256              -0.001248744               0.002280241               0.001031497               0.000000000               0.000000000               0.000000000               0.000000000              -0.001069232               0.005175864              -0.000111627              -0.001047943               0.002074585               0.001026642               0.000000000               0.000000000               0.000000000               0.000000000              -0.000710281               0.004833215              -0.000105196              -0.000870505               0.001901224               0.001030719               0.000000000               0.000000000               0.000000000               0.000000000              -0.000405439               0.004568221              -0.000090210              -0.000723066               0.001763747               0.001040681               0.000000000               0.000000000               0.000000000               0.000000000              -0.000167239               0.004380464              -0.000062874              -0.000610271               0.001663564               0.001053293               0.000000000               0.000000000               0.000000000               0.000000000              -0.000006390               0.004273515              -0.000024041              -0.000536584               0.001603352               0.001066768               0.000000000               0.000000000               0.000000000               0.000000000               0.000069010               0.004247041               0.000007561              -0.000505000               0.001584000               0.001078999               0.000000000               0.000000000               0.000000000               0.000000000               0.000061886               0.004280947               0.000016142              -0.000511910               0.001597605               0.001085695               0.000000000               0.000000000               0.000000000               0.000000000               0.000041596               0.004325186               0.000018869              -0.000525049               0.001616730               0.001091682               0.000000000               0.000000000               0.000000000               0.000000000              -0.001043818               0.005554238               0.001741151              -0.001085710               0.002213297               0.001127587               0.000000000               0.000000000               0.000000000               0.000000000              -0.002631665               0.006798358               0.001364007              -0.001836665               0.002878318               0.001041653               0.000000000               0.000000000               0.000000000               0.000000000              -0.003860201               0.007990984               0.000931621              -0.002446442               0.003479115               0.001032673               0.000000000               0.000000000               0.000000000               0.000000000              -0.003778129               0.007859860               0.000679867              -0.002399275               0.003419685               0.001020410               0.000000000               0.000000000               0.000000000               0.000000000              -0.003370894               0.007418264               0.000515003              -0.002191363               0.003203184               0.001011821               0.000000000               0.000000000               0.000000000               0.000000000              -0.002854581               0.006925766               0.000397622              -0.001936184               0.002953960               0.001017776               0.000000000               0.000000000               0.000000000               0.000000000              -0.002313111               0.006438824               0.000305509              -0.001672265               0.002703675               0.001031410               0.000000000               0.000000000               0.000000000               0.000000000              -0.001782545               0.005973130               0.000230989              -0.001415092               0.002462721               0.001047629               0.000000000               0.000000000               0.000000000               0.000000000              -0.001284771               0.005545396               0.000171616              -0.001174961               0.002240100               0.001065140               0.000000000               0.000000000               0.000000000               0.000000000              -0.000834634               0.005179524               0.000124744              -0.000960426               0.002046633               0.001086207               0.000000000               0.000000000               0.000000000               0.000000000              -0.000450339               0.004887563               0.000084619              -0.000779821               0.001889111               0.001109291               0.000000000               0.000000000               0.000000000               0.000000000              -0.000142138               0.004675048               0.000054450              -0.000637681               0.001770894               0.001133213               0.000000000               0.000000000               0.000000000               0.000000000               0.000079708               0.004547445               0.000034803              -0.000538539               0.001695313               0.001156774               0.000000000               0.000000000               0.000000000               0.000000000               0.000209361               0.004509683               0.000027039              -0.000485199               0.001664946               0.001179747               0.000000000               0.000000000               0.000000000               0.000000000               0.000252370               0.004554659               0.000023952              -0.000474693               0.001676436               0.001201743               0.000000000               0.000000000               0.000000000               0.000000000               0.000227303               0.004657373               0.000016441              -0.000496932               0.001718086               0.001221154               0.000000000               0.000000000               0.000000000               0.000000000               0.000192097               0.004729307               0.000012061              -0.000519126               0.001749462               0.001230336               0.000000000               0.000000000               0.000000000               0.000000000              -0.002429578               0.003735972               0.000886604              -0.001378085               0.001704673               0.000326588               0.000000000               0.000000000               0.000000000               0.000000000              -0.003414932               0.005402966               0.001230987              -0.001955966               0.002452959               0.000496993               0.000000000               0.000000000               0.000000000               0.000000000              -0.004300334               0.006974293               0.001402297              -0.002484406               0.003152876               0.000668470               0.000000000               0.000000000               0.000000000               0.000000000              -0.004066879               0.007197287               0.001230090              -0.002424735               0.003207316               0.000782582               0.000000000               0.000000000               0.000000000               0.000000000              -0.003573707               0.007004753               0.001038201              -0.002215729               0.003073470               0.000857742               0.000000000               0.000000000               0.000000000               0.000000000              -0.003011775               0.006693722               0.000874266              -0.001966126               0.002886594               0.000920468               0.000000000               0.000000000               0.000000000               0.000000000              -0.002436812               0.006346930               0.000733964              -0.001707167               0.002684678               0.000977511               0.000000000               0.000000000               0.000000000               0.000000000              -0.001876389               0.005999558               0.000609748              -0.001453587               0.002484361               0.001030775               0.000000000               0.000000000               0.000000000               0.000000000              -0.001349272               0.005665487               0.000497898              -0.001214160               0.002293197               0.001079037               0.000000000               0.000000000               0.000000000               0.000000000              -0.000867164               0.005358593               0.000401117              -0.000995008               0.002117849               0.001122841               0.000000000               0.000000000               0.000000000               0.000000000              -0.000444768               0.005098180               0.000313942              -0.000804058               0.001967396               0.001163337               0.000000000               0.000000000               0.000000000               0.000000000              -0.000096086               0.004906566               0.000231383              -0.000649351               0.001851956               0.001202605               0.000000000               0.000000000               0.000000000               0.000000000               0.000172542               0.004788983               0.000155870              -0.000533918               0.001774284               0.001240366               0.000000000               0.000000000               0.000000000               0.000000000               0.000353584               0.004739428               0.000093585              -0.000459833               0.001733071               0.001273238               0.000000000               0.000000000               0.000000000               0.000000000               0.000449765               0.004760037               0.000046959              -0.000426342               0.001728777               0.001302435               0.000000000               0.000000000               0.000000000               0.000000000               0.000481462               0.004853326               0.000016327              -0.000426116               0.001759798               0.001333682               0.000000000               0.000000000               0.000000000               0.000000000               0.000470866               0.004917168               0.000002540              -0.000438070               0.001785063               0.001346993               0.000000000               0.000000000               0.000000000               0.000000000              -0.004174217               0.002089096               0.000058389              -0.001826465               0.001305178              -0.000521287               0.000000000               0.000000000               0.000000000               0.000000000              -0.004289803               0.003985599               0.001042437              -0.002106871               0.002030809              -0.000076062               0.000000000               0.000000000               0.000000000               0.000000000              -0.004655590               0.005760297               0.001786466              -0.002465878               0.002742039               0.000276161               0.000000000               0.000000000               0.000000000               0.000000000              -0.004289172               0.006321609               0.001758286              -0.002398635               0.002906727               0.000508091               0.000000000               0.000000000               0.000000000               0.000000000              -0.003741840               0.006411740               0.001573346              -0.002204652               0.002872109               0.000667457               0.000000000               0.000000000               0.000000000               0.000000000              -0.003164869               0.006314909               0.001376918              -0.001976185               0.002763677               0.000787492               0.000000000               0.000000000               0.000000000               0.000000000              -0.002582269               0.006142833               0.001197412              -0.001736201               0.002626324               0.000890123               0.000000000               0.000000000               0.000000000               0.000000000              -0.002010905               0.005936584               0.001032111              -0.001496159               0.002477561               0.000981402               0.000000000               0.000000000               0.000000000               0.000000000              -0.001466935               0.005709747               0.000880050              -0.001263816               0.002324502               0.001060686               0.000000000               0.000000000               0.000000000               0.000000000              -0.000959245               0.005480687               0.000743542              -0.001044800               0.002175144               0.001130344               0.000000000               0.000000000               0.000000000               0.000000000              -0.000495169               0.005268926               0.000613809              -0.000844302               0.002037725               0.001193423               0.000000000               0.000000000               0.000000000               0.000000000              -0.000086074               0.005098164               0.000486333              -0.000669547               0.001922553               0.001253006               0.000000000               0.000000000               0.000000000               0.000000000               0.000256022               0.004972190               0.000361436              -0.000525514               0.001832552               0.001307037               0.000000000               0.000000000               0.000000000               0.000000000               0.000519993               0.004893786               0.000241113              -0.000416725               0.001770154               0.001353429               0.000000000               0.000000000               0.000000000               0.000000000               0.000696923               0.004868369               0.000135330              -0.000347199               0.001738507               0.001391307               0.000000000               0.000000000               0.000000000               0.000000000               0.000794865               0.004908915               0.000054239              -0.000315539               0.001741468               0.001425929               0.000000000               0.000000000               0.000000000               0.000000000               0.000819449               0.004947812               0.000019207              -0.000311182               0.001752982               0.001441799               0.000000000               0.000000000               0.000000000               0.000000000              -0.006160773               0.000746948              -0.000657641              -0.002403656               0.001050194              -0.001353462               0.000000000               0.000000000               0.000000000               0.000000000              -0.005291440               0.002639183               0.000785654              -0.002314184               0.001651111              -0.000663073               0.000000000               0.000000000               0.000000000               0.000000000              -0.004946809               0.004360460               0.001977691              -0.002400106               0.002253506              -0.000146600               0.000000000               0.000000000               0.000000000               0.000000000              -0.004374174               0.005154779               0.002130765              -0.002284657               0.002479794               0.000195137               0.000000000               0.000000000               0.000000000               0.000000000              -0.003762914               0.005504005               0.001999274              -0.002099089               0.002534346               0.000435257               0.000000000               0.000000000               0.000000000               0.000000000              -0.003169510               0.005636930               0.001805558              -0.001893178               0.002510017               0.000616839               0.000000000               0.000000000               0.000000000               0.000000000              -0.002588593               0.005660946               0.001612728              -0.001678337               0.002446408               0.000768071               0.000000000               0.000000000               0.000000000               0.000000000              -0.002017371               0.005615555               0.001428550              -0.001458455               0.002357984               0.000899529               0.000000000               0.000000000               0.000000000               0.000000000              -0.001464146               0.005526045               0.001253467              -0.001239808               0.002255265               0.001015458               0.000000000               0.000000000               0.000000000               0.000000000              -0.000942635               0.005414429               0.001091038              -0.001030290               0.002148221               0.001117932               0.000000000               0.000000000               0.000000000               0.000000000              -0.000452048               0.005290630               0.000937957              -0.000830845               0.002040474               0.001209629               0.000000000               0.000000000               0.000000000               0.000000000               0.000004512               0.005165288               0.000788229              -0.000643968               0.001936401               0.001292434               0.000000000               0.000000000               0.000000000               0.000000000               0.000407824               0.005049599               0.000632494              -0.000478265               0.001842604               0.001364339               0.000000000               0.000000000               0.000000000               0.000000000               0.000745884               0.004970262               0.000467375              -0.000341576               0.001770596               0.001429020               0.000000000               0.000000000               0.000000000               0.000000000               0.000999984               0.004933466               0.000299152              -0.000241689               0.001725035               0.001483346               0.000000000               0.000000000               0.000000000               0.000000000               0.001156829               0.004948141               0.000142695              -0.000184706               0.001710932               0.001526226               0.000000000               0.000000000               0.000000000               0.000000000               0.001204549               0.004968208               0.000068521              -0.000169320               0.001712493               0.001543173               0.000000000               0.000000000               0.000000000               0.000000000              -0.008240845              -0.000211684              -0.001151891              -0.003063854               0.000950717              -0.002113137               0.000000000               0.000000000               0.000000000               0.000000000              -0.006363797               0.001445223               0.000505490              -0.002567074               0.001337423              -0.001229651               0.000000000               0.000000000               0.000000000               0.000000000              -0.005201949               0.002899889               0.001944651              -0.002313213               0.001737688              -0.000575525               0.000000000               0.000000000               0.000000000               0.000000000              -0.004347870               0.003801614               0.002256068              -0.002105649               0.001969073              -0.000136575               0.000000000               0.000000000               0.000000000               0.000000000              -0.003641689               0.004349660               0.002205830              -0.001909337               0.002086317               0.000176980               0.000000000               0.000000000               0.000000000               0.000000000              -0.003015105               0.004691992               0.002050455              -0.001717160               0.002136367               0.000419208               0.000000000               0.000000000               0.000000000               0.000000000              -0.002428885               0.004911665               0.001873785              -0.001524787               0.002145467               0.000620680               0.000000000               0.000000000               0.000000000               0.000000000              -0.001870754               0.005039119               0.001694662              -0.001331420               0.002123496               0.000792076               0.000000000               0.000000000               0.000000000               0.000000000              -0.001324949               0.005104698               0.001518390              -0.001134941               0.002079862               0.000944921               0.000000000               0.000000000               0.000000000               0.000000000              -0.000794129               0.005128081               0.001352821              -0.000938807               0.002022279               0.001083472               0.000000000               0.000000000               0.000000000               0.000000000              -0.000282778               0.005114113               0.001199677              -0.000745305               0.001953122               0.001207817               0.000000000               0.000000000               0.000000000               0.000000000               0.000206507               0.005071943               0.001045569              -0.000556552               0.001876148               0.001319596               0.000000000               0.000000000               0.000000000               0.000000000               0.000663845               0.005020379               0.000879408              -0.000378605               0.001799645               0.001421039               0.000000000               0.000000000               0.000000000               0.000000000               0.001072505               0.004979664               0.000691541              -0.000220268               0.001733294               0.001513026               0.000000000               0.000000000               0.000000000               0.000000000               0.001410515               0.004958132               0.000479391              -0.000090823               0.001682969               0.001592145               0.000000000               0.000000000               0.000000000               0.000000000               0.001654096               0.004968052               0.000248537              -0.000000721               0.001656241               0.001655520               0.000000000               0.000000000               0.000000000               0.000000000               0.001754971               0.004984397               0.000131800               0.000035064               0.001649761               0.001684825               0.000000000               0.000000000               0.000000000               0.000000000              -0.010213566              -0.000791955              -0.001329022              -0.003731090               0.000979705              -0.002751386               0.000000000               0.000000000               0.000000000               0.000000000              -0.007411849               0.000483349               0.000257494              -0.002839859               0.001107729              -0.001732131               0.000000000               0.000000000               0.000000000               0.000000000              -0.005430071               0.001532625               0.001685223              -0.002227852               0.001253483              -0.000974369               0.000000000               0.000000000               0.000000000               0.000000000              -0.004243224               0.002422623               0.002076672              -0.001894034               0.001438875              -0.000455159               0.000000000               0.000000000               0.000000000               0.000000000              -0.003406043               0.003089996               0.002101043              -0.001663512               0.001584491              -0.000079021               0.000000000               0.000000000               0.000000000               0.000000000              -0.002734127               0.003591468               0.002003554              -0.001474228               0.001688552               0.000214324               0.000000000               0.000000000               0.000000000               0.000000000              -0.002138905               0.003980433               0.001864201              -0.001299641               0.001760011               0.000460370               0.000000000               0.000000000               0.000000000               0.000000000              -0.001589699               0.004276193               0.001710424              -0.001130659               0.001802269               0.000671610               0.000000000               0.000000000               0.000000000               0.000000000              -0.001058125               0.004497176               0.001559016              -0.000958942               0.001818691               0.000859748               0.000000000               0.000000000               0.000000000               0.000000000              -0.000530660               0.004656738               0.001415249              -0.000781089               0.001812593               0.001031504               0.000000000               0.000000000               0.000000000               0.000000000              -0.000010621               0.004765489               0.001281308              -0.000599668               0.001788370               0.001188701               0.000000000               0.000000000               0.000000000               0.000000000               0.000503604               0.004838407               0.001146499              -0.000415949               0.001751436               0.001335487               0.000000000               0.000000000               0.000000000               0.000000000               0.001011619               0.004885643               0.000993892              -0.000231348               0.001705648               0.001474299               0.000000000               0.000000000               0.000000000               0.000000000               0.001500973               0.004916777               0.000809470              -0.000051733               0.001656153               0.001604421               0.000000000               0.000000000               0.000000000               0.000000000               0.001954789               0.004938243               0.000586599               0.000115764               0.001607477               0.001723241               0.000000000               0.000000000               0.000000000               0.000000000               0.002351205               0.004965067               0.000317238               0.000261066               0.001567984               0.001829050               0.000000000               0.000000000               0.000000000               0.000000000               0.002577234               0.005000419               0.000179741               0.000341407               0.001552987               0.001894394               0.000000000               0.000000000               0.000000000               0.000000000              -0.011868620              -0.001084096              -0.001148946              -0.004315218               0.001077033              -0.003238185               0.000000000               0.000000000               0.000000000               0.000000000              -0.008315821              -0.000211762               0.000089396              -0.003091960               0.000960060              -0.002131901               0.000000000               0.000000000               0.000000000               0.000000000              -0.005622925               0.000411213               0.001234704              -0.002159996               0.000857064              -0.001302933               0.000000000               0.000000000               0.000000000               0.000000000              -0.004114051               0.001217891               0.001595451              -0.001695003               0.000970957              -0.000724046               0.000000000               0.000000000               0.000000000               0.000000000              -0.003133189               0.001940803               0.001655029              -0.001417544               0.001119441              -0.000298103               0.000000000               0.000000000               0.000000000               0.000000000              -0.002404937               0.002546810               0.001608289              -0.001220200               0.001255660               0.000035460               0.000000000               0.000000000               0.000000000               0.000000000              -0.001799517               0.003057907               0.001517302              -0.001057055               0.001371643               0.000314588               0.000000000               0.000000000               0.000000000               0.000000000              -0.001250423               0.003488120               0.001407664              -0.000904922               0.001464335               0.000559413               0.000000000               0.000000000               0.000000000               0.000000000              -0.000728299               0.003839454               0.001297074              -0.000753043               0.001530819               0.000777777               0.000000000               0.000000000               0.000000000               0.000000000              -0.000213026               0.004122616               0.001190444              -0.000595211               0.001572595               0.000977384               0.000000000               0.000000000               0.000000000               0.000000000               0.000307110               0.004351492               0.001091967              -0.000428770               0.001593406               0.001164636               0.000000000               0.000000000               0.000000000               0.000000000               0.000840066               0.004536182               0.000994347              -0.000251998               0.001596045               0.001344047               0.000000000               0.000000000               0.000000000               0.000000000               0.001388558               0.004680749               0.000880110              -0.000064385               0.001581696               0.001517311               0.000000000               0.000000000               0.000000000               0.000000000               0.001957654               0.004794540               0.000734158               0.000134801               0.001553230               0.001688032               0.000000000               0.000000000               0.000000000               0.000000000               0.002544753               0.004880310               0.000547135               0.000344240               0.001512007               0.001856247               0.000000000               0.000000000               0.000000000               0.000000000               0.003145228               0.004945942               0.000303432               0.000561212               0.001461560               0.002022772               0.000000000               0.000000000               0.000000000               0.000000000               0.003554740               0.005014856               0.000179570               0.000706163               0.001436214               0.002142378               0.000000000               0.000000000               0.000000000               0.000000000              -0.012979629              -0.001206381              -0.000665518              -0.004716560               0.001170052              -0.003546509               0.000000000               0.000000000               0.000000000               0.000000000              -0.008938742              -0.000633091               0.000011923              -0.003272890               0.000879927              -0.002392963               0.000000000               0.000000000               0.000000000               0.000000000              -0.005758084              -0.000319524               0.000649993              -0.002119340               0.000599934              -0.001519405               0.000000000               0.000000000               0.000000000               0.000000000              -0.004018570               0.000399501               0.000866640              -0.001556900               0.000652129              -0.000904771               0.000000000               0.000000000               0.000000000               0.000000000              -0.002922526               0.001129989               0.000913746              -0.001237194               0.000789055              -0.000448139               0.000000000               0.000000000               0.000000000               0.000000000              -0.002140127               0.001790927               0.000899632              -0.001026411               0.000939106              -0.000087305               0.000000000               0.000000000               0.000000000               0.000000000              -0.001520367               0.002375727               0.000857335              -0.000867102               0.001080935               0.000213833               0.000000000               0.000000000               0.000000000               0.000000000              -0.000975060               0.002885840               0.000801176              -0.000726376               0.001204062               0.000477686               0.000000000               0.000000000               0.000000000               0.000000000              -0.000462720               0.003320635               0.000741819              -0.000588598               0.001303066               0.000714468               0.000000000               0.000000000               0.000000000               0.000000000               0.000044216               0.003690057               0.000683134              -0.000444675               0.001378232               0.000933556               0.000000000               0.000000000               0.000000000               0.000000000               0.000562390               0.004006309               0.000630939              -0.000289892               0.001432053               0.001142161               0.000000000               0.000000000               0.000000000               0.000000000               0.001102774               0.004276987               0.000580358              -0.000121083               0.001466009               0.001344926               0.000000000               0.000000000               0.000000000               0.000000000               0.001676824               0.004504099               0.000520449               0.000065796               0.001479420               0.001545215               0.000000000               0.000000000               0.000000000               0.000000000               0.002301689               0.004688122               0.000442094               0.000277115               0.001470320               0.001747435               0.000000000               0.000000000               0.000000000               0.000000000               0.002994090               0.004828398               0.000337393               0.000519229               0.001436373               0.001955602               0.000000000               0.000000000               0.000000000               0.000000000               0.003771184               0.004927250               0.000192420               0.000798280               0.001376307               0.002174587               0.000000000               0.000000000               0.000000000               0.000000000               0.004351515               0.005025813               0.000118651               0.001003581               0.001340727               0.002344309               0.000000000               0.000000000               0.000000000               0.000000000               0.000000000               0.000000000               0.000000000               0.000000000               0.000000000               0.000000000               0.000000000               0.000000000               0.000000000               0.000000000               0.000000000               0.000000000               0.000000000               0.000000000               0.000000000               0.000000000               0.000000000               0.000000000               0.000000000               0.000000000               0.000000000               0.000000000               0.000000000               0.000000000               0.000000000               0.000000000               0.000000000               0.000000000               0.000000000               0.000000000               0.000000000               0.000000000               0.000000000               0.000000000               0.000000000               0.000000000               0.000000000               0.000000000               0.000000000               0.000000000               0.000000000               0.000000000               0.000000000               0.000000000               0.000000000               0.000000000               0.000000000               0.000000000               0.000000000               0.000000000               0.000000000               0.000000000               0.000000000               0.000000000               0.000000000               0.000000000               0.000000000               0.000000000               0.000000000               0.000000000               0.000000000               0.000000000               0.000000000               0.000000000               0.000000000               0.000000000               0.000000000               0.000000000               0.000000000               0.000000000               0.000000000               0.000000000               0.000000000               0.000000000               0.000000000               0.000000000               0.000000000               0.000000000               0.000000000               0.000000000               0.000000000               0.000000000               0.000000000               0.000000000               0.000000000               0.000000000               0.000000000               0.000000000               0.000000000               0.000000000               0.000000000               0.000000000               0.000000000               0.000000000               0.000000000               0.000000000               0.000000000               0.000000000               0.000000000               0.000000000               0.000000000               0.000000000               0.000000000               0.000000000               0.000000000               0.000000000               0.000000000               0.000000000               0.000000000               0.000000000               0.000000000               0.000000000               0.000000000               0.000000000               0.000000000               0.000000000               0.000000000               0.000000000               0.000000000               0.000000000               0.000000000               0.000000000               0.000000000               0.000000000               0.000000000               0.000000000               0.000000000               0.000000000               0.000000000               0.000000000               0.000000000               0.000000000               0.000000000               0.000000000               0.000000000               0.000000000               0.000000000               0.000000000               0.000000000               0.000000000               0.000000000               0.000000000               0.000000000               0.000000000               0.000000000               0.000000000               0.000000000               0.000000000               0.000000000               0.000000000               0.000000000               0.000000000               0.000000000               0.000000000               0.000000000               0.000000000               0.000000000               0.000000000               0.000000000               0.000000000               0.000000000               0.000000000               0.000000000               0.000000000               0.000000000               0.000000000               0.000000000               0.000000000               0.000000000               0.000000000 </DataArray>
</PointData>
</Piece>
</UnstructuredGrid> </VTKFile>
