<?xml version="1.0"?>
<VTKFile type="UnstructuredGrid" version="0.1">
<UnstructuredGrid>
<Piece NumberOfPoints="      1156" NumberOfCells="      1024">
<Points>
<DataArray type="Float64"                                    Name="coordinates"                                                      NumberOfComponents=" 3" format="ascii">
              0.133000000               0.000000000               0.000000000               0.155937500               0.000000000               0.000000000               0.178875000               0.000000000               0.000000000               0.201812500               0.000000000               0.000000000               0.224750000               0.000000000               0.000000000               0.247687500               0.000000000               0.000000000               0.270625000               0.000000000               0.000000000               0.293562500               0.000000000               0.000000000               0.316500000               0.000000000               0.000000000               0.339437500               0.000000000               0.000000000               0.362375000               0.000000000               0.000000000               0.385312500               0.000000000               0.000000000               0.408250000               0.000000000               0.000000000               0.431187500               0.000000000               0.000000000               0.454125000               0.000000000               0.000000000               0.477062500               0.000000000               0.000000000               0.500000000               0.000000000               0.000000000               0.132359569               0.013036280               0.000000000               0.155337096               0.016127762               0.000000000               0.178314623               0.019219245               0.000000000               0.201292150               0.022310727               0.000000000               0.224269676               0.025402210               0.000000000               0.247247203               0.028493692               0.000000000               0.270224730               0.031585175               0.000000000               0.293202257               0.034676657               0.000000000               0.316179784               0.037768140               0.000000000               0.339157311               0.040859622               0.000000000               0.362134838               0.043951105               0.000000000               0.385112365               0.047042587               0.000000000               0.408089892               0.050134070               0.000000000               0.431067419               0.053225552               0.000000000               0.454044946               0.056317035               0.000000000               0.477022473               0.059408517               0.000000000               0.500000000               0.062500000               0.000000000               0.130444442               0.025947013               0.000000000               0.153541665               0.032137825               0.000000000               0.176638887               0.038328636               0.000000000               0.199736109               0.044519448               0.000000000               0.222833332               0.050710260               0.000000000               0.245930554               0.056901071               0.000000000               0.269027776               0.063091883               0.000000000               0.292124999               0.069282695               0.000000000               0.315222221               0.075473506               0.000000000               0.338319444               0.081664318               0.000000000               0.361416666               0.087855130               0.000000000               0.384513888               0.094045942               0.000000000               0.407611111               0.100236753               0.000000000               0.430708333               0.106427565               0.000000000               0.453805555               0.112618377               0.000000000               0.476902778               0.118809188               0.000000000               0.500000000               0.125000000               0.000000000               0.127273065               0.038607862               0.000000000               0.150568498               0.047913621               0.000000000               0.173863932               0.057219379               0.000000000               0.197159365               0.066525138               0.000000000               0.220454798               0.075830897               0.000000000               0.243750232               0.085136655               0.000000000               0.267045665               0.094442414               0.000000000               0.290341099               0.103748172               0.000000000               0.313636532               0.113053931               0.000000000               0.336931966               0.122359690               0.000000000               0.360227399               0.131665448               0.000000000               0.383522833               0.140971207               0.000000000               0.406818266               0.150276966               0.000000000               0.430113700               0.159582724               0.000000000               0.453409133               0.168888483               0.000000000               0.476704567               0.178194241               0.000000000               0.500000000               0.187500000               0.000000000               0.122875978               0.050896897               0.000000000               0.146446229               0.063340840               0.000000000               0.170016481               0.075784784               0.000000000               0.193586732               0.088228728               0.000000000               0.217156983               0.100672672               0.000000000               0.240727235               0.113116616               0.000000000               0.264297486               0.125560560               0.000000000               0.287867738               0.138004504               0.000000000               0.311437989               0.150448448               0.000000000               0.335008240               0.162892392               0.000000000               0.358578492               0.175336336               0.000000000               0.382148743               0.187780280               0.000000000               0.405718994               0.200224224               0.000000000               0.429289246               0.212668168               0.000000000               0.452859497               0.225112112               0.000000000               0.476429749               0.237556056               0.000000000               0.500000000               0.250000000               0.000000000               0.117295528               0.062695766               0.000000000               0.141214558               0.078308531               0.000000000               0.165133587               0.093921295               0.000000000               0.189052617               0.109534060               0.000000000               0.212971646               0.125146824               0.000000000               0.236890676               0.140759589               0.000000000               0.260809705               0.156372354               0.000000000               0.284728735               0.171985118               0.000000000               0.308647764               0.187597883               0.000000000               0.332566794               0.203210648               0.000000000               0.356485823               0.218823412               0.000000000               0.380404853               0.234436177               0.000000000               0.404323882               0.250048941               0.000000000               0.428242912               0.265661706               0.000000000               0.452161941               0.281274471               0.000000000               0.476080971               0.296887235               0.000000000               0.500000000               0.312500000               0.000000000               0.110585458               0.073890841               0.000000000               0.134923867               0.092710163               0.000000000               0.159262276               0.111529486               0.000000000               0.183600685               0.130348808               0.000000000               0.207939094               0.149168131               0.000000000               0.232277503               0.167987453               0.000000000               0.256615912               0.186806776               0.000000000               0.280954320               0.205626098               0.000000000               0.305292729               0.224445420               0.000000000               0.329631138               0.243264743               0.000000000               0.353969547               0.262084065               0.000000000               0.378307956               0.280903388               0.000000000               0.402646365               0.299722710               0.000000000               0.426984773               0.318542033               0.000000000               0.451323182               0.337361355               0.000000000               0.475661591               0.356180678               0.000000000               0.500000000               0.375000000               0.000000000               0.102810390               0.084374307               0.000000000               0.127634741               0.106444663               0.000000000               0.152459092               0.128515018               0.000000000               0.177283442               0.150585374               0.000000000               0.202107793               0.172655730               0.000000000               0.226932143               0.194726086               0.000000000               0.251756494               0.216796442               0.000000000               0.276580845               0.238866798               0.000000000               0.301405195               0.260937153               0.000000000               0.326229546               0.283007509               0.000000000               0.351053896               0.305077865               0.000000000               0.375878247               0.327148221               0.000000000               0.400702598               0.349218577               0.000000000               0.425526948               0.371288933               0.000000000               0.450351299               0.393359288               0.000000000               0.475175649               0.415429644               0.000000000               0.500000000               0.437500000               0.000000000               0.094045202               0.094045202               0.000000000               0.119417377               0.119417377               0.000000000               0.144789552               0.144789552               0.000000000               0.170161727               0.170161727               0.000000000               0.195533901               0.195533901               0.000000000               0.220906076               0.220906076               0.000000000               0.246278251               0.246278251               0.000000000               0.271650426               0.271650426               0.000000000               0.297022601               0.297022601               0.000000000               0.322394776               0.322394776               0.000000000               0.347766951               0.347766951               0.000000000               0.373139126               0.373139126               0.000000000               0.398511300               0.398511300               0.000000000               0.423883475               0.423883475               0.000000000               0.449255650               0.449255650               0.000000000               0.474627825               0.474627825               0.000000000               0.500000000               0.500000000               0.000000000               0.084374307               0.102810390               0.000000000               0.106444663               0.127634741               0.000000000               0.128515018               0.152459092               0.000000000               0.150585374               0.177283442               0.000000000               0.172655730               0.202107793               0.000000000               0.194726086               0.226932143               0.000000000               0.216796442               0.251756494               0.000000000               0.238866798               0.276580845               0.000000000               0.260937153               0.301405195               0.000000000               0.283007509               0.326229546               0.000000000               0.305077865               0.351053896               0.000000000               0.327148221               0.375878247               0.000000000               0.349218577               0.400702598               0.000000000               0.371288933               0.425526948               0.000000000               0.393359288               0.450351299               0.000000000               0.415429644               0.475175649               0.000000000               0.437500000               0.500000000               0.000000000               0.073890841               0.110585458               0.000000000               0.092710163               0.134923867               0.000000000               0.111529486               0.159262276               0.000000000               0.130348808               0.183600685               0.000000000               0.149168131               0.207939094               0.000000000               0.167987453               0.232277503               0.000000000               0.186806776               0.256615912               0.000000000               0.205626098               0.280954320               0.000000000               0.224445420               0.305292729               0.000000000               0.243264743               0.329631138               0.000000000               0.262084065               0.353969547               0.000000000               0.280903388               0.378307956               0.000000000               0.299722710               0.402646365               0.000000000               0.318542033               0.426984773               0.000000000               0.337361355               0.451323182               0.000000000               0.356180678               0.475661591               0.000000000               0.375000000               0.500000000               0.000000000               0.062695766               0.117295528               0.000000000               0.078308531               0.141214558               0.000000000               0.093921295               0.165133587               0.000000000               0.109534060               0.189052617               0.000000000               0.125146824               0.212971646               0.000000000               0.140759589               0.236890676               0.000000000               0.156372354               0.260809705               0.000000000               0.171985118               0.284728735               0.000000000               0.187597883               0.308647764               0.000000000               0.203210648               0.332566794               0.000000000               0.218823412               0.356485823               0.000000000               0.234436177               0.380404853               0.000000000               0.250048941               0.404323882               0.000000000               0.265661706               0.428242912               0.000000000               0.281274471               0.452161941               0.000000000               0.296887235               0.476080971               0.000000000               0.312500000               0.500000000               0.000000000               0.050896897               0.122875978               0.000000000               0.063340840               0.146446229               0.000000000               0.075784784               0.170016481               0.000000000               0.088228728               0.193586732               0.000000000               0.100672672               0.217156983               0.000000000               0.113116616               0.240727235               0.000000000               0.125560560               0.264297486               0.000000000               0.138004504               0.287867738               0.000000000               0.150448448               0.311437989               0.000000000               0.162892392               0.335008240               0.000000000               0.175336336               0.358578492               0.000000000               0.187780280               0.382148743               0.000000000               0.200224224               0.405718994               0.000000000               0.212668168               0.429289246               0.000000000               0.225112112               0.452859497               0.000000000               0.237556056               0.476429749               0.000000000               0.250000000               0.500000000               0.000000000               0.038607862               0.127273065               0.000000000               0.047913621               0.150568498               0.000000000               0.057219379               0.173863932               0.000000000               0.066525138               0.197159365               0.000000000               0.075830897               0.220454798               0.000000000               0.085136655               0.243750232               0.000000000               0.094442414               0.267045665               0.000000000               0.103748172               0.290341099               0.000000000               0.113053931               0.313636532               0.000000000               0.122359690               0.336931966               0.000000000               0.131665448               0.360227399               0.000000000               0.140971207               0.383522833               0.000000000               0.150276966               0.406818266               0.000000000               0.159582724               0.430113700               0.000000000               0.168888483               0.453409133               0.000000000               0.178194241               0.476704567               0.000000000               0.187500000               0.500000000               0.000000000               0.025947013               0.130444442               0.000000000               0.032137825               0.153541665               0.000000000               0.038328636               0.176638887               0.000000000               0.044519448               0.199736109               0.000000000               0.050710260               0.222833332               0.000000000               0.056901071               0.245930554               0.000000000               0.063091883               0.269027776               0.000000000               0.069282695               0.292124999               0.000000000               0.075473506               0.315222221               0.000000000               0.081664318               0.338319444               0.000000000               0.087855130               0.361416666               0.000000000               0.094045942               0.384513888               0.000000000               0.100236753               0.407611111               0.000000000               0.106427565               0.430708333               0.000000000               0.112618377               0.453805555               0.000000000               0.118809188               0.476902778               0.000000000               0.125000000               0.500000000               0.000000000               0.013036280               0.132359569               0.000000000               0.016127762               0.155337096               0.000000000               0.019219245               0.178314623               0.000000000               0.022310727               0.201292150               0.000000000               0.025402210               0.224269676               0.000000000               0.028493692               0.247247203               0.000000000               0.031585175               0.270224730               0.000000000               0.034676657               0.293202257               0.000000000               0.037768140               0.316179784               0.000000000               0.040859622               0.339157311               0.000000000               0.043951105               0.362134838               0.000000000               0.047042587               0.385112365               0.000000000               0.050134070               0.408089892               0.000000000               0.053225552               0.431067419               0.000000000               0.056317035               0.454044946               0.000000000               0.059408517               0.477022473               0.000000000               0.062500000               0.500000000               0.000000000               0.000000000               0.133000000               0.000000000               0.000000000               0.155937500               0.000000000               0.000000000               0.178875000               0.000000000               0.000000000               0.201812500               0.000000000               0.000000000               0.224750000               0.000000000               0.000000000               0.247687500               0.000000000               0.000000000               0.270625000               0.000000000               0.000000000               0.293562500               0.000000000               0.000000000               0.316500000               0.000000000               0.000000000               0.339437500               0.000000000               0.000000000               0.362375000               0.000000000               0.000000000               0.385312500               0.000000000               0.000000000               0.408250000               0.000000000               0.000000000               0.431187500               0.000000000               0.000000000               0.454125000               0.000000000               0.000000000               0.477062500               0.000000000               0.000000000               0.500000000               0.000000000               0.133000000               0.000000000               0.000000000               0.155937500               0.000000000               0.000000000               0.178875000               0.000000000               0.000000000               0.201812500               0.000000000               0.000000000               0.224750000               0.000000000               0.000000000               0.247687500               0.000000000               0.000000000               0.270625000               0.000000000               0.000000000               0.293562500               0.000000000               0.000000000               0.316500000               0.000000000               0.000000000               0.339437500               0.000000000               0.000000000               0.362375000               0.000000000               0.000000000               0.385312500               0.000000000               0.000000000               0.408250000               0.000000000               0.000000000               0.431187500               0.000000000               0.000000000               0.454125000               0.000000000               0.000000000               0.477062500               0.000000000               0.000000000               0.500000000               0.000000000               0.000000000               0.132359569              -0.013036280               0.000000000               0.155337096              -0.016127762               0.000000000               0.178314623              -0.019219245               0.000000000               0.201292150              -0.022310727               0.000000000               0.224269676              -0.025402210               0.000000000               0.247247203              -0.028493692               0.000000000               0.270224730              -0.031585175               0.000000000               0.293202257              -0.034676657               0.000000000               0.316179784              -0.037768140               0.000000000               0.339157311              -0.040859622               0.000000000               0.362134838              -0.043951105               0.000000000               0.385112365              -0.047042587               0.000000000               0.408089892              -0.050134070               0.000000000               0.431067419              -0.053225552               0.000000000               0.454044946              -0.056317035               0.000000000               0.477022473              -0.059408517               0.000000000               0.500000000              -0.062500000               0.000000000               0.130444442              -0.025947013               0.000000000               0.153541665              -0.032137825               0.000000000               0.176638887              -0.038328636               0.000000000               0.199736109              -0.044519448               0.000000000               0.222833332              -0.050710260               0.000000000               0.245930554              -0.056901071               0.000000000               0.269027776              -0.063091883               0.000000000               0.292124999              -0.069282695               0.000000000               0.315222221              -0.075473506               0.000000000               0.338319444              -0.081664318               0.000000000               0.361416666              -0.087855130               0.000000000               0.384513888              -0.094045942               0.000000000               0.407611111              -0.100236753               0.000000000               0.430708333              -0.106427565               0.000000000               0.453805555              -0.112618377               0.000000000               0.476902778              -0.118809188               0.000000000               0.500000000              -0.125000000               0.000000000               0.127273065              -0.038607862               0.000000000               0.150568498              -0.047913621               0.000000000               0.173863932              -0.057219379               0.000000000               0.197159365              -0.066525138               0.000000000               0.220454798              -0.075830897               0.000000000               0.243750232              -0.085136655               0.000000000               0.267045665              -0.094442414               0.000000000               0.290341099              -0.103748172               0.000000000               0.313636532              -0.113053931               0.000000000               0.336931966              -0.122359690               0.000000000               0.360227399              -0.131665448               0.000000000               0.383522833              -0.140971207               0.000000000               0.406818266              -0.150276966               0.000000000               0.430113700              -0.159582724               0.000000000               0.453409133              -0.168888483               0.000000000               0.476704567              -0.178194241               0.000000000               0.500000000              -0.187500000               0.000000000               0.122875978              -0.050896897               0.000000000               0.146446229              -0.063340840               0.000000000               0.170016481              -0.075784784               0.000000000               0.193586732              -0.088228728               0.000000000               0.217156983              -0.100672672               0.000000000               0.240727235              -0.113116616               0.000000000               0.264297486              -0.125560560               0.000000000               0.287867738              -0.138004504               0.000000000               0.311437989              -0.150448448               0.000000000               0.335008240              -0.162892392               0.000000000               0.358578492              -0.175336336               0.000000000               0.382148743              -0.187780280               0.000000000               0.405718994              -0.200224224               0.000000000               0.429289246              -0.212668168               0.000000000               0.452859497              -0.225112112               0.000000000               0.476429749              -0.237556056               0.000000000               0.500000000              -0.250000000               0.000000000               0.117295528              -0.062695766               0.000000000               0.141214558              -0.078308531               0.000000000               0.165133587              -0.093921295               0.000000000               0.189052617              -0.109534060               0.000000000               0.212971646              -0.125146824               0.000000000               0.236890676              -0.140759589               0.000000000               0.260809705              -0.156372354               0.000000000               0.284728735              -0.171985118               0.000000000               0.308647764              -0.187597883               0.000000000               0.332566794              -0.203210648               0.000000000               0.356485823              -0.218823412               0.000000000               0.380404853              -0.234436177               0.000000000               0.404323882              -0.250048941               0.000000000               0.428242912              -0.265661706               0.000000000               0.452161941              -0.281274471               0.000000000               0.476080971              -0.296887235               0.000000000               0.500000000              -0.312500000               0.000000000               0.110585458              -0.073890841               0.000000000               0.134923867              -0.092710163               0.000000000               0.159262276              -0.111529486               0.000000000               0.183600685              -0.130348808               0.000000000               0.207939094              -0.149168131               0.000000000               0.232277503              -0.167987453               0.000000000               0.256615912              -0.186806776               0.000000000               0.280954320              -0.205626098               0.000000000               0.305292729              -0.224445420               0.000000000               0.329631138              -0.243264743               0.000000000               0.353969547              -0.262084065               0.000000000               0.378307956              -0.280903388               0.000000000               0.402646365              -0.299722710               0.000000000               0.426984773              -0.318542033               0.000000000               0.451323182              -0.337361355               0.000000000               0.475661591              -0.356180678               0.000000000               0.500000000              -0.375000000               0.000000000               0.102810390              -0.084374307               0.000000000               0.127634741              -0.106444663               0.000000000               0.152459092              -0.128515018               0.000000000               0.177283442              -0.150585374               0.000000000               0.202107793              -0.172655730               0.000000000               0.226932143              -0.194726086               0.000000000               0.251756494              -0.216796442               0.000000000               0.276580845              -0.238866798               0.000000000               0.301405195              -0.260937153               0.000000000               0.326229546              -0.283007509               0.000000000               0.351053896              -0.305077865               0.000000000               0.375878247              -0.327148221               0.000000000               0.400702598              -0.349218577               0.000000000               0.425526948              -0.371288933               0.000000000               0.450351299              -0.393359288               0.000000000               0.475175649              -0.415429644               0.000000000               0.500000000              -0.437500000               0.000000000               0.094045202              -0.094045202               0.000000000               0.119417377              -0.119417377               0.000000000               0.144789552              -0.144789552               0.000000000               0.170161727              -0.170161727               0.000000000               0.195533901              -0.195533901               0.000000000               0.220906076              -0.220906076               0.000000000               0.246278251              -0.246278251               0.000000000               0.271650426              -0.271650426               0.000000000               0.297022601              -0.297022601               0.000000000               0.322394776              -0.322394776               0.000000000               0.347766951              -0.347766951               0.000000000               0.373139126              -0.373139126               0.000000000               0.398511300              -0.398511300               0.000000000               0.423883475              -0.423883475               0.000000000               0.449255650              -0.449255650               0.000000000               0.474627825              -0.474627825               0.000000000               0.500000000              -0.500000000               0.000000000               0.084374307              -0.102810390               0.000000000               0.106444663              -0.127634741               0.000000000               0.128515018              -0.152459092               0.000000000               0.150585374              -0.177283442               0.000000000               0.172655730              -0.202107793               0.000000000               0.194726086              -0.226932143               0.000000000               0.216796442              -0.251756494               0.000000000               0.238866798              -0.276580845               0.000000000               0.260937153              -0.301405195               0.000000000               0.283007509              -0.326229546               0.000000000               0.305077865              -0.351053896               0.000000000               0.327148221              -0.375878247               0.000000000               0.349218577              -0.400702598               0.000000000               0.371288933              -0.425526948               0.000000000               0.393359288              -0.450351299               0.000000000               0.415429644              -0.475175649               0.000000000               0.437500000              -0.500000000               0.000000000               0.073890841              -0.110585458               0.000000000               0.092710163              -0.134923867               0.000000000               0.111529486              -0.159262276               0.000000000               0.130348808              -0.183600685               0.000000000               0.149168131              -0.207939094               0.000000000               0.167987453              -0.232277503               0.000000000               0.186806776              -0.256615912               0.000000000               0.205626098              -0.280954320               0.000000000               0.224445420              -0.305292729               0.000000000               0.243264743              -0.329631138               0.000000000               0.262084065              -0.353969547               0.000000000               0.280903388              -0.378307956               0.000000000               0.299722710              -0.402646365               0.000000000               0.318542033              -0.426984773               0.000000000               0.337361355              -0.451323182               0.000000000               0.356180678              -0.475661591               0.000000000               0.375000000              -0.500000000               0.000000000               0.062695766              -0.117295528               0.000000000               0.078308531              -0.141214558               0.000000000               0.093921295              -0.165133587               0.000000000               0.109534060              -0.189052617               0.000000000               0.125146824              -0.212971646               0.000000000               0.140759589              -0.236890676               0.000000000               0.156372354              -0.260809705               0.000000000               0.171985118              -0.284728735               0.000000000               0.187597883              -0.308647764               0.000000000               0.203210648              -0.332566794               0.000000000               0.218823412              -0.356485823               0.000000000               0.234436177              -0.380404853               0.000000000               0.250048941              -0.404323882               0.000000000               0.265661706              -0.428242912               0.000000000               0.281274471              -0.452161941               0.000000000               0.296887235              -0.476080971               0.000000000               0.312500000              -0.500000000               0.000000000               0.050896897              -0.122875978               0.000000000               0.063340840              -0.146446229               0.000000000               0.075784784              -0.170016481               0.000000000               0.088228728              -0.193586732               0.000000000               0.100672672              -0.217156983               0.000000000               0.113116616              -0.240727235               0.000000000               0.125560560              -0.264297486               0.000000000               0.138004504              -0.287867738               0.000000000               0.150448448              -0.311437989               0.000000000               0.162892392              -0.335008240               0.000000000               0.175336336              -0.358578492               0.000000000               0.187780280              -0.382148743               0.000000000               0.200224224              -0.405718994               0.000000000               0.212668168              -0.429289246               0.000000000               0.225112112              -0.452859497               0.000000000               0.237556056              -0.476429749               0.000000000               0.250000000              -0.500000000               0.000000000               0.038607862              -0.127273065               0.000000000               0.047913621              -0.150568498               0.000000000               0.057219379              -0.173863932               0.000000000               0.066525138              -0.197159365               0.000000000               0.075830897              -0.220454798               0.000000000               0.085136655              -0.243750232               0.000000000               0.094442414              -0.267045665               0.000000000               0.103748172              -0.290341099               0.000000000               0.113053931              -0.313636532               0.000000000               0.122359690              -0.336931966               0.000000000               0.131665448              -0.360227399               0.000000000               0.140971207              -0.383522833               0.000000000               0.150276966              -0.406818266               0.000000000               0.159582724              -0.430113700               0.000000000               0.168888483              -0.453409133               0.000000000               0.178194241              -0.476704567               0.000000000               0.187500000              -0.500000000               0.000000000               0.025947013              -0.130444442               0.000000000               0.032137825              -0.153541665               0.000000000               0.038328636              -0.176638887               0.000000000               0.044519448              -0.199736109               0.000000000               0.050710260              -0.222833332               0.000000000               0.056901071              -0.245930554               0.000000000               0.063091883              -0.269027776               0.000000000               0.069282695              -0.292124999               0.000000000               0.075473506              -0.315222221               0.000000000               0.081664318              -0.338319444               0.000000000               0.087855130              -0.361416666               0.000000000               0.094045942              -0.384513888               0.000000000               0.100236753              -0.407611111               0.000000000               0.106427565              -0.430708333               0.000000000               0.112618377              -0.453805555               0.000000000               0.118809188              -0.476902778               0.000000000               0.125000000              -0.500000000               0.000000000               0.013036280              -0.132359569               0.000000000               0.016127762              -0.155337096               0.000000000               0.019219245              -0.178314623               0.000000000               0.022310727              -0.201292150               0.000000000               0.025402210              -0.224269676               0.000000000               0.028493692              -0.247247203               0.000000000               0.031585175              -0.270224730               0.000000000               0.034676657              -0.293202257               0.000000000               0.037768140              -0.316179784               0.000000000               0.040859622              -0.339157311               0.000000000               0.043951105              -0.362134838               0.000000000               0.047042587              -0.385112365               0.000000000               0.050134070              -0.408089892               0.000000000               0.053225552              -0.431067419               0.000000000               0.056317035              -0.454044946               0.000000000               0.059408517              -0.477022473               0.000000000               0.062500000              -0.500000000               0.000000000               0.000000000              -0.133000000               0.000000000               0.000000000              -0.155937500               0.000000000               0.000000000              -0.178875000               0.000000000               0.000000000              -0.201812500               0.000000000               0.000000000              -0.224750000               0.000000000               0.000000000              -0.247687500               0.000000000               0.000000000              -0.270625000               0.000000000               0.000000000              -0.293562500               0.000000000               0.000000000              -0.316500000               0.000000000               0.000000000              -0.339437500               0.000000000               0.000000000              -0.362375000               0.000000000               0.000000000              -0.385312500               0.000000000               0.000000000              -0.408250000               0.000000000               0.000000000              -0.431187500               0.000000000               0.000000000              -0.454125000               0.000000000               0.000000000              -0.477062500               0.000000000               0.000000000              -0.500000000               0.000000000              -0.133000000               0.000000000               0.000000000              -0.155937500               0.000000000               0.000000000              -0.178875000               0.000000000               0.000000000              -0.201812500               0.000000000               0.000000000              -0.224750000               0.000000000               0.000000000              -0.247687500               0.000000000               0.000000000              -0.270625000               0.000000000               0.000000000              -0.293562500               0.000000000               0.000000000              -0.316500000               0.000000000               0.000000000              -0.339437500               0.000000000               0.000000000              -0.362375000               0.000000000               0.000000000              -0.385312500               0.000000000               0.000000000              -0.408250000               0.000000000               0.000000000              -0.431187500               0.000000000               0.000000000              -0.454125000               0.000000000               0.000000000              -0.477062500               0.000000000               0.000000000              -0.500000000               0.000000000               0.000000000              -0.132359569              -0.013036280               0.000000000              -0.155337096              -0.016127762               0.000000000              -0.178314623              -0.019219245               0.000000000              -0.201292150              -0.022310727               0.000000000              -0.224269676              -0.025402210               0.000000000              -0.247247203              -0.028493692               0.000000000              -0.270224730              -0.031585175               0.000000000              -0.293202257              -0.034676657               0.000000000              -0.316179784              -0.037768140               0.000000000              -0.339157311              -0.040859622               0.000000000              -0.362134838              -0.043951105               0.000000000              -0.385112365              -0.047042587               0.000000000              -0.408089892              -0.050134070               0.000000000              -0.431067419              -0.053225552               0.000000000              -0.454044946              -0.056317035               0.000000000              -0.477022473              -0.059408517               0.000000000              -0.500000000              -0.062500000               0.000000000              -0.130444442              -0.025947013               0.000000000              -0.153541665              -0.032137825               0.000000000              -0.176638887              -0.038328636               0.000000000              -0.199736109              -0.044519448               0.000000000              -0.222833332              -0.050710260               0.000000000              -0.245930554              -0.056901071               0.000000000              -0.269027776              -0.063091883               0.000000000              -0.292124999              -0.069282695               0.000000000              -0.315222221              -0.075473506               0.000000000              -0.338319444              -0.081664318               0.000000000              -0.361416666              -0.087855130               0.000000000              -0.384513888              -0.094045942               0.000000000              -0.407611111              -0.100236753               0.000000000              -0.430708333              -0.106427565               0.000000000              -0.453805555              -0.112618377               0.000000000              -0.476902778              -0.118809188               0.000000000              -0.500000000              -0.125000000               0.000000000              -0.127273065              -0.038607862               0.000000000              -0.150568498              -0.047913621               0.000000000              -0.173863932              -0.057219379               0.000000000              -0.197159365              -0.066525138               0.000000000              -0.220454798              -0.075830897               0.000000000              -0.243750232              -0.085136655               0.000000000              -0.267045665              -0.094442414               0.000000000              -0.290341099              -0.103748172               0.000000000              -0.313636532              -0.113053931               0.000000000              -0.336931966              -0.122359690               0.000000000              -0.360227399              -0.131665448               0.000000000              -0.383522833              -0.140971207               0.000000000              -0.406818266              -0.150276966               0.000000000              -0.430113700              -0.159582724               0.000000000              -0.453409133              -0.168888483               0.000000000              -0.476704567              -0.178194241               0.000000000              -0.500000000              -0.187500000               0.000000000              -0.122875978              -0.050896897               0.000000000              -0.146446229              -0.063340840               0.000000000              -0.170016481              -0.075784784               0.000000000              -0.193586732              -0.088228728               0.000000000              -0.217156983              -0.100672672               0.000000000              -0.240727235              -0.113116616               0.000000000              -0.264297486              -0.125560560               0.000000000              -0.287867738              -0.138004504               0.000000000              -0.311437989              -0.150448448               0.000000000              -0.335008240              -0.162892392               0.000000000              -0.358578492              -0.175336336               0.000000000              -0.382148743              -0.187780280               0.000000000              -0.405718994              -0.200224224               0.000000000              -0.429289246              -0.212668168               0.000000000              -0.452859497              -0.225112112               0.000000000              -0.476429749              -0.237556056               0.000000000              -0.500000000              -0.250000000               0.000000000              -0.117295528              -0.062695766               0.000000000              -0.141214558              -0.078308531               0.000000000              -0.165133587              -0.093921295               0.000000000              -0.189052617              -0.109534060               0.000000000              -0.212971646              -0.125146824               0.000000000              -0.236890676              -0.140759589               0.000000000              -0.260809705              -0.156372354               0.000000000              -0.284728735              -0.171985118               0.000000000              -0.308647764              -0.187597883               0.000000000              -0.332566794              -0.203210648               0.000000000              -0.356485823              -0.218823412               0.000000000              -0.380404853              -0.234436177               0.000000000              -0.404323882              -0.250048941               0.000000000              -0.428242912              -0.265661706               0.000000000              -0.452161941              -0.281274471               0.000000000              -0.476080971              -0.296887235               0.000000000              -0.500000000              -0.312500000               0.000000000              -0.110585458              -0.073890841               0.000000000              -0.134923867              -0.092710163               0.000000000              -0.159262276              -0.111529486               0.000000000              -0.183600685              -0.130348808               0.000000000              -0.207939094              -0.149168131               0.000000000              -0.232277503              -0.167987453               0.000000000              -0.256615912              -0.186806776               0.000000000              -0.280954320              -0.205626098               0.000000000              -0.305292729              -0.224445420               0.000000000              -0.329631138              -0.243264743               0.000000000              -0.353969547              -0.262084065               0.000000000              -0.378307956              -0.280903388               0.000000000              -0.402646365              -0.299722710               0.000000000              -0.426984773              -0.318542033               0.000000000              -0.451323182              -0.337361355               0.000000000              -0.475661591              -0.356180678               0.000000000              -0.500000000              -0.375000000               0.000000000              -0.102810390              -0.084374307               0.000000000              -0.127634741              -0.106444663               0.000000000              -0.152459092              -0.128515018               0.000000000              -0.177283442              -0.150585374               0.000000000              -0.202107793              -0.172655730               0.000000000              -0.226932143              -0.194726086               0.000000000              -0.251756494              -0.216796442               0.000000000              -0.276580845              -0.238866798               0.000000000              -0.301405195              -0.260937153               0.000000000              -0.326229546              -0.283007509               0.000000000              -0.351053896              -0.305077865               0.000000000              -0.375878247              -0.327148221               0.000000000              -0.400702598              -0.349218577               0.000000000              -0.425526948              -0.371288933               0.000000000              -0.450351299              -0.393359288               0.000000000              -0.475175649              -0.415429644               0.000000000              -0.500000000              -0.437500000               0.000000000              -0.094045202              -0.094045202               0.000000000              -0.119417377              -0.119417377               0.000000000              -0.144789552              -0.144789552               0.000000000              -0.170161727              -0.170161727               0.000000000              -0.195533901              -0.195533901               0.000000000              -0.220906076              -0.220906076               0.000000000              -0.246278251              -0.246278251               0.000000000              -0.271650426              -0.271650426               0.000000000              -0.297022601              -0.297022601               0.000000000              -0.322394776              -0.322394776               0.000000000              -0.347766951              -0.347766951               0.000000000              -0.373139126              -0.373139126               0.000000000              -0.398511300              -0.398511300               0.000000000              -0.423883475              -0.423883475               0.000000000              -0.449255650              -0.449255650               0.000000000              -0.474627825              -0.474627825               0.000000000              -0.500000000              -0.500000000               0.000000000              -0.084374307              -0.102810390               0.000000000              -0.106444663              -0.127634741               0.000000000              -0.128515018              -0.152459092               0.000000000              -0.150585374              -0.177283442               0.000000000              -0.172655730              -0.202107793               0.000000000              -0.194726086              -0.226932143               0.000000000              -0.216796442              -0.251756494               0.000000000              -0.238866798              -0.276580845               0.000000000              -0.260937153              -0.301405195               0.000000000              -0.283007509              -0.326229546               0.000000000              -0.305077865              -0.351053896               0.000000000              -0.327148221              -0.375878247               0.000000000              -0.349218577              -0.400702598               0.000000000              -0.371288933              -0.425526948               0.000000000              -0.393359288              -0.450351299               0.000000000              -0.415429644              -0.475175649               0.000000000              -0.437500000              -0.500000000               0.000000000              -0.073890841              -0.110585458               0.000000000              -0.092710163              -0.134923867               0.000000000              -0.111529486              -0.159262276               0.000000000              -0.130348808              -0.183600685               0.000000000              -0.149168131              -0.207939094               0.000000000              -0.167987453              -0.232277503               0.000000000              -0.186806776              -0.256615912               0.000000000              -0.205626098              -0.280954320               0.000000000              -0.224445420              -0.305292729               0.000000000              -0.243264743              -0.329631138               0.000000000              -0.262084065              -0.353969547               0.000000000              -0.280903388              -0.378307956               0.000000000              -0.299722710              -0.402646365               0.000000000              -0.318542033              -0.426984773               0.000000000              -0.337361355              -0.451323182               0.000000000              -0.356180678              -0.475661591               0.000000000              -0.375000000              -0.500000000               0.000000000              -0.062695766              -0.117295528               0.000000000              -0.078308531              -0.141214558               0.000000000              -0.093921295              -0.165133587               0.000000000              -0.109534060              -0.189052617               0.000000000              -0.125146824              -0.212971646               0.000000000              -0.140759589              -0.236890676               0.000000000              -0.156372354              -0.260809705               0.000000000              -0.171985118              -0.284728735               0.000000000              -0.187597883              -0.308647764               0.000000000              -0.203210648              -0.332566794               0.000000000              -0.218823412              -0.356485823               0.000000000              -0.234436177              -0.380404853               0.000000000              -0.250048941              -0.404323882               0.000000000              -0.265661706              -0.428242912               0.000000000              -0.281274471              -0.452161941               0.000000000              -0.296887235              -0.476080971               0.000000000              -0.312500000              -0.500000000               0.000000000              -0.050896897              -0.122875978               0.000000000              -0.063340840              -0.146446229               0.000000000              -0.075784784              -0.170016481               0.000000000              -0.088228728              -0.193586732               0.000000000              -0.100672672              -0.217156983               0.000000000              -0.113116616              -0.240727235               0.000000000              -0.125560560              -0.264297486               0.000000000              -0.138004504              -0.287867738               0.000000000              -0.150448448              -0.311437989               0.000000000              -0.162892392              -0.335008240               0.000000000              -0.175336336              -0.358578492               0.000000000              -0.187780280              -0.382148743               0.000000000              -0.200224224              -0.405718994               0.000000000              -0.212668168              -0.429289246               0.000000000              -0.225112112              -0.452859497               0.000000000              -0.237556056              -0.476429749               0.000000000              -0.250000000              -0.500000000               0.000000000              -0.038607862              -0.127273065               0.000000000              -0.047913621              -0.150568498               0.000000000              -0.057219379              -0.173863932               0.000000000              -0.066525138              -0.197159365               0.000000000              -0.075830897              -0.220454798               0.000000000              -0.085136655              -0.243750232               0.000000000              -0.094442414              -0.267045665               0.000000000              -0.103748172              -0.290341099               0.000000000              -0.113053931              -0.313636532               0.000000000              -0.122359690              -0.336931966               0.000000000              -0.131665448              -0.360227399               0.000000000              -0.140971207              -0.383522833               0.000000000              -0.150276966              -0.406818266               0.000000000              -0.159582724              -0.430113700               0.000000000              -0.168888483              -0.453409133               0.000000000              -0.178194241              -0.476704567               0.000000000              -0.187500000              -0.500000000               0.000000000              -0.025947013              -0.130444442               0.000000000              -0.032137825              -0.153541665               0.000000000              -0.038328636              -0.176638887               0.000000000              -0.044519448              -0.199736109               0.000000000              -0.050710260              -0.222833332               0.000000000              -0.056901071              -0.245930554               0.000000000              -0.063091883              -0.269027776               0.000000000              -0.069282695              -0.292124999               0.000000000              -0.075473506              -0.315222221               0.000000000              -0.081664318              -0.338319444               0.000000000              -0.087855130              -0.361416666               0.000000000              -0.094045942              -0.384513888               0.000000000              -0.100236753              -0.407611111               0.000000000              -0.106427565              -0.430708333               0.000000000              -0.112618377              -0.453805555               0.000000000              -0.118809188              -0.476902778               0.000000000              -0.125000000              -0.500000000               0.000000000              -0.013036280              -0.132359569               0.000000000              -0.016127762              -0.155337096               0.000000000              -0.019219245              -0.178314623               0.000000000              -0.022310727              -0.201292150               0.000000000              -0.025402210              -0.224269676               0.000000000              -0.028493692              -0.247247203               0.000000000              -0.031585175              -0.270224730               0.000000000              -0.034676657              -0.293202257               0.000000000              -0.037768140              -0.316179784               0.000000000              -0.040859622              -0.339157311               0.000000000              -0.043951105              -0.362134838               0.000000000              -0.047042587              -0.385112365               0.000000000              -0.050134070              -0.408089892               0.000000000              -0.053225552              -0.431067419               0.000000000              -0.056317035              -0.454044946               0.000000000              -0.059408517              -0.477022473               0.000000000              -0.062500000              -0.500000000               0.000000000               0.000000000              -0.133000000               0.000000000               0.000000000              -0.155937500               0.000000000               0.000000000              -0.178875000               0.000000000               0.000000000              -0.201812500               0.000000000               0.000000000              -0.224750000               0.000000000               0.000000000              -0.247687500               0.000000000               0.000000000              -0.270625000               0.000000000               0.000000000              -0.293562500               0.000000000               0.000000000              -0.316500000               0.000000000               0.000000000              -0.339437500               0.000000000               0.000000000              -0.362375000               0.000000000               0.000000000              -0.385312500               0.000000000               0.000000000              -0.408250000               0.000000000               0.000000000              -0.431187500               0.000000000               0.000000000              -0.454125000               0.000000000               0.000000000              -0.477062500               0.000000000               0.000000000              -0.500000000               0.000000000              -0.133000000               0.000000000               0.000000000              -0.155937500               0.000000000               0.000000000              -0.178875000               0.000000000               0.000000000              -0.201812500               0.000000000               0.000000000              -0.224750000               0.000000000               0.000000000              -0.247687500               0.000000000               0.000000000              -0.270625000               0.000000000               0.000000000              -0.293562500               0.000000000               0.000000000              -0.316500000               0.000000000               0.000000000              -0.339437500               0.000000000               0.000000000              -0.362375000               0.000000000               0.000000000              -0.385312500               0.000000000               0.000000000              -0.408250000               0.000000000               0.000000000              -0.431187500               0.000000000               0.000000000              -0.454125000               0.000000000               0.000000000              -0.477062500               0.000000000               0.000000000              -0.500000000               0.000000000               0.000000000              -0.132359569               0.013036280               0.000000000              -0.155337096               0.016127762               0.000000000              -0.178314623               0.019219245               0.000000000              -0.201292150               0.022310727               0.000000000              -0.224269676               0.025402210               0.000000000              -0.247247203               0.028493692               0.000000000              -0.270224730               0.031585175               0.000000000              -0.293202257               0.034676657               0.000000000              -0.316179784               0.037768140               0.000000000              -0.339157311               0.040859622               0.000000000              -0.362134838               0.043951105               0.000000000              -0.385112365               0.047042587               0.000000000              -0.408089892               0.050134070               0.000000000              -0.431067419               0.053225552               0.000000000              -0.454044946               0.056317035               0.000000000              -0.477022473               0.059408517               0.000000000              -0.500000000               0.062500000               0.000000000              -0.130444442               0.025947013               0.000000000              -0.153541665               0.032137825               0.000000000              -0.176638887               0.038328636               0.000000000              -0.199736109               0.044519448               0.000000000              -0.222833332               0.050710260               0.000000000              -0.245930554               0.056901071               0.000000000              -0.269027776               0.063091883               0.000000000              -0.292124999               0.069282695               0.000000000              -0.315222221               0.075473506               0.000000000              -0.338319444               0.081664318               0.000000000              -0.361416666               0.087855130               0.000000000              -0.384513888               0.094045942               0.000000000              -0.407611111               0.100236753               0.000000000              -0.430708333               0.106427565               0.000000000              -0.453805555               0.112618377               0.000000000              -0.476902778               0.118809188               0.000000000              -0.500000000               0.125000000               0.000000000              -0.127273065               0.038607862               0.000000000              -0.150568498               0.047913621               0.000000000              -0.173863932               0.057219379               0.000000000              -0.197159365               0.066525138               0.000000000              -0.220454798               0.075830897               0.000000000              -0.243750232               0.085136655               0.000000000              -0.267045665               0.094442414               0.000000000              -0.290341099               0.103748172               0.000000000              -0.313636532               0.113053931               0.000000000              -0.336931966               0.122359690               0.000000000              -0.360227399               0.131665448               0.000000000              -0.383522833               0.140971207               0.000000000              -0.406818266               0.150276966               0.000000000              -0.430113700               0.159582724               0.000000000              -0.453409133               0.168888483               0.000000000              -0.476704567               0.178194241               0.000000000              -0.500000000               0.187500000               0.000000000              -0.122875978               0.050896897               0.000000000              -0.146446229               0.063340840               0.000000000              -0.170016481               0.075784784               0.000000000              -0.193586732               0.088228728               0.000000000              -0.217156983               0.100672672               0.000000000              -0.240727235               0.113116616               0.000000000              -0.264297486               0.125560560               0.000000000              -0.287867738               0.138004504               0.000000000              -0.311437989               0.150448448               0.000000000              -0.335008240               0.162892392               0.000000000              -0.358578492               0.175336336               0.000000000              -0.382148743               0.187780280               0.000000000              -0.405718994               0.200224224               0.000000000              -0.429289246               0.212668168               0.000000000              -0.452859497               0.225112112               0.000000000              -0.476429749               0.237556056               0.000000000              -0.500000000               0.250000000               0.000000000              -0.117295528               0.062695766               0.000000000              -0.141214558               0.078308531               0.000000000              -0.165133587               0.093921295               0.000000000              -0.189052617               0.109534060               0.000000000              -0.212971646               0.125146824               0.000000000              -0.236890676               0.140759589               0.000000000              -0.260809705               0.156372354               0.000000000              -0.284728735               0.171985118               0.000000000              -0.308647764               0.187597883               0.000000000              -0.332566794               0.203210648               0.000000000              -0.356485823               0.218823412               0.000000000              -0.380404853               0.234436177               0.000000000              -0.404323882               0.250048941               0.000000000              -0.428242912               0.265661706               0.000000000              -0.452161941               0.281274471               0.000000000              -0.476080971               0.296887235               0.000000000              -0.500000000               0.312500000               0.000000000              -0.110585458               0.073890841               0.000000000              -0.134923867               0.092710163               0.000000000              -0.159262276               0.111529486               0.000000000              -0.183600685               0.130348808               0.000000000              -0.207939094               0.149168131               0.000000000              -0.232277503               0.167987453               0.000000000              -0.256615912               0.186806776               0.000000000              -0.280954320               0.205626098               0.000000000              -0.305292729               0.224445420               0.000000000              -0.329631138               0.243264743               0.000000000              -0.353969547               0.262084065               0.000000000              -0.378307956               0.280903388               0.000000000              -0.402646365               0.299722710               0.000000000              -0.426984773               0.318542033               0.000000000              -0.451323182               0.337361355               0.000000000              -0.475661591               0.356180678               0.000000000              -0.500000000               0.375000000               0.000000000              -0.102810390               0.084374307               0.000000000              -0.127634741               0.106444663               0.000000000              -0.152459092               0.128515018               0.000000000              -0.177283442               0.150585374               0.000000000              -0.202107793               0.172655730               0.000000000              -0.226932143               0.194726086               0.000000000              -0.251756494               0.216796442               0.000000000              -0.276580845               0.238866798               0.000000000              -0.301405195               0.260937153               0.000000000              -0.326229546               0.283007509               0.000000000              -0.351053896               0.305077865               0.000000000              -0.375878247               0.327148221               0.000000000              -0.400702598               0.349218577               0.000000000              -0.425526948               0.371288933               0.000000000              -0.450351299               0.393359288               0.000000000              -0.475175649               0.415429644               0.000000000              -0.500000000               0.437500000               0.000000000              -0.094045202               0.094045202               0.000000000              -0.119417377               0.119417377               0.000000000              -0.144789552               0.144789552               0.000000000              -0.170161727               0.170161727               0.000000000              -0.195533901               0.195533901               0.000000000              -0.220906076               0.220906076               0.000000000              -0.246278251               0.246278251               0.000000000              -0.271650426               0.271650426               0.000000000              -0.297022601               0.297022601               0.000000000              -0.322394776               0.322394776               0.000000000              -0.347766951               0.347766951               0.000000000              -0.373139126               0.373139126               0.000000000              -0.398511300               0.398511300               0.000000000              -0.423883475               0.423883475               0.000000000              -0.449255650               0.449255650               0.000000000              -0.474627825               0.474627825               0.000000000              -0.500000000               0.500000000               0.000000000              -0.084374307               0.102810390               0.000000000              -0.106444663               0.127634741               0.000000000              -0.128515018               0.152459092               0.000000000              -0.150585374               0.177283442               0.000000000              -0.172655730               0.202107793               0.000000000              -0.194726086               0.226932143               0.000000000              -0.216796442               0.251756494               0.000000000              -0.238866798               0.276580845               0.000000000              -0.260937153               0.301405195               0.000000000              -0.283007509               0.326229546               0.000000000              -0.305077865               0.351053896               0.000000000              -0.327148221               0.375878247               0.000000000              -0.349218577               0.400702598               0.000000000              -0.371288933               0.425526948               0.000000000              -0.393359288               0.450351299               0.000000000              -0.415429644               0.475175649               0.000000000              -0.437500000               0.500000000               0.000000000              -0.073890841               0.110585458               0.000000000              -0.092710163               0.134923867               0.000000000              -0.111529486               0.159262276               0.000000000              -0.130348808               0.183600685               0.000000000              -0.149168131               0.207939094               0.000000000              -0.167987453               0.232277503               0.000000000              -0.186806776               0.256615912               0.000000000              -0.205626098               0.280954320               0.000000000              -0.224445420               0.305292729               0.000000000              -0.243264743               0.329631138               0.000000000              -0.262084065               0.353969547               0.000000000              -0.280903388               0.378307956               0.000000000              -0.299722710               0.402646365               0.000000000              -0.318542033               0.426984773               0.000000000              -0.337361355               0.451323182               0.000000000              -0.356180678               0.475661591               0.000000000              -0.375000000               0.500000000               0.000000000              -0.062695766               0.117295528               0.000000000              -0.078308531               0.141214558               0.000000000              -0.093921295               0.165133587               0.000000000              -0.109534060               0.189052617               0.000000000              -0.125146824               0.212971646               0.000000000              -0.140759589               0.236890676               0.000000000              -0.156372354               0.260809705               0.000000000              -0.171985118               0.284728735               0.000000000              -0.187597883               0.308647764               0.000000000              -0.203210648               0.332566794               0.000000000              -0.218823412               0.356485823               0.000000000              -0.234436177               0.380404853               0.000000000              -0.250048941               0.404323882               0.000000000              -0.265661706               0.428242912               0.000000000              -0.281274471               0.452161941               0.000000000              -0.296887235               0.476080971               0.000000000              -0.312500000               0.500000000               0.000000000              -0.050896897               0.122875978               0.000000000              -0.063340840               0.146446229               0.000000000              -0.075784784               0.170016481               0.000000000              -0.088228728               0.193586732               0.000000000              -0.100672672               0.217156983               0.000000000              -0.113116616               0.240727235               0.000000000              -0.125560560               0.264297486               0.000000000              -0.138004504               0.287867738               0.000000000              -0.150448448               0.311437989               0.000000000              -0.162892392               0.335008240               0.000000000              -0.175336336               0.358578492               0.000000000              -0.187780280               0.382148743               0.000000000              -0.200224224               0.405718994               0.000000000              -0.212668168               0.429289246               0.000000000              -0.225112112               0.452859497               0.000000000              -0.237556056               0.476429749               0.000000000              -0.250000000               0.500000000               0.000000000              -0.038607862               0.127273065               0.000000000              -0.047913621               0.150568498               0.000000000              -0.057219379               0.173863932               0.000000000              -0.066525138               0.197159365               0.000000000              -0.075830897               0.220454798               0.000000000              -0.085136655               0.243750232               0.000000000              -0.094442414               0.267045665               0.000000000              -0.103748172               0.290341099               0.000000000              -0.113053931               0.313636532               0.000000000              -0.122359690               0.336931966               0.000000000              -0.131665448               0.360227399               0.000000000              -0.140971207               0.383522833               0.000000000              -0.150276966               0.406818266               0.000000000              -0.159582724               0.430113700               0.000000000              -0.168888483               0.453409133               0.000000000              -0.178194241               0.476704567               0.000000000              -0.187500000               0.500000000               0.000000000              -0.025947013               0.130444442               0.000000000              -0.032137825               0.153541665               0.000000000              -0.038328636               0.176638887               0.000000000              -0.044519448               0.199736109               0.000000000              -0.050710260               0.222833332               0.000000000              -0.056901071               0.245930554               0.000000000              -0.063091883               0.269027776               0.000000000              -0.069282695               0.292124999               0.000000000              -0.075473506               0.315222221               0.000000000              -0.081664318               0.338319444               0.000000000              -0.087855130               0.361416666               0.000000000              -0.094045942               0.384513888               0.000000000              -0.100236753               0.407611111               0.000000000              -0.106427565               0.430708333               0.000000000              -0.112618377               0.453805555               0.000000000              -0.118809188               0.476902778               0.000000000              -0.125000000               0.500000000               0.000000000              -0.013036280               0.132359569               0.000000000              -0.016127762               0.155337096               0.000000000              -0.019219245               0.178314623               0.000000000              -0.022310727               0.201292150               0.000000000              -0.025402210               0.224269676               0.000000000              -0.028493692               0.247247203               0.000000000              -0.031585175               0.270224730               0.000000000              -0.034676657               0.293202257               0.000000000              -0.037768140               0.316179784               0.000000000              -0.040859622               0.339157311               0.000000000              -0.043951105               0.362134838               0.000000000              -0.047042587               0.385112365               0.000000000              -0.050134070               0.408089892               0.000000000              -0.053225552               0.431067419               0.000000000              -0.056317035               0.454044946               0.000000000              -0.059408517               0.477022473               0.000000000              -0.062500000               0.500000000               0.000000000               0.000000000               0.133000000               0.000000000               0.000000000               0.155937500               0.000000000               0.000000000               0.178875000               0.000000000               0.000000000               0.201812500               0.000000000               0.000000000               0.224750000               0.000000000               0.000000000               0.247687500               0.000000000               0.000000000               0.270625000               0.000000000               0.000000000               0.293562500               0.000000000               0.000000000               0.316500000               0.000000000               0.000000000               0.339437500               0.000000000               0.000000000               0.362375000               0.000000000               0.000000000               0.385312500               0.000000000               0.000000000               0.408250000               0.000000000               0.000000000               0.431187500               0.000000000               0.000000000               0.454125000               0.000000000               0.000000000               0.477062500               0.000000000               0.000000000               0.500000000               0.000000000 </DataArray>
</Points>
<Cells>
<DataArray type="Int32"                                    Name="connectivity"                                                      NumberOfComponents=" 1" format="ascii">
         0          1         18         17          1          2         19         18          2          3         20         19          3          4         21         20          4          5         22         21          5          6         23         22          6          7         24         23          7          8         25         24          8          9         26         25          9         10         27         26         10         11         28         27         11         12         29         28         12         13         30         29         13         14         31         30         14         15         32         31         15         16         33         32         17         18         35         34         18         19         36         35         19         20         37         36         20         21         38         37         21         22         39         38         22         23         40         39         23         24         41         40         24         25         42         41         25         26         43         42         26         27         44         43         27         28         45         44         28         29         46         45         29         30         47         46         30         31         48         47         31         32         49         48         32         33         50         49         34         35         52         51         35         36         53         52         36         37         54         53         37         38         55         54         38         39         56         55         39         40         57         56         40         41         58         57         41         42         59         58         42         43         60         59         43         44         61         60         44         45         62         61         45         46         63         62         46         47         64         63         47         48         65         64         48         49         66         65         49         50         67         66         51         52         69         68         52         53         70         69         53         54         71         70         54         55         72         71         55         56         73         72         56         57         74         73         57         58         75         74         58         59         76         75         59         60         77         76         60         61         78         77         61         62         79         78         62         63         80         79         63         64         81         80         64         65         82         81         65         66         83         82         66         67         84         83         68         69         86         85         69         70         87         86         70         71         88         87         71         72         89         88         72         73         90         89         73         74         91         90         74         75         92         91         75         76         93         92         76         77         94         93         77         78         95         94         78         79         96         95         79         80         97         96         80         81         98         97         81         82         99         98         82         83        100         99         83         84        101        100         85         86        103        102         86         87        104        103         87         88        105        104         88         89        106        105         89         90        107        106         90         91        108        107         91         92        109        108         92         93        110        109         93         94        111        110         94         95        112        111         95         96        113        112         96         97        114        113         97         98        115        114         98         99        116        115         99        100        117        116        100        101        118        117        102        103        120        119        103        104        121        120        104        105        122        121        105        106        123        122        106        107        124        123        107        108        125        124        108        109        126        125        109        110        127        126        110        111        128        127        111        112        129        128        112        113        130        129        113        114        131        130        114        115        132        131        115        116        133        132        116        117        134        133        117        118        135        134        119        120        137        136        120        121        138        137        121        122        139        138        122        123        140        139        123        124        141        140        124        125        142        141        125        126        143        142        126        127        144        143        127        128        145        144        128        129        146        145        129        130        147        146        130        131        148        147        131        132        149        148        132        133        150        149        133        134        151        150        134        135        152        151        136        137        154        153        137        138        155        154        138        139        156        155        139        140        157        156        140        141        158        157        141        142        159        158        142        143        160        159        143        144        161        160        144        145        162        161        145        146        163        162        146        147        164        163        147        148        165        164        148        149        166        165        149        150        167        166        150        151        168        167        151        152        169        168        153        154        171        170        154        155        172        171        155        156        173        172        156        157        174        173        157        158        175        174        158        159        176        175        159        160        177        176        160        161        178        177        161        162        179        178        162        163        180        179        163        164        181        180        164        165        182        181        165        166        183        182        166        167        184        183        167        168        185        184        168        169        186        185        170        171        188        187        171        172        189        188        172        173        190        189        173        174        191        190        174        175        192        191        175        176        193        192        176        177        194        193        177        178        195        194        178        179        196        195        179        180        197        196        180        181        198        197        181        182        199        198        182        183        200        199        183        184        201        200        184        185        202        201        185        186        203        202        187        188        205        204        188        189        206        205        189        190        207        206        190        191        208        207        191        192        209        208        192        193        210        209        193        194        211        210        194        195        212        211        195        196        213        212        196        197        214        213        197        198        215        214        198        199        216        215        199        200        217        216        200        201        218        217        201        202        219        218        202        203        220        219        204        205        222        221        205        206        223        222        206        207        224        223        207        208        225        224        208        209        226        225        209        210        227        226        210        211        228        227        211        212        229        228        212        213        230        229        213        214        231        230        214        215        232        231        215        216        233        232        216        217        234        233        217        218        235        234        218        219        236        235        219        220        237        236        221        222        239        238        222        223        240        239        223        224        241        240        224        225        242        241        225        226        243        242        226        227        244        243        227        228        245        244        228        229        246        245        229        230        247        246        230        231        248        247        231        232        249        248        232        233        250        249        233        234        251        250        234        235        252        251        235        236        253        252        236        237        254        253        238        239        256        255        239        240        257        256        240        241        258        257        241        242        259        258        242        243        260        259        243        244        261        260        244        245        262        261        245        246        263        262        246        247        264        263        247        248        265        264        248        249        266        265        249        250        267        266        250        251        268        267        251        252        269        268        252        253        270        269        253        254        271        270        255        256        273        272        256        257        274        273        257        258        275        274        258        259        276        275        259        260        277        276        260        261        278        277        261        262        279        278        262        263        280        279        263        264        281        280        264        265        282        281        265        266        283        282        266        267        284        283        267        268        285        284        268        269        286        285        269        270        287        286        270        271        288        287        306        307          1          0        307        308          2          1        308        309          3          2        309        310          4          3        310        311          5          4        311        312          6          5        312        313          7          6        313        314          8          7        314        315          9          8        315        316         10          9        316        317         11         10        317        318         12         11        318        319         13         12        319        320         14         13        320        321         15         14        321        322         16         15        323        324        307        306        324        325        308        307        325        326        309        308        326        327        310        309        327        328        311        310        328        329        312        311        329        330        313        312        330        331        314        313        331        332        315        314        332        333        316        315        333        334        317        316        334        335        318        317        335        336        319        318        336        337        320        319        337        338        321        320        338        339        322        321        340        341        324        323        341        342        325        324        342        343        326        325        343        344        327        326        344        345        328        327        345        346        329        328        346        347        330        329        347        348        331        330        348        349        332        331        349        350        333        332        350        351        334        333        351        352        335        334        352        353        336        335        353        354        337        336        354        355        338        337        355        356        339        338        357        358        341        340        358        359        342        341        359        360        343        342        360        361        344        343        361        362        345        344        362        363        346        345        363        364        347        346        364        365        348        347        365        366        349        348        366        367        350        349        367        368        351        350        368        369        352        351        369        370        353        352        370        371        354        353        371        372        355        354        372        373        356        355        374        375        358        357        375        376        359        358        376        377        360        359        377        378        361        360        378        379        362        361        379        380        363        362        380        381        364        363        381        382        365        364        382        383        366        365        383        384        367        366        384        385        368        367        385        386        369        368        386        387        370        369        387        388        371        370        388        389        372        371        389        390        373        372        391        392        375        374        392        393        376        375        393        394        377        376        394        395        378        377        395        396        379        378        396        397        380        379        397        398        381        380        398        399        382        381        399        400        383        382        400        401        384        383        401        402        385        384        402        403        386        385        403        404        387        386        404        405        388        387        405        406        389        388        406        407        390        389        408        409        392        391        409        410        393        392        410        411        394        393        411        412        395        394        412        413        396        395        413        414        397        396        414        415        398        397        415        416        399        398        416        417        400        399        417        418        401        400        418        419        402        401        419        420        403        402        420        421        404        403        421        422        405        404        422        423        406        405        423        424        407        406        425        426        409        408        426        427        410        409        427        428        411        410        428        429        412        411        429        430        413        412        430        431        414        413        431        432        415        414        432        433        416        415        433        434        417        416        434        435        418        417        435        436        419        418        436        437        420        419        437        438        421        420        438        439        422        421        439        440        423        422        440        441        424        423        442        443        426        425        443        444        427        426        444        445        428        427        445        446        429        428        446        447        430        429        447        448        431        430        448        449        432        431        449        450        433        432        450        451        434        433        451        452        435        434        452        453        436        435        453        454        437        436        454        455        438        437        455        456        439        438        456        457        440        439        457        458        441        440        459        460        443        442        460        461        444        443        461        462        445        444        462        463        446        445        463        464        447        446        464        465        448        447        465        466        449        448        466        467        450        449        467        468        451        450        468        469        452        451        469        470        453        452        470        471        454        453        471        472        455        454        472        473        456        455        473        474        457        456        474        475        458        457        476        477        460        459        477        478        461        460        478        479        462        461        479        480        463        462        480        481        464        463        481        482        465        464        482        483        466        465        483        484        467        466        484        485        468        467        485        486        469        468        486        487        470        469        487        488        471        470        488        489        472        471        489        490        473        472        490        491        474        473        491        492        475        474        493        494        477        476        494        495        478        477        495        496        479        478        496        497        480        479        497        498        481        480        498        499        482        481        499        500        483        482        500        501        484        483        501        502        485        484        502        503        486        485        503        504        487        486        504        505        488        487        505        506        489        488        506        507        490        489        507        508        491        490        508        509        492        491        510        511        494        493        511        512        495        494        512        513        496        495        513        514        497        496        514        515        498        497        515        516        499        498        516        517        500        499        517        518        501        500        518        519        502        501        519        520        503        502        520        521        504        503        521        522        505        504        522        523        506        505        523        524        507        506        524        525        508        507        525        526        509        508        527        528        511        510        528        529        512        511        529        530        513        512        530        531        514        513        531        532        515        514        532        533        516        515        533        534        517        516        534        535        518        517        535        536        519        518        536        537        520        519        537        538        521        520        538        539        522        521        539        540        523        522        540        541        524        523        541        542        525        524        542        543        526        525        544        545        528        527        545        546        529        528        546        547        530        529        547        548        531        530        548        549        532        531        549        550        533        532        550        551        534        533        551        552        535        534        552        553        536        535        553        554        537        536        554        555        538        537        555        556        539        538        556        557        540        539        557        558        541        540        558        559        542        541        559        560        543        542        561        562        545        544        562        563        546        545        563        564        547        546        564        565        548        547        565        566        549        548        566        567        550        549        567        568        551        550        568        569        552        551        569        570        553        552        570        571        554        553        571        572        555        554        572        573        556        555        573        574        557        556        574        575        558        557        575        576        559        558        576        577        560        559        578        579        596        595        579        580        597        596        580        581        598        597        581        582        599        598        582        583        600        599        583        584        601        600        584        585        602        601        585        586        603        602        586        587        604        603        587        588        605        604        588        589        606        605        589        590        607        606        590        591        608        607        591        592        609        608        592        593        610        609        593        594        611        610        595        596        613        612        596        597        614        613        597        598        615        614        598        599        616        615        599        600        617        616        600        601        618        617        601        602        619        618        602        603        620        619        603        604        621        620        604        605        622        621        605        606        623        622        606        607        624        623        607        608        625        624        608        609        626        625        609        610        627        626        610        611        628        627        612        613        630        629        613        614        631        630        614        615        632        631        615        616        633        632        616        617        634        633        617        618        635        634        618        619        636        635        619        620        637        636        620        621        638        637        621        622        639        638        622        623        640        639        623        624        641        640        624        625        642        641        625        626        643        642        626        627        644        643        627        628        645        644        629        630        647        646        630        631        648        647        631        632        649        648        632        633        650        649        633        634        651        650        634        635        652        651        635        636        653        652        636        637        654        653        637        638        655        654        638        639        656        655        639        640        657        656        640        641        658        657        641        642        659        658        642        643        660        659        643        644        661        660        644        645        662        661        646        647        664        663        647        648        665        664        648        649        666        665        649        650        667        666        650        651        668        667        651        652        669        668        652        653        670        669        653        654        671        670        654        655        672        671        655        656        673        672        656        657        674        673        657        658        675        674        658        659        676        675        659        660        677        676        660        661        678        677        661        662        679        678        663        664        681        680        664        665        682        681        665        666        683        682        666        667        684        683        667        668        685        684        668        669        686        685        669        670        687        686        670        671        688        687        671        672        689        688        672        673        690        689        673        674        691        690        674        675        692        691        675        676        693        692        676        677        694        693        677        678        695        694        678        679        696        695        680        681        698        697        681        682        699        698        682        683        700        699        683        684        701        700        684        685        702        701        685        686        703        702        686        687        704        703        687        688        705        704        688        689        706        705        689        690        707        706        690        691        708        707        691        692        709        708        692        693        710        709        693        694        711        710        694        695        712        711        695        696        713        712        697        698        715        714        698        699        716        715        699        700        717        716        700        701        718        717        701        702        719        718        702        703        720        719        703        704        721        720        704        705        722        721        705        706        723        722        706        707        724        723        707        708        725        724        708        709        726        725        709        710        727        726        710        711        728        727        711        712        729        728        712        713        730        729        714        715        732        731        715        716        733        732        716        717        734        733        717        718        735        734        718        719        736        735        719        720        737        736        720        721        738        737        721        722        739        738        722        723        740        739        723        724        741        740        724        725        742        741        725        726        743        742        726        727        744        743        727        728        745        744        728        729        746        745        729        730        747        746        731        732        749        748        732        733        750        749        733        734        751        750        734        735        752        751        735        736        753        752        736        737        754        753        737        738        755        754        738        739        756        755        739        740        757        756        740        741        758        757        741        742        759        758        742        743        760        759        743        744        761        760        744        745        762        761        745        746        763        762        746        747        764        763        748        749        766        765        749        750        767        766        750        751        768        767        751        752        769        768        752        753        770        769        753        754        771        770        754        755        772        771        755        756        773        772        756        757        774        773        757        758        775        774        758        759        776        775        759        760        777        776        760        761        778        777        761        762        779        778        762        763        780        779        763        764        781        780        765        766        783        782        766        767        784        783        767        768        785        784        768        769        786        785        769        770        787        786        770        771        788        787        771        772        789        788        772        773        790        789        773        774        791        790        774        775        792        791        775        776        793        792        776        777        794        793        777        778        795        794        778        779        796        795        779        780        797        796        780        781        798        797        782        783        800        799        783        784        801        800        784        785        802        801        785        786        803        802        786        787        804        803        787        788        805        804        788        789        806        805        789        790        807        806        790        791        808        807        791        792        809        808        792        793        810        809        793        794        811        810        794        795        812        811        795        796        813        812        796        797        814        813        797        798        815        814        799        800        817        816        800        801        818        817        801        802        819        818        802        803        820        819        803        804        821        820        804        805        822        821        805        806        823        822        806        807        824        823        807        808        825        824        808        809        826        825        809        810        827        826        810        811        828        827        811        812        829        828        812        813        830        829        813        814        831        830        814        815        832        831        816        817        834        833        817        818        835        834        818        819        836        835        819        820        837        836        820        821        838        837        821        822        839        838        822        823        840        839        823        824        841        840        824        825        842        841        825        826        843        842        826        827        844        843        827        828        845        844        828        829        846        845        829        830        847        846        830        831        848        847        831        832        849        848        833        834        562        561        834        835        563        562        835        836        564        563        836        837        565        564        837        838        566        565        838        839        567        566        839        840        568        567        840        841        569        568        841        842        570        569        842        843        571        570        843        844        572        571        844        845        573        572        845        846        574        573        846        847        575        574        847        848        576        575        848        849        577        576        884        885        579        578        885        886        580        579        886        887        581        580        887        888        582        581        888        889        583        582        889        890        584        583        890        891        585        584        891        892        586        585        892        893        587        586        893        894        588        587        894        895        589        588        895        896        590        589        896        897        591        590        897        898        592        591        898        899        593        592        899        900        594        593        901        902        885        884        902        903        886        885        903        904        887        886        904        905        888        887        905        906        889        888        906        907        890        889        907        908        891        890        908        909        892        891        909        910        893        892        910        911        894        893        911        912        895        894        912        913        896        895        913        914        897        896        914        915        898        897        915        916        899        898        916        917        900        899        918        919        902        901        919        920        903        902        920        921        904        903        921        922        905        904        922        923        906        905        923        924        907        906        924        925        908        907        925        926        909        908        926        927        910        909        927        928        911        910        928        929        912        911        929        930        913        912        930        931        914        913        931        932        915        914        932        933        916        915        933        934        917        916        935        936        919        918        936        937        920        919        937        938        921        920        938        939        922        921        939        940        923        922        940        941        924        923        941        942        925        924        942        943        926        925        943        944        927        926        944        945        928        927        945        946        929        928        946        947        930        929        947        948        931        930        948        949        932        931        949        950        933        932        950        951        934        933        952        953        936        935        953        954        937        936        954        955        938        937        955        956        939        938        956        957        940        939        957        958        941        940        958        959        942        941        959        960        943        942        960        961        944        943        961        962        945        944        962        963        946        945        963        964        947        946        964        965        948        947        965        966        949        948        966        967        950        949        967        968        951        950        969        970        953        952        970        971        954        953        971        972        955        954        972        973        956        955        973        974        957        956        974        975        958        957        975        976        959        958        976        977        960        959        977        978        961        960        978        979        962        961        979        980        963        962        980        981        964        963        981        982        965        964        982        983        966        965        983        984        967        966        984        985        968        967        986        987        970        969        987        988        971        970        988        989        972        971        989        990        973        972        990        991        974        973        991        992        975        974        992        993        976        975        993        994        977        976        994        995        978        977        995        996        979        978        996        997        980        979        997        998        981        980        998        999        982        981        999       1000        983        982       1000       1001        984        983       1001       1002        985        984       1003       1004        987        986       1004       1005        988        987       1005       1006        989        988       1006       1007        990        989       1007       1008        991        990       1008       1009        992        991       1009       1010        993        992       1010       1011        994        993       1011       1012        995        994       1012       1013        996        995       1013       1014        997        996       1014       1015        998        997       1015       1016        999        998       1016       1017       1000        999       1017       1018       1001       1000       1018       1019       1002       1001       1020       1021       1004       1003       1021       1022       1005       1004       1022       1023       1006       1005       1023       1024       1007       1006       1024       1025       1008       1007       1025       1026       1009       1008       1026       1027       1010       1009       1027       1028       1011       1010       1028       1029       1012       1011       1029       1030       1013       1012       1030       1031       1014       1013       1031       1032       1015       1014       1032       1033       1016       1015       1033       1034       1017       1016       1034       1035       1018       1017       1035       1036       1019       1018       1037       1038       1021       1020       1038       1039       1022       1021       1039       1040       1023       1022       1040       1041       1024       1023       1041       1042       1025       1024       1042       1043       1026       1025       1043       1044       1027       1026       1044       1045       1028       1027       1045       1046       1029       1028       1046       1047       1030       1029       1047       1048       1031       1030       1048       1049       1032       1031       1049       1050       1033       1032       1050       1051       1034       1033       1051       1052       1035       1034       1052       1053       1036       1035       1054       1055       1038       1037       1055       1056       1039       1038       1056       1057       1040       1039       1057       1058       1041       1040       1058       1059       1042       1041       1059       1060       1043       1042       1060       1061       1044       1043       1061       1062       1045       1044       1062       1063       1046       1045       1063       1064       1047       1046       1064       1065       1048       1047       1065       1066       1049       1048       1066       1067       1050       1049       1067       1068       1051       1050       1068       1069       1052       1051       1069       1070       1053       1052       1071       1072       1055       1054       1072       1073       1056       1055       1073       1074       1057       1056       1074       1075       1058       1057       1075       1076       1059       1058       1076       1077       1060       1059       1077       1078       1061       1060       1078       1079       1062       1061       1079       1080       1063       1062       1080       1081       1064       1063       1081       1082       1065       1064       1082       1083       1066       1065       1083       1084       1067       1066       1084       1085       1068       1067       1085       1086       1069       1068       1086       1087       1070       1069       1088       1089       1072       1071       1089       1090       1073       1072       1090       1091       1074       1073       1091       1092       1075       1074       1092       1093       1076       1075       1093       1094       1077       1076       1094       1095       1078       1077       1095       1096       1079       1078       1096       1097       1080       1079       1097       1098       1081       1080       1098       1099       1082       1081       1099       1100       1083       1082       1100       1101       1084       1083       1101       1102       1085       1084       1102       1103       1086       1085       1103       1104       1087       1086       1105       1106       1089       1088       1106       1107       1090       1089       1107       1108       1091       1090       1108       1109       1092       1091       1109       1110       1093       1092       1110       1111       1094       1093       1111       1112       1095       1094       1112       1113       1096       1095       1113       1114       1097       1096       1114       1115       1098       1097       1115       1116       1099       1098       1116       1117       1100       1099       1117       1118       1101       1100       1118       1119       1102       1101       1119       1120       1103       1102       1120       1121       1104       1103       1122       1123       1106       1105       1123       1124       1107       1106       1124       1125       1108       1107       1125       1126       1109       1108       1126       1127       1110       1109       1127       1128       1111       1110       1128       1129       1112       1111       1129       1130       1113       1112       1130       1131       1114       1113       1131       1132       1115       1114       1132       1133       1116       1115       1133       1134       1117       1116       1134       1135       1118       1117       1135       1136       1119       1118       1136       1137       1120       1119       1137       1138       1121       1120        272        273       1123       1122        273        274       1124       1123        274        275       1125       1124        275        276       1126       1125        276        277       1127       1126        277        278       1128       1127        278        279       1129       1128        279        280       1130       1129        280        281       1131       1130        281        282       1132       1131        282        283       1133       1132        283        284       1134       1133        284        285       1135       1134        285        286       1136       1135        286        287       1137       1136        287        288       1138       1137 </DataArray>
<DataArray type="Int32"                                    Name="offsets"                                                      NumberOfComponents=" 1" format="ascii">
         4          8         12         16         20         24         28         32         36         40         44         48         52         56         60         64         68         72         76         80         84         88         92         96        100        104        108        112        116        120        124        128        132        136        140        144        148        152        156        160        164        168        172        176        180        184        188        192        196        200        204        208        212        216        220        224        228        232        236        240        244        248        252        256        260        264        268        272        276        280        284        288        292        296        300        304        308        312        316        320        324        328        332        336        340        344        348        352        356        360        364        368        372        376        380        384        388        392        396        400        404        408        412        416        420        424        428        432        436        440        444        448        452        456        460        464        468        472        476        480        484        488        492        496        500        504        508        512        516        520        524        528        532        536        540        544        548        552        556        560        564        568        572        576        580        584        588        592        596        600        604        608        612        616        620        624        628        632        636        640        644        648        652        656        660        664        668        672        676        680        684        688        692        696        700        704        708        712        716        720        724        728        732        736        740        744        748        752        756        760        764        768        772        776        780        784        788        792        796        800        804        808        812        816        820        824        828        832        836        840        844        848        852        856        860        864        868        872        876        880        884        888        892        896        900        904        908        912        916        920        924        928        932        936        940        944        948        952        956        960        964        968        972        976        980        984        988        992        996       1000       1004       1008       1012       1016       1020       1024       1028       1032       1036       1040       1044       1048       1052       1056       1060       1064       1068       1072       1076       1080       1084       1088       1092       1096       1100       1104       1108       1112       1116       1120       1124       1128       1132       1136       1140       1144       1148       1152       1156       1160       1164       1168       1172       1176       1180       1184       1188       1192       1196       1200       1204       1208       1212       1216       1220       1224       1228       1232       1236       1240       1244       1248       1252       1256       1260       1264       1268       1272       1276       1280       1284       1288       1292       1296       1300       1304       1308       1312       1316       1320       1324       1328       1332       1336       1340       1344       1348       1352       1356       1360       1364       1368       1372       1376       1380       1384       1388       1392       1396       1400       1404       1408       1412       1416       1420       1424       1428       1432       1436       1440       1444       1448       1452       1456       1460       1464       1468       1472       1476       1480       1484       1488       1492       1496       1500       1504       1508       1512       1516       1520       1524       1528       1532       1536       1540       1544       1548       1552       1556       1560       1564       1568       1572       1576       1580       1584       1588       1592       1596       1600       1604       1608       1612       1616       1620       1624       1628       1632       1636       1640       1644       1648       1652       1656       1660       1664       1668       1672       1676       1680       1684       1688       1692       1696       1700       1704       1708       1712       1716       1720       1724       1728       1732       1736       1740       1744       1748       1752       1756       1760       1764       1768       1772       1776       1780       1784       1788       1792       1796       1800       1804       1808       1812       1816       1820       1824       1828       1832       1836       1840       1844       1848       1852       1856       1860       1864       1868       1872       1876       1880       1884       1888       1892       1896       1900       1904       1908       1912       1916       1920       1924       1928       1932       1936       1940       1944       1948       1952       1956       1960       1964       1968       1972       1976       1980       1984       1988       1992       1996       2000       2004       2008       2012       2016       2020       2024       2028       2032       2036       2040       2044       2048       2052       2056       2060       2064       2068       2072       2076       2080       2084       2088       2092       2096       2100       2104       2108       2112       2116       2120       2124       2128       2132       2136       2140       2144       2148       2152       2156       2160       2164       2168       2172       2176       2180       2184       2188       2192       2196       2200       2204       2208       2212       2216       2220       2224       2228       2232       2236       2240       2244       2248       2252       2256       2260       2264       2268       2272       2276       2280       2284       2288       2292       2296       2300       2304       2308       2312       2316       2320       2324       2328       2332       2336       2340       2344       2348       2352       2356       2360       2364       2368       2372       2376       2380       2384       2388       2392       2396       2400       2404       2408       2412       2416       2420       2424       2428       2432       2436       2440       2444       2448       2452       2456       2460       2464       2468       2472       2476       2480       2484       2488       2492       2496       2500       2504       2508       2512       2516       2520       2524       2528       2532       2536       2540       2544       2548       2552       2556       2560       2564       2568       2572       2576       2580       2584       2588       2592       2596       2600       2604       2608       2612       2616       2620       2624       2628       2632       2636       2640       2644       2648       2652       2656       2660       2664       2668       2672       2676       2680       2684       2688       2692       2696       2700       2704       2708       2712       2716       2720       2724       2728       2732       2736       2740       2744       2748       2752       2756       2760       2764       2768       2772       2776       2780       2784       2788       2792       2796       2800       2804       2808       2812       2816       2820       2824       2828       2832       2836       2840       2844       2848       2852       2856       2860       2864       2868       2872       2876       2880       2884       2888       2892       2896       2900       2904       2908       2912       2916       2920       2924       2928       2932       2936       2940       2944       2948       2952       2956       2960       2964       2968       2972       2976       2980       2984       2988       2992       2996       3000       3004       3008       3012       3016       3020       3024       3028       3032       3036       3040       3044       3048       3052       3056       3060       3064       3068       3072       3076       3080       3084       3088       3092       3096       3100       3104       3108       3112       3116       3120       3124       3128       3132       3136       3140       3144       3148       3152       3156       3160       3164       3168       3172       3176       3180       3184       3188       3192       3196       3200       3204       3208       3212       3216       3220       3224       3228       3232       3236       3240       3244       3248       3252       3256       3260       3264       3268       3272       3276       3280       3284       3288       3292       3296       3300       3304       3308       3312       3316       3320       3324       3328       3332       3336       3340       3344       3348       3352       3356       3360       3364       3368       3372       3376       3380       3384       3388       3392       3396       3400       3404       3408       3412       3416       3420       3424       3428       3432       3436       3440       3444       3448       3452       3456       3460       3464       3468       3472       3476       3480       3484       3488       3492       3496       3500       3504       3508       3512       3516       3520       3524       3528       3532       3536       3540       3544       3548       3552       3556       3560       3564       3568       3572       3576       3580       3584       3588       3592       3596       3600       3604       3608       3612       3616       3620       3624       3628       3632       3636       3640       3644       3648       3652       3656       3660       3664       3668       3672       3676       3680       3684       3688       3692       3696       3700       3704       3708       3712       3716       3720       3724       3728       3732       3736       3740       3744       3748       3752       3756       3760       3764       3768       3772       3776       3780       3784       3788       3792       3796       3800       3804       3808       3812       3816       3820       3824       3828       3832       3836       3840       3844       3848       3852       3856       3860       3864       3868       3872       3876       3880       3884       3888       3892       3896       3900       3904       3908       3912       3916       3920       3924       3928       3932       3936       3940       3944       3948       3952       3956       3960       3964       3968       3972       3976       3980       3984       3988       3992       3996       4000       4004       4008       4012       4016       4020       4024       4028       4032       4036       4040       4044       4048       4052       4056       4060       4064       4068       4072       4076       4080       4084       4088       4092       4096 </DataArray>
<DataArray type="UInt8"                                    Name="types"                                                      NumberOfComponents=" 1" format="ascii">
         9          9          9          9          9          9          9          9          9          9          9          9          9          9          9          9          9          9          9          9          9          9          9          9          9          9          9          9          9          9          9          9          9          9          9          9          9          9          9          9          9          9          9          9          9          9          9          9          9          9          9          9          9          9          9          9          9          9          9          9          9          9          9          9          9          9          9          9          9          9          9          9          9          9          9          9          9          9          9          9          9          9          9          9          9          9          9          9          9          9          9          9          9          9          9          9          9          9          9          9          9          9          9          9          9          9          9          9          9          9          9          9          9          9          9          9          9          9          9          9          9          9          9          9          9          9          9          9          9          9          9          9          9          9          9          9          9          9          9          9          9          9          9          9          9          9          9          9          9          9          9          9          9          9          9          9          9          9          9          9          9          9          9          9          9          9          9          9          9          9          9          9          9          9          9          9          9          9          9          9          9          9          9          9          9          9          9          9          9          9          9          9          9          9          9          9          9          9          9          9          9          9          9          9          9          9          9          9          9          9          9          9          9          9          9          9          9          9          9          9          9          9          9          9          9          9          9          9          9          9          9          9          9          9          9          9          9          9          9          9          9          9          9          9          9          9          9          9          9          9          9          9          9          9          9          9          9          9          9          9          9          9          9          9          9          9          9          9          9          9          9          9          9          9          9          9          9          9          9          9          9          9          9          9          9          9          9          9          9          9          9          9          9          9          9          9          9          9          9          9          9          9          9          9          9          9          9          9          9          9          9          9          9          9          9          9          9          9          9          9          9          9          9          9          9          9          9          9          9          9          9          9          9          9          9          9          9          9          9          9          9          9          9          9          9          9          9          9          9          9          9          9          9          9          9          9          9          9          9          9          9          9          9          9          9          9          9          9          9          9          9          9          9          9          9          9          9          9          9          9          9          9          9          9          9          9          9          9          9          9          9          9          9          9          9          9          9          9          9          9          9          9          9          9          9          9          9          9          9          9          9          9          9          9          9          9          9          9          9          9          9          9          9          9          9          9          9          9          9          9          9          9          9          9          9          9          9          9          9          9          9          9          9          9          9          9          9          9          9          9          9          9          9          9          9          9          9          9          9          9          9          9          9          9          9          9          9          9          9          9          9          9          9          9          9          9          9          9          9          9          9          9          9          9          9          9          9          9          9          9          9          9          9          9          9          9          9          9          9          9          9          9          9          9          9          9          9          9          9          9          9          9          9          9          9          9          9          9          9          9          9          9          9          9          9          9          9          9          9          9          9          9          9          9          9          9          9          9          9          9          9          9          9          9          9          9          9          9          9          9          9          9          9          9          9          9          9          9          9          9          9          9          9          9          9          9          9          9          9          9          9          9          9          9          9          9          9          9          9          9          9          9          9          9          9          9          9          9          9          9          9          9          9          9          9          9          9          9          9          9          9          9          9          9          9          9          9          9          9          9          9          9          9          9          9          9          9          9          9          9          9          9          9          9          9          9          9          9          9          9          9          9          9          9          9          9          9          9          9          9          9          9          9          9          9          9          9          9          9          9          9          9          9          9          9          9          9          9          9          9          9          9          9          9          9          9          9          9          9          9          9          9          9          9          9          9          9          9          9          9          9          9          9          9          9          9          9          9          9          9          9          9          9          9          9          9          9          9          9          9          9          9          9          9          9          9          9          9          9          9          9          9          9          9          9          9          9          9          9          9          9          9          9          9          9          9          9          9          9          9          9          9          9          9          9          9          9          9          9          9          9          9          9          9          9          9          9          9          9          9          9          9          9          9          9          9          9          9          9          9          9          9          9          9          9          9          9          9          9          9          9          9          9          9          9          9          9          9          9          9          9          9          9          9          9          9          9          9          9          9          9          9          9          9          9          9          9          9          9          9          9          9          9          9          9          9          9          9          9          9          9          9          9          9          9          9          9          9          9          9          9          9          9          9          9          9          9          9          9          9          9          9          9          9          9          9          9          9          9          9          9          9          9          9          9          9          9          9          9          9          9          9          9          9          9          9          9          9          9          9          9          9          9          9          9          9          9          9          9          9          9          9          9          9          9          9          9          9          9          9          9          9          9          9          9          9          9          9          9          9          9          9          9          9          9          9          9          9          9          9          9          9          9          9          9          9          9          9          9          9          9          9          9          9          9          9          9          9          9          9          9          9          9          9          9          9          9          9          9          9          9          9          9          9          9          9          9          9          9          9          9          9          9          9          9          9          9          9          9          9          9          9          9          9          9          9          9          9          9          9          9          9          9          9          9          9          9          9          9          9          9          9          9          9          9          9          9          9          9          9          9          9          9          9          9          9          9          9          9          9          9          9          9          9          9          9          9          9          9          9          9          9          9          9          9          9          9          9          9          9          9          9          9          9          9          9          9          9          9          9          9          9          9          9 </DataArray>
</Cells>
<CellData>
<DataArray type="Int32"                                    Name="material"                                                      NumberOfComponents=" 1" format="ascii">
         1          1          1          1          1          1          1          1          1          1          1          1          1          1          1          1          1          1          1          1          1          1          1          1          1          1          1          1          1          1          1          1          1          1          1          1          1          1          1          1          1          1          1          1          1          1          1          1          1          1          1          1          1          1          1          1          1          1          1          1          1          1          1          1          1          1          1          1          1          1          1          1          1          1          1          1          1          1          1          1          1          1          1          1          1          1          1          1          1          1          1          1          1          1          1          1          1          1          1          1          1          1          1          1          1          1          1          1          1          1          1          1          1          1          1          1          1          1          1          1          1          1          1          1          1          1          1          1          1          1          1          1          1          1          1          1          1          1          1          1          1          1          1          1          1          1          1          1          1          1          1          1          1          1          1          1          1          1          1          1          1          1          1          1          1          1          1          1          1          1          1          1          1          1          1          1          1          1          1          1          1          1          1          1          1          1          1          1          1          1          1          1          1          1          1          1          1          1          1          1          1          1          1          1          1          1          1          1          1          1          1          1          1          1          1          1          1          1          1          1          1          1          1          1          1          1          1          1          1          1          1          1          1          1          1          1          1          1          1          1          1          1          1          1          1          1          1          1          1          1          1          1          1          1          1          1          1          1          1          1          1          1          1          1          1          1          1          1          1          1          1          1          1          1          1          1          1          1          1          1          1          1          1          1          1          1          1          1          1          1          1          1          1          1          1          1          1          1          1          1          1          1          1          1          1          1          1          1          1          1          1          1          1          1          1          1          1          1          1          1          1          1          1          1          1          1          1          1          1          1          1          1          1          1          1          1          1          1          1          1          1          1          1          1          1          1          1          1          1          1          1          1          1          1          1          1          1          1          1          1          1          1          1          1          1          1          1          1          1          1          1          1          1          1          1          1          1          1          1          1          1          1          1          1          1          1          1          1          1          1          1          1          1          1          1          1          1          1          1          1          1          1          1          1          1          1          1          1          1          1          1          1          1          1          1          1          1          1          1          1          1          1          1          1          1          1          1          1          1          1          1          1          1          1          1          1          1          1          1          1          1          1          1          1          1          1          1          1          1          1          1          1          1          1          1          1          1          1          1          1          1          1          1          1          1          1          1          1          1          1          1          1          1          1          1          1          1          1          1          1          1          1          1          1          1          1          1          1          1          1          1          1          1          1          1          1          1          1          1          1          1          1          1          1          1          1          1          1          1          1          1          1          1          1          1          1          1          1          1          1          1          1          1          1          1          1          1          1          1          1          1          1          1          1          1          1          1          1          1          1          1          1          1          1          1          1          1          1          1          1          1          1          1          1          1          1          1          1          1          1          1          1          1          1          1          1          1          1          1          1          1          1          1          1          1          1          1          1          1          1          1          1          1          1          1          1          1          1          1          1          1          1          1          1          1          1          1          1          1          1          1          1          1          1          1          1          1          1          1          1          1          1          1          1          1          1          1          1          1          1          1          1          1          1          1          1          1          1          1          1          1          1          1          1          1          1          1          1          1          1          1          1          1          1          1          1          1          1          1          1          1          1          1          1          1          1          1          1          1          1          1          1          1          1          1          1          1          1          1          1          1          1          1          1          1          1          1          1          1          1          1          1          1          1          1          1          1          1          1          1          1          1          1          1          1          1          1          1          1          1          1          1          1          1          1          1          1          1          1          1          1          1          1          1          1          1          1          1          1          1          1          1          1          1          1          1          1          1          1          1          1          1          1          1          1          1          1          1          1          1          1          1          1          1          1          1          1          1          1          1          1          1          1          1          1          1          1          1          1          1          1          1          1          1          1          1          1          1          1          1          1          1          1          1          1          1          1          1          1          1          1          1          1          1          1          1          1          1          1          1          1          1          1          1          1          1          1          1          1          1          1          1          1          1          1          1          1          1          1          1          1          1          1          1          1          1          1          1          1          1          1          1          1          1          1          1          1          1          1          1          1          1          1          1          1          1          1          1          1          1          1          1          1          1          1          1          1          1          1          1          1          1          1          1          1          1          1          1          1          1          1          1          1          1          1          1          1          1          1          1          1          1          1          1          1          1          1          1          1          1          1          1          1          1          1          1          1          1          1          1          1          1          1          1          1          1          1          1          1          1          1          1          1          1          1          1          1          1          1          1          1          1          1          1          1          1          1          1          1          1          1          1          1          1          1          1          1          1          1          1          1          1          1          1          1          1          1          1          1          1          1          1          1          1          1          1          1          1          1          1          1          1          1          1          1          1          1          1          1          1          1          1          1          1          1          1          1          1          1          1          1          1          1          1          1          1          1          1          1          1          1          1          1          1          1          1          1          1          1          1          1          1          1          1          1          1          1          1          1          1          1          1          1          1          1          1          1          1          1          1          1          1          1          1          1          1          1          1          1          1          1          1          1          1 </DataArray>
</CellData>
<PointData>
<DataArray type="Float64"                                    Name="u"                                                      NumberOfComponents=" 3" format="ascii">
             -0.000879404               0.000000000               0.999999985              -0.000929831               0.000000000               0.999999985              -0.000951120               0.000000000               0.999999985              -0.000963088              -0.000000000               0.999999985              -0.000973027              -0.000000000               0.999999985              -0.000983600               0.000000000               0.999999985              -0.000995475               0.000000000               0.999999985              -0.001008666              -0.000000000               0.999999985              -0.001022634              -0.000000000               0.999999985              -0.001036879              -0.000000000               0.999999985              -0.001050979              -0.000000000               0.999999985              -0.001064602              -0.000000000               0.999999985              -0.001077395              -0.000000000               0.999999985              -0.001088969               0.000000000               0.999999985              -0.001098852               0.000000000               0.999999985              -0.001106510              -0.000000000               0.999999985              -0.001111057               0.000000000               0.999999985              -0.000874413               0.000131989               0.999999985              -0.000920647               0.000104979               0.999999985              -0.000939201               0.000092852               0.999999985              -0.000949431               0.000088076               0.999999985              -0.000958216               0.000087089               0.999999985              -0.000967792               0.000087754               0.999999985              -0.000978665               0.000088950               0.999999985              -0.000990674               0.000089742               0.999999985              -0.001003386               0.000089797               0.999999985              -0.001016257               0.000088738               0.999999985              -0.001028791               0.000086273               0.999999985              -0.001040615               0.000082209               0.999999985              -0.001051442               0.000076344               0.999999985              -0.001060864               0.000068229               0.999999985              -0.001068333               0.000057058               0.999999985              -0.001073452               0.000042024               0.999999985              -0.001075662               0.000021577               0.999999985              -0.000859596               0.000262732               0.999999985              -0.000893516               0.000209638               0.999999985              -0.000904583               0.000186578               0.999999985              -0.000910193               0.000178155               0.999999985              -0.000915730               0.000176867               0.999999985              -0.000922620               0.000178723               0.999999985              -0.000930932               0.000181229               0.999999985              -0.000940117               0.000183180               0.999999985              -0.000949577               0.000183409               0.999999985              -0.000958629               0.000181343               0.999999985              -0.000966883               0.000176725               0.999999985              -0.000974019               0.000169213               0.999999985              -0.000979701               0.000158245               0.999999985              -0.000983594               0.000143035               0.999999985              -0.000985274               0.000122831               0.999999985              -0.000984438               0.000096310               0.999999985              -0.000980916               0.000061898               0.999999985              -0.000835434               0.000391051               0.999999985              -0.000850006               0.000313663               0.999999985              -0.000850255               0.000282084               0.999999985              -0.000849614               0.000271791               0.999999985              -0.000851059               0.000271348               0.999999985              -0.000854637               0.000274970               0.999999985              -0.000859529               0.000279353               0.999999985              -0.000864860               0.000282426               0.999999985              -0.000869682               0.000282882               0.999999985              -0.000873501               0.000280075               0.999999985              -0.000875866               0.000273771               0.999999985              -0.000876555               0.000263498               0.999999985              -0.000875238               0.000248669               0.999999985              -0.000871430               0.000228520               0.999999985              -0.000864980               0.000202296               0.999999985              -0.000855889               0.000169162               0.999999985              -0.000844453               0.000128407               0.999999985              -0.000802342               0.000515888               0.999999985              -0.000792345               0.000417003               0.999999985              -0.000780480               0.000379908               0.999999985              -0.000773538               0.000369724               0.999999985              -0.000771179               0.000371311               0.999999985              -0.000771535               0.000377316               0.999999985              -0.000773015               0.000383529               0.999999985              -0.000774105               0.000387715               0.999999985              -0.000773937               0.000388318               0.999999985              -0.000771827               0.000384994               0.999999985              -0.000767450               0.000377330               0.999999985              -0.000760512               0.000365212               0.999999985              -0.000750746               0.000347772               0.999999985              -0.000737993               0.000324384               0.999999985              -0.000722246               0.000294879               0.999999985              -0.000703883               0.000259198               0.999999985              -0.000683494               0.000217655               0.999999985              -0.000761058               0.000636054               0.999999985              -0.000723422               0.000519788               0.999999985              -0.000700248               0.000480166               0.999999985              -0.000688521               0.000471702               0.999999985              -0.000683539               0.000476122               0.999999985              -0.000681568               0.000484485               0.999999985              -0.000679907               0.000492498               0.999999985              -0.000676747               0.000497474               0.999999985              -0.000671119               0.000498340               0.999999985              -0.000662471               0.000494500               0.999999985              -0.000650524               0.000485927               0.999999985              -0.000634966               0.000472346               0.999999985              -0.000615729               0.000453009               0.999999985              -0.000593063               0.000427729               0.999999985              -0.000567235               0.000397146               0.999999985              -0.000539006               0.000361768               0.999999985              -0.000509278               0.000322719               0.999999985              -0.000712328               0.000750452               0.999999985              -0.000646688               0.000622044               0.999999985              -0.000614881               0.000582354               0.999999985              -0.000600764               0.000576613               0.999999985              -0.000594766               0.000583931               0.999999985              -0.000591220               0.000594580               0.999999985              -0.000586708               0.000603975               0.999999985              -0.000579149               0.000609455               0.999999985              -0.000567560               0.000610214               0.999999985              -0.000551609               0.000605973               0.999999985              -0.000531102               0.000596341               0.999999985              -0.000506091               0.000581407               0.999999985              -0.000476719               0.000560664               0.999999985              -0.000443593               0.000534473               0.999999985              -0.000407520               0.000504176               0.999999985              -0.000369531               0.000470661               0.999999985              -0.000330434               0.000435197               0.999999985              -0.000657073               0.000858004               0.999999985              -0.000565632               0.000723599               0.999999985              -0.000528983               0.000685655               0.999999985              -0.000515411               0.000682704               0.999999985              -0.000509861               0.000692484               0.999999985              -0.000505281               0.000705007               0.999999985              -0.000497748               0.000715351               0.999999985              -0.000485156               0.000721006               0.999999985              -0.000466865               0.000721575               0.999999985              -0.000442637               0.000716545               0.999999985              -0.000412638               0.000705721               0.999999985              -0.000377344               0.000689287               0.999999985              -0.000337215               0.000667370               0.999999985              -0.000293254               0.000641075               0.999999985              -0.000246655               0.000611980               0.999999985              -0.000198454               0.000581041               0.999999985              -0.000149464               0.000549175               0.999999985              -0.000597208               0.000956677               0.999999985              -0.000483103               0.000824241               0.999999985              -0.000447095               0.000788481               0.999999985              -0.000436225               0.000787683               0.999999985              -0.000432039               0.000799374               0.999999985              -0.000426393               0.000813241               0.999999985              -0.000415031               0.000824267               0.999999985              -0.000396436               0.000830089               0.999999985              -0.000370259               0.000830110               0.999999985              -0.000336610               0.000823899               0.999999985              -0.000296032               0.000811620               0.999999985              -0.000249416               0.000793681               0.999999985              -0.000197575               0.000771327               0.999999985              -0.000141968               0.000746050               0.999999985              -0.000084141               0.000719245               0.999999985              -0.000025123               0.000691927               0.999999985               0.000034050               0.000664603               0.999999985              -0.000535218               0.001050286               0.999999985              -0.000413884               0.000937162               0.999999985              -0.000375170               0.000897521               0.999999985              -0.000363806               0.000891590               0.999999985              -0.000360489               0.000900010               0.999999985              -0.000356722               0.000913477               0.999999985              -0.000348363               0.000926744               0.999999985              -0.000333599               0.000937136               0.999999985              -0.000311696               0.000943120               0.999999985              -0.000282688               0.000944229               0.999999985              -0.000246986               0.000940344               0.999999985              -0.000204781               0.000931783               0.999999985              -0.000156560               0.000919148               0.999999985              -0.000103446               0.000903351               0.999999985              -0.000046649               0.000885454               0.999999985               0.000012399               0.000866941               0.999999985               0.000072247               0.000848291               0.999999985              -0.000467608               0.001135703               0.999999985              -0.000347527               0.001046646               0.999999985              -0.000306312               0.001009504               0.999999985              -0.000293480               0.001000954               0.999999985              -0.000289957               0.001007287               0.999999985              -0.000287341               0.001020355               0.999999985              -0.000281347               0.001035482               0.999999985              -0.000270010               0.001049700               0.999999985              -0.000252341               0.001061207               0.999999985              -0.000227892               0.001069050               0.999999985              -0.000196913               0.001072929               0.999999985              -0.000159542               0.001072808               0.999999985              -0.000115750               0.001068973               0.999999985              -0.000065881               0.001062033               0.999999985              -0.000010898               0.001052871               0.999999985               0.000047840               0.001042518               0.999999985               0.000108532               0.001031979               0.999999985              -0.000395977               0.001210727               0.999999985              -0.000284079               0.001149251               0.999999985              -0.000242137               0.001119367               0.999999985              -0.000227597               0.001111544               0.999999985              -0.000223213               0.001117437               0.999999985              -0.000220954               0.001130939               0.999999985              -0.000216634               0.001147921               0.999999985              -0.000208088               0.001165633               0.999999985              -0.000194324               0.001182277               0.999999985              -0.000174378               0.001196556               0.999999985              -0.000148170               0.001207807               0.999999985              -0.000115826               0.001215789               0.999999985              -0.000076885               0.001220600               0.999999985              -0.000031274               0.001222365               0.999999985               0.000020644               0.001221645               0.999999985               0.000078345               0.001219306               0.999999985               0.000140585               0.001216447               0.999999985              -0.000320952               0.001274213               0.999999985              -0.000223433               0.001240858               0.999999985              -0.000183666               0.001221499               0.999999985              -0.000168240               0.001217318               0.999999985              -0.000162863               0.001224675               0.999999985              -0.000160519               0.001239619               0.999999985              -0.000157094               0.001258871               0.999999985              -0.000150740               0.001280256               0.999999985              -0.000140338               0.001301939               0.999999985              -0.000124797               0.001322448               0.999999985              -0.000103529               0.001340897               0.999999985              -0.000076412               0.001356892               0.999999985              -0.000043086               0.001370261               0.999999985              -0.000003038               0.001381162               0.999999985               0.000044285               0.001389588               0.999999985               0.000099500               0.001395968               0.999999985               0.000162256               0.001401047               0.999999985              -0.000243176               0.001324921               0.999999985              -0.000165380               0.001317184               0.999999985              -0.000131185               0.001309727               0.999999985              -0.000116634               0.001311039               0.999999985              -0.000110886               0.001321306               0.999999985              -0.000108230               0.001338615               0.999999985              -0.000105473               0.001360621               0.999999985              -0.000100792               0.001385620               0.999999985              -0.000093268               0.001412071               0.999999985              -0.000081868               0.001438485               0.999999985              -0.000065806               0.001463918               0.999999985              -0.000044674               0.001487801               0.999999985              -0.000018051               0.001509760               0.999999985               0.000014747               0.001529704               0.999999985               0.000055018               0.001547448               0.999999985               0.000103883               0.001562993               0.999999985               0.000162658               0.001576516               0.999999985              -0.000163275               0.001361907               0.999999985              -0.000109272               0.001374607               0.999999985              -0.000084069               0.001378092               0.999999985              -0.000072589               0.001385241               0.999999985              -0.000067547               0.001398983               0.999999985              -0.000065159               0.001418765               0.999999985              -0.000063134               0.001443448               0.999999985              -0.000059972               0.001471599               0.999999985              -0.000055017               0.001501886               0.999999985              -0.000047542               0.001533243               0.999999985              -0.000036879               0.001564675               0.999999985              -0.000022543               0.001595555               0.999999985              -0.000003915               0.001625493               0.999999985               0.000019601               0.001654009               0.999999985               0.000049328               0.001680639               0.999999985               0.000086928               0.001704974               0.999999985               0.000134183               0.001726737               0.999999985              -0.000081973               0.001384431               0.999999985              -0.000054364               0.001410272               0.999999985              -0.000040968               0.001421518               0.999999985              -0.000034593               0.001433179               0.999999985              -0.000031591               0.001449635               0.999999985              -0.000030181               0.001471342               0.999999985              -0.000029057               0.001497820               0.999999985              -0.000027571               0.001528034               0.999999985              -0.000025018               0.001560886               0.999999985              -0.000021268               0.001595519               0.999999985              -0.000016039               0.001631123               0.999999985              -0.000008936               0.001667081               0.999999985               0.000000621               0.001702939               0.999999985               0.000013090               0.001737980               0.999999985               0.000029025               0.001771509               0.999999985               0.000049615               0.001802803               0.999999985               0.000076621               0.001831094               0.999999985               0.000000000               0.001392019               0.999999985              -0.000000000               0.001422399               0.999999985               0.000000000               0.001436479               0.999999985              -0.000000000               0.001449855               0.999999985               0.000000000               0.001467298               0.999999985               0.000000000               0.001489757               0.999999985              -0.000000000               0.001516925               0.999999985               0.000000000               0.001547849               0.999999985              -0.000000000               0.001581619               0.999999985              -0.000000000               0.001617255               0.999999985              -0.000000000               0.001654239               0.999999985               0.000000000               0.001692161               0.999999985               0.000000000               0.001730205               0.999999985              -0.000000000               0.001767659               0.999999985              -0.000000000               0.001803965               0.999999985               0.000000000               0.001838198               0.999999985              -0.000000000               0.001869134               0.999999985              -0.000879404               0.000000000               0.999999985              -0.000929831               0.000000000               0.999999985              -0.000951120               0.000000000               0.999999985              -0.000963088              -0.000000000               0.999999985              -0.000973027              -0.000000000               0.999999985              -0.000983600               0.000000000               0.999999985              -0.000995475               0.000000000               0.999999985              -0.001008666              -0.000000000               0.999999985              -0.001022634              -0.000000000               0.999999985              -0.001036879              -0.000000000               0.999999985              -0.001050979              -0.000000000               0.999999985              -0.001064602              -0.000000000               0.999999985              -0.001077395              -0.000000000               0.999999985              -0.001088969               0.000000000               0.999999985              -0.001098852               0.000000000               0.999999985              -0.001106510              -0.000000000               0.999999985              -0.001111057               0.000000000               0.999999985              -0.000874413              -0.000131989               0.999999985              -0.000920647              -0.000104979               0.999999985              -0.000939201              -0.000092852               0.999999985              -0.000949431              -0.000088076               0.999999985              -0.000958216              -0.000087089               0.999999985              -0.000967792              -0.000087754               0.999999985              -0.000978665              -0.000088950               0.999999985              -0.000990674              -0.000089742               0.999999985              -0.001003386              -0.000089797               0.999999985              -0.001016257              -0.000088738               0.999999985              -0.001028791              -0.000086273               0.999999985              -0.001040615              -0.000082209               0.999999985              -0.001051442              -0.000076344               0.999999985              -0.001060864              -0.000068229               0.999999985              -0.001068333              -0.000057058               0.999999985              -0.001073452              -0.000042024               0.999999985              -0.001075662              -0.000021577               0.999999985              -0.000859596              -0.000262732               0.999999985              -0.000893516              -0.000209638               0.999999985              -0.000904583              -0.000186578               0.999999985              -0.000910193              -0.000178155               0.999999985              -0.000915730              -0.000176867               0.999999985              -0.000922620              -0.000178723               0.999999985              -0.000930932              -0.000181229               0.999999985              -0.000940117              -0.000183180               0.999999985              -0.000949577              -0.000183409               0.999999985              -0.000958629              -0.000181343               0.999999985              -0.000966883              -0.000176725               0.999999985              -0.000974019              -0.000169213               0.999999985              -0.000979701              -0.000158245               0.999999985              -0.000983594              -0.000143035               0.999999985              -0.000985274              -0.000122831               0.999999985              -0.000984438              -0.000096310               0.999999985              -0.000980916              -0.000061898               0.999999985              -0.000835434              -0.000391051               0.999999985              -0.000850006              -0.000313663               0.999999985              -0.000850255              -0.000282084               0.999999985              -0.000849614              -0.000271791               0.999999985              -0.000851059              -0.000271348               0.999999985              -0.000854637              -0.000274970               0.999999985              -0.000859529              -0.000279353               0.999999985              -0.000864860              -0.000282426               0.999999985              -0.000869682              -0.000282882               0.999999985              -0.000873501              -0.000280075               0.999999985              -0.000875866              -0.000273771               0.999999985              -0.000876555              -0.000263498               0.999999985              -0.000875238              -0.000248669               0.999999985              -0.000871430              -0.000228520               0.999999985              -0.000864980              -0.000202296               0.999999985              -0.000855889              -0.000169162               0.999999985              -0.000844453              -0.000128407               0.999999985              -0.000802342              -0.000515888               0.999999985              -0.000792345              -0.000417003               0.999999985              -0.000780480              -0.000379908               0.999999985              -0.000773538              -0.000369724               0.999999985              -0.000771179              -0.000371311               0.999999985              -0.000771535              -0.000377316               0.999999985              -0.000773015              -0.000383529               0.999999985              -0.000774105              -0.000387715               0.999999985              -0.000773937              -0.000388318               0.999999985              -0.000771827              -0.000384994               0.999999985              -0.000767450              -0.000377330               0.999999985              -0.000760512              -0.000365212               0.999999985              -0.000750746              -0.000347772               0.999999985              -0.000737993              -0.000324384               0.999999985              -0.000722246              -0.000294879               0.999999985              -0.000703883              -0.000259198               0.999999985              -0.000683494              -0.000217655               0.999999985              -0.000761058              -0.000636054               0.999999985              -0.000723422              -0.000519788               0.999999985              -0.000700248              -0.000480166               0.999999985              -0.000688521              -0.000471702               0.999999985              -0.000683539              -0.000476122               0.999999985              -0.000681568              -0.000484485               0.999999985              -0.000679907              -0.000492498               0.999999985              -0.000676747              -0.000497474               0.999999985              -0.000671119              -0.000498340               0.999999985              -0.000662471              -0.000494500               0.999999985              -0.000650524              -0.000485927               0.999999985              -0.000634966              -0.000472346               0.999999985              -0.000615729              -0.000453009               0.999999985              -0.000593063              -0.000427729               0.999999985              -0.000567235              -0.000397146               0.999999985              -0.000539006              -0.000361768               0.999999985              -0.000509278              -0.000322719               0.999999985              -0.000712328              -0.000750452               0.999999985              -0.000646688              -0.000622044               0.999999985              -0.000614881              -0.000582354               0.999999985              -0.000600764              -0.000576613               0.999999985              -0.000594766              -0.000583931               0.999999985              -0.000591220              -0.000594580               0.999999985              -0.000586708              -0.000603975               0.999999985              -0.000579149              -0.000609455               0.999999985              -0.000567560              -0.000610214               0.999999985              -0.000551609              -0.000605973               0.999999985              -0.000531102              -0.000596341               0.999999985              -0.000506091              -0.000581407               0.999999985              -0.000476719              -0.000560664               0.999999985              -0.000443593              -0.000534473               0.999999985              -0.000407520              -0.000504176               0.999999985              -0.000369531              -0.000470661               0.999999985              -0.000330434              -0.000435197               0.999999985              -0.000657073              -0.000858004               0.999999985              -0.000565632              -0.000723599               0.999999985              -0.000528983              -0.000685655               0.999999985              -0.000515411              -0.000682704               0.999999985              -0.000509861              -0.000692484               0.999999985              -0.000505281              -0.000705007               0.999999985              -0.000497748              -0.000715351               0.999999985              -0.000485156              -0.000721006               0.999999985              -0.000466865              -0.000721575               0.999999985              -0.000442637              -0.000716545               0.999999985              -0.000412638              -0.000705721               0.999999985              -0.000377344              -0.000689287               0.999999985              -0.000337215              -0.000667370               0.999999985              -0.000293254              -0.000641075               0.999999985              -0.000246655              -0.000611980               0.999999985              -0.000198454              -0.000581041               0.999999985              -0.000149464              -0.000549175               0.999999985              -0.000597208              -0.000956677               0.999999985              -0.000483103              -0.000824241               0.999999985              -0.000447095              -0.000788481               0.999999985              -0.000436225              -0.000787683               0.999999985              -0.000432039              -0.000799374               0.999999985              -0.000426393              -0.000813241               0.999999985              -0.000415031              -0.000824267               0.999999985              -0.000396436              -0.000830089               0.999999985              -0.000370259              -0.000830110               0.999999985              -0.000336610              -0.000823899               0.999999985              -0.000296032              -0.000811620               0.999999985              -0.000249416              -0.000793681               0.999999985              -0.000197575              -0.000771327               0.999999985              -0.000141968              -0.000746050               0.999999985              -0.000084141              -0.000719245               0.999999985              -0.000025123              -0.000691927               0.999999985               0.000034050              -0.000664603               0.999999985              -0.000535218              -0.001050286               0.999999985              -0.000413884              -0.000937162               0.999999985              -0.000375170              -0.000897521               0.999999985              -0.000363806              -0.000891590               0.999999985              -0.000360489              -0.000900010               0.999999985              -0.000356722              -0.000913477               0.999999985              -0.000348363              -0.000926744               0.999999985              -0.000333599              -0.000937136               0.999999985              -0.000311696              -0.000943120               0.999999985              -0.000282688              -0.000944229               0.999999985              -0.000246986              -0.000940344               0.999999985              -0.000204781              -0.000931783               0.999999985              -0.000156560              -0.000919148               0.999999985              -0.000103446              -0.000903351               0.999999985              -0.000046649              -0.000885454               0.999999985               0.000012399              -0.000866941               0.999999985               0.000072247              -0.000848291               0.999999985              -0.000467608              -0.001135703               0.999999985              -0.000347527              -0.001046646               0.999999985              -0.000306312              -0.001009504               0.999999985              -0.000293480              -0.001000954               0.999999985              -0.000289957              -0.001007287               0.999999985              -0.000287341              -0.001020355               0.999999985              -0.000281347              -0.001035482               0.999999985              -0.000270010              -0.001049700               0.999999985              -0.000252341              -0.001061207               0.999999985              -0.000227892              -0.001069050               0.999999985              -0.000196913              -0.001072929               0.999999985              -0.000159542              -0.001072808               0.999999985              -0.000115750              -0.001068973               0.999999985              -0.000065881              -0.001062033               0.999999985              -0.000010898              -0.001052871               0.999999985               0.000047840              -0.001042518               0.999999985               0.000108532              -0.001031979               0.999999985              -0.000395977              -0.001210727               0.999999985              -0.000284079              -0.001149251               0.999999985              -0.000242137              -0.001119367               0.999999985              -0.000227597              -0.001111544               0.999999985              -0.000223213              -0.001117437               0.999999985              -0.000220954              -0.001130939               0.999999985              -0.000216634              -0.001147921               0.999999985              -0.000208088              -0.001165633               0.999999985              -0.000194324              -0.001182277               0.999999985              -0.000174378              -0.001196556               0.999999985              -0.000148170              -0.001207807               0.999999985              -0.000115826              -0.001215789               0.999999985              -0.000076885              -0.001220600               0.999999985              -0.000031274              -0.001222365               0.999999985               0.000020644              -0.001221645               0.999999985               0.000078345              -0.001219306               0.999999985               0.000140585              -0.001216447               0.999999985              -0.000320952              -0.001274213               0.999999985              -0.000223433              -0.001240858               0.999999985              -0.000183666              -0.001221499               0.999999985              -0.000168240              -0.001217318               0.999999985              -0.000162863              -0.001224675               0.999999985              -0.000160519              -0.001239619               0.999999985              -0.000157094              -0.001258871               0.999999985              -0.000150740              -0.001280256               0.999999985              -0.000140338              -0.001301939               0.999999985              -0.000124797              -0.001322448               0.999999985              -0.000103529              -0.001340897               0.999999985              -0.000076412              -0.001356892               0.999999985              -0.000043086              -0.001370261               0.999999985              -0.000003038              -0.001381162               0.999999985               0.000044285              -0.001389588               0.999999985               0.000099500              -0.001395968               0.999999985               0.000162256              -0.001401047               0.999999985              -0.000243176              -0.001324921               0.999999985              -0.000165380              -0.001317184               0.999999985              -0.000131185              -0.001309727               0.999999985              -0.000116634              -0.001311039               0.999999985              -0.000110886              -0.001321306               0.999999985              -0.000108230              -0.001338615               0.999999985              -0.000105473              -0.001360621               0.999999985              -0.000100792              -0.001385620               0.999999985              -0.000093268              -0.001412071               0.999999985              -0.000081868              -0.001438485               0.999999985              -0.000065806              -0.001463918               0.999999985              -0.000044674              -0.001487801               0.999999985              -0.000018051              -0.001509760               0.999999985               0.000014747              -0.001529704               0.999999985               0.000055018              -0.001547448               0.999999985               0.000103883              -0.001562993               0.999999985               0.000162658              -0.001576516               0.999999985              -0.000163275              -0.001361907               0.999999985              -0.000109272              -0.001374607               0.999999985              -0.000084069              -0.001378092               0.999999985              -0.000072589              -0.001385241               0.999999985              -0.000067547              -0.001398983               0.999999985              -0.000065159              -0.001418765               0.999999985              -0.000063134              -0.001443448               0.999999985              -0.000059972              -0.001471599               0.999999985              -0.000055017              -0.001501886               0.999999985              -0.000047542              -0.001533243               0.999999985              -0.000036879              -0.001564675               0.999999985              -0.000022543              -0.001595555               0.999999985              -0.000003915              -0.001625493               0.999999985               0.000019601              -0.001654009               0.999999985               0.000049328              -0.001680639               0.999999985               0.000086928              -0.001704974               0.999999985               0.000134183              -0.001726737               0.999999985              -0.000081973              -0.001384431               0.999999985              -0.000054364              -0.001410272               0.999999985              -0.000040968              -0.001421518               0.999999985              -0.000034593              -0.001433179               0.999999985              -0.000031591              -0.001449635               0.999999985              -0.000030181              -0.001471342               0.999999985              -0.000029057              -0.001497820               0.999999985              -0.000027571              -0.001528034               0.999999985              -0.000025018              -0.001560886               0.999999985              -0.000021268              -0.001595519               0.999999985              -0.000016039              -0.001631123               0.999999985              -0.000008936              -0.001667081               0.999999985               0.000000621              -0.001702939               0.999999985               0.000013090              -0.001737980               0.999999985               0.000029025              -0.001771509               0.999999985               0.000049615              -0.001802803               0.999999985               0.000076621              -0.001831094               0.999999985               0.000000000              -0.001392019               0.999999985              -0.000000000              -0.001422399               0.999999985               0.000000000              -0.001436479               0.999999985               0.000000000              -0.001449855               0.999999985              -0.000000000              -0.001467298               0.999999985              -0.000000000              -0.001489757               0.999999985              -0.000000000              -0.001516925               0.999999985               0.000000000              -0.001547849               0.999999985               0.000000000              -0.001581619               0.999999985               0.000000000              -0.001617255               0.999999985              -0.000000000              -0.001654239               0.999999985              -0.000000000              -0.001692161               0.999999985               0.000000000              -0.001730205               0.999999985               0.000000000              -0.001767659               0.999999985               0.000000000              -0.001803965               0.999999985               0.000000000              -0.001838198               0.999999985              -0.000000000              -0.001869134               0.999999985               0.000879404              -0.000000000               0.999999985               0.000929831              -0.000000000               0.999999985               0.000951120               0.000000000               0.999999985               0.000963088              -0.000000000               0.999999985               0.000973027              -0.000000000               0.999999985               0.000983600              -0.000000000               0.999999985               0.000995475               0.000000000               0.999999985               0.001008666              -0.000000000               0.999999985               0.001022634              -0.000000000               0.999999985               0.001036879              -0.000000000               0.999999985               0.001050979              -0.000000000               0.999999985               0.001064602               0.000000000               0.999999985               0.001077395               0.000000000               0.999999985               0.001088969               0.000000000               0.999999985               0.001098852              -0.000000000               0.999999985               0.001106510               0.000000000               0.999999985               0.001111057               0.000000000               0.999999985               0.000874413              -0.000131989               0.999999985               0.000920647              -0.000104979               0.999999985               0.000939201              -0.000092852               0.999999985               0.000949431              -0.000088076               0.999999985               0.000958216              -0.000087089               0.999999985               0.000967792              -0.000087754               0.999999985               0.000978665              -0.000088950               0.999999985               0.000990674              -0.000089742               0.999999985               0.001003386              -0.000089797               0.999999985               0.001016257              -0.000088738               0.999999985               0.001028791              -0.000086273               0.999999985               0.001040615              -0.000082209               0.999999985               0.001051442              -0.000076344               0.999999985               0.001060864              -0.000068229               0.999999985               0.001068333              -0.000057058               0.999999985               0.001073452              -0.000042024               0.999999985               0.001075662              -0.000021577               0.999999985               0.000859596              -0.000262732               0.999999985               0.000893516              -0.000209638               0.999999985               0.000904583              -0.000186578               0.999999985               0.000910193              -0.000178155               0.999999985               0.000915730              -0.000176867               0.999999985               0.000922620              -0.000178723               0.999999985               0.000930932              -0.000181229               0.999999985               0.000940117              -0.000183180               0.999999985               0.000949577              -0.000183409               0.999999985               0.000958629              -0.000181343               0.999999985               0.000966883              -0.000176725               0.999999985               0.000974019              -0.000169213               0.999999985               0.000979701              -0.000158245               0.999999985               0.000983594              -0.000143035               0.999999985               0.000985274              -0.000122831               0.999999985               0.000984438              -0.000096310               0.999999985               0.000980916              -0.000061898               0.999999985               0.000835434              -0.000391051               0.999999985               0.000850006              -0.000313663               0.999999985               0.000850255              -0.000282084               0.999999985               0.000849614              -0.000271791               0.999999985               0.000851059              -0.000271348               0.999999985               0.000854637              -0.000274970               0.999999985               0.000859529              -0.000279353               0.999999985               0.000864860              -0.000282426               0.999999985               0.000869682              -0.000282882               0.999999985               0.000873501              -0.000280075               0.999999985               0.000875866              -0.000273771               0.999999985               0.000876555              -0.000263498               0.999999985               0.000875238              -0.000248669               0.999999985               0.000871430              -0.000228520               0.999999985               0.000864980              -0.000202296               0.999999985               0.000855889              -0.000169162               0.999999985               0.000844453              -0.000128407               0.999999985               0.000802342              -0.000515888               0.999999985               0.000792345              -0.000417003               0.999999985               0.000780480              -0.000379908               0.999999985               0.000773538              -0.000369724               0.999999985               0.000771179              -0.000371311               0.999999985               0.000771535              -0.000377316               0.999999985               0.000773015              -0.000383529               0.999999985               0.000774105              -0.000387715               0.999999985               0.000773937              -0.000388318               0.999999985               0.000771827              -0.000384994               0.999999985               0.000767450              -0.000377330               0.999999985               0.000760512              -0.000365212               0.999999985               0.000750746              -0.000347772               0.999999985               0.000737993              -0.000324384               0.999999985               0.000722246              -0.000294879               0.999999985               0.000703883              -0.000259198               0.999999985               0.000683494              -0.000217655               0.999999985               0.000761058              -0.000636054               0.999999985               0.000723422              -0.000519788               0.999999985               0.000700248              -0.000480166               0.999999985               0.000688521              -0.000471702               0.999999985               0.000683539              -0.000476122               0.999999985               0.000681568              -0.000484485               0.999999985               0.000679907              -0.000492498               0.999999985               0.000676747              -0.000497474               0.999999985               0.000671119              -0.000498340               0.999999985               0.000662471              -0.000494500               0.999999985               0.000650524              -0.000485927               0.999999985               0.000634966              -0.000472346               0.999999985               0.000615729              -0.000453009               0.999999985               0.000593063              -0.000427729               0.999999985               0.000567235              -0.000397146               0.999999985               0.000539006              -0.000361768               0.999999985               0.000509278              -0.000322719               0.999999985               0.000712328              -0.000750452               0.999999985               0.000646688              -0.000622044               0.999999985               0.000614881              -0.000582354               0.999999985               0.000600764              -0.000576613               0.999999985               0.000594766              -0.000583931               0.999999985               0.000591220              -0.000594580               0.999999985               0.000586708              -0.000603975               0.999999985               0.000579149              -0.000609455               0.999999985               0.000567560              -0.000610214               0.999999985               0.000551609              -0.000605973               0.999999985               0.000531102              -0.000596341               0.999999985               0.000506091              -0.000581407               0.999999985               0.000476719              -0.000560664               0.999999985               0.000443593              -0.000534473               0.999999985               0.000407520              -0.000504176               0.999999985               0.000369531              -0.000470661               0.999999985               0.000330434              -0.000435197               0.999999985               0.000657073              -0.000858004               0.999999985               0.000565632              -0.000723599               0.999999985               0.000528983              -0.000685655               0.999999985               0.000515411              -0.000682704               0.999999985               0.000509861              -0.000692484               0.999999985               0.000505281              -0.000705007               0.999999985               0.000497748              -0.000715351               0.999999985               0.000485156              -0.000721006               0.999999985               0.000466865              -0.000721575               0.999999985               0.000442637              -0.000716545               0.999999985               0.000412638              -0.000705721               0.999999985               0.000377344              -0.000689287               0.999999985               0.000337215              -0.000667370               0.999999985               0.000293254              -0.000641075               0.999999985               0.000246655              -0.000611980               0.999999985               0.000198454              -0.000581041               0.999999985               0.000149464              -0.000549175               0.999999985               0.000597208              -0.000956677               0.999999985               0.000483103              -0.000824241               0.999999985               0.000447095              -0.000788481               0.999999985               0.000436225              -0.000787683               0.999999985               0.000432039              -0.000799374               0.999999985               0.000426393              -0.000813241               0.999999985               0.000415031              -0.000824267               0.999999985               0.000396436              -0.000830089               0.999999985               0.000370259              -0.000830110               0.999999985               0.000336610              -0.000823899               0.999999985               0.000296032              -0.000811620               0.999999985               0.000249416              -0.000793681               0.999999985               0.000197575              -0.000771327               0.999999985               0.000141968              -0.000746050               0.999999985               0.000084141              -0.000719245               0.999999985               0.000025123              -0.000691927               0.999999985              -0.000034050              -0.000664603               0.999999985               0.000535218              -0.001050286               0.999999985               0.000413884              -0.000937162               0.999999985               0.000375170              -0.000897521               0.999999985               0.000363806              -0.000891590               0.999999985               0.000360489              -0.000900010               0.999999985               0.000356722              -0.000913477               0.999999985               0.000348363              -0.000926744               0.999999985               0.000333599              -0.000937136               0.999999985               0.000311696              -0.000943120               0.999999985               0.000282688              -0.000944229               0.999999985               0.000246986              -0.000940344               0.999999985               0.000204781              -0.000931783               0.999999985               0.000156560              -0.000919148               0.999999985               0.000103446              -0.000903351               0.999999985               0.000046649              -0.000885454               0.999999985              -0.000012399              -0.000866941               0.999999985              -0.000072247              -0.000848291               0.999999985               0.000467608              -0.001135703               0.999999985               0.000347527              -0.001046646               0.999999985               0.000306312              -0.001009504               0.999999985               0.000293480              -0.001000954               0.999999985               0.000289957              -0.001007287               0.999999985               0.000287341              -0.001020355               0.999999985               0.000281347              -0.001035482               0.999999985               0.000270010              -0.001049700               0.999999985               0.000252341              -0.001061207               0.999999985               0.000227892              -0.001069050               0.999999985               0.000196913              -0.001072929               0.999999985               0.000159542              -0.001072808               0.999999985               0.000115750              -0.001068973               0.999999985               0.000065881              -0.001062033               0.999999985               0.000010898              -0.001052871               0.999999985              -0.000047840              -0.001042518               0.999999985              -0.000108532              -0.001031979               0.999999985               0.000395977              -0.001210727               0.999999985               0.000284079              -0.001149251               0.999999985               0.000242137              -0.001119367               0.999999985               0.000227597              -0.001111544               0.999999985               0.000223213              -0.001117437               0.999999985               0.000220954              -0.001130939               0.999999985               0.000216634              -0.001147921               0.999999985               0.000208088              -0.001165633               0.999999985               0.000194324              -0.001182277               0.999999985               0.000174378              -0.001196556               0.999999985               0.000148170              -0.001207807               0.999999985               0.000115826              -0.001215789               0.999999985               0.000076885              -0.001220600               0.999999985               0.000031274              -0.001222365               0.999999985              -0.000020644              -0.001221645               0.999999985              -0.000078345              -0.001219306               0.999999985              -0.000140585              -0.001216447               0.999999985               0.000320952              -0.001274213               0.999999985               0.000223433              -0.001240858               0.999999985               0.000183666              -0.001221499               0.999999985               0.000168240              -0.001217318               0.999999985               0.000162863              -0.001224675               0.999999985               0.000160519              -0.001239619               0.999999985               0.000157094              -0.001258871               0.999999985               0.000150740              -0.001280256               0.999999985               0.000140338              -0.001301939               0.999999985               0.000124797              -0.001322448               0.999999985               0.000103529              -0.001340897               0.999999985               0.000076412              -0.001356892               0.999999985               0.000043086              -0.001370261               0.999999985               0.000003038              -0.001381162               0.999999985              -0.000044285              -0.001389588               0.999999985              -0.000099500              -0.001395968               0.999999985              -0.000162256              -0.001401047               0.999999985               0.000243176              -0.001324921               0.999999985               0.000165380              -0.001317184               0.999999985               0.000131185              -0.001309727               0.999999985               0.000116634              -0.001311039               0.999999985               0.000110886              -0.001321306               0.999999985               0.000108230              -0.001338615               0.999999985               0.000105473              -0.001360621               0.999999985               0.000100792              -0.001385620               0.999999985               0.000093268              -0.001412071               0.999999985               0.000081868              -0.001438485               0.999999985               0.000065806              -0.001463918               0.999999985               0.000044674              -0.001487801               0.999999985               0.000018051              -0.001509760               0.999999985              -0.000014747              -0.001529704               0.999999985              -0.000055018              -0.001547448               0.999999985              -0.000103883              -0.001562993               0.999999985              -0.000162658              -0.001576516               0.999999985               0.000163275              -0.001361907               0.999999985               0.000109272              -0.001374607               0.999999985               0.000084069              -0.001378092               0.999999985               0.000072589              -0.001385241               0.999999985               0.000067547              -0.001398983               0.999999985               0.000065159              -0.001418765               0.999999985               0.000063134              -0.001443448               0.999999985               0.000059972              -0.001471599               0.999999985               0.000055017              -0.001501886               0.999999985               0.000047542              -0.001533243               0.999999985               0.000036879              -0.001564675               0.999999985               0.000022543              -0.001595555               0.999999985               0.000003915              -0.001625493               0.999999985              -0.000019601              -0.001654009               0.999999985              -0.000049328              -0.001680639               0.999999985              -0.000086928              -0.001704974               0.999999985              -0.000134183              -0.001726737               0.999999985               0.000081973              -0.001384431               0.999999985               0.000054364              -0.001410272               0.999999985               0.000040968              -0.001421518               0.999999985               0.000034593              -0.001433179               0.999999985               0.000031591              -0.001449635               0.999999985               0.000030181              -0.001471342               0.999999985               0.000029057              -0.001497820               0.999999985               0.000027571              -0.001528034               0.999999985               0.000025018              -0.001560886               0.999999985               0.000021268              -0.001595519               0.999999985               0.000016039              -0.001631123               0.999999985               0.000008936              -0.001667081               0.999999985              -0.000000621              -0.001702939               0.999999985              -0.000013090              -0.001737980               0.999999985              -0.000029025              -0.001771509               0.999999985              -0.000049615              -0.001802803               0.999999985              -0.000076621              -0.001831094               0.999999985               0.000000000              -0.001392019               0.999999985              -0.000000000              -0.001422399               0.999999985               0.000000000              -0.001436479               0.999999985               0.000000000              -0.001449855               0.999999985              -0.000000000              -0.001467298               0.999999985              -0.000000000              -0.001489757               0.999999985              -0.000000000              -0.001516925               0.999999985               0.000000000              -0.001547849               0.999999985               0.000000000              -0.001581619               0.999999985               0.000000000              -0.001617255               0.999999985              -0.000000000              -0.001654239               0.999999985              -0.000000000              -0.001692161               0.999999985               0.000000000              -0.001730205               0.999999985               0.000000000              -0.001767659               0.999999985               0.000000000              -0.001803965               0.999999985               0.000000000              -0.001838198               0.999999985              -0.000000000              -0.001869134               0.999999985               0.000879404              -0.000000000               0.999999985               0.000929831              -0.000000000               0.999999985               0.000951120               0.000000000               0.999999985               0.000963088              -0.000000000               0.999999985               0.000973027              -0.000000000               0.999999985               0.000983600              -0.000000000               0.999999985               0.000995475               0.000000000               0.999999985               0.001008666              -0.000000000               0.999999985               0.001022634              -0.000000000               0.999999985               0.001036879              -0.000000000               0.999999985               0.001050979              -0.000000000               0.999999985               0.001064602               0.000000000               0.999999985               0.001077395               0.000000000               0.999999985               0.001088969               0.000000000               0.999999985               0.001098852              -0.000000000               0.999999985               0.001106510               0.000000000               0.999999985               0.001111057               0.000000000               0.999999985               0.000874413               0.000131989               0.999999985               0.000920647               0.000104979               0.999999985               0.000939201               0.000092852               0.999999985               0.000949431               0.000088076               0.999999985               0.000958216               0.000087089               0.999999985               0.000967792               0.000087754               0.999999985               0.000978665               0.000088950               0.999999985               0.000990674               0.000089742               0.999999985               0.001003386               0.000089797               0.999999985               0.001016257               0.000088738               0.999999985               0.001028791               0.000086273               0.999999985               0.001040615               0.000082209               0.999999985               0.001051442               0.000076344               0.999999985               0.001060864               0.000068229               0.999999985               0.001068333               0.000057058               0.999999985               0.001073452               0.000042024               0.999999985               0.001075662               0.000021577               0.999999985               0.000859596               0.000262732               0.999999985               0.000893516               0.000209638               0.999999985               0.000904583               0.000186578               0.999999985               0.000910193               0.000178155               0.999999985               0.000915730               0.000176867               0.999999985               0.000922620               0.000178723               0.999999985               0.000930932               0.000181229               0.999999985               0.000940117               0.000183180               0.999999985               0.000949577               0.000183409               0.999999985               0.000958629               0.000181343               0.999999985               0.000966883               0.000176725               0.999999985               0.000974019               0.000169213               0.999999985               0.000979701               0.000158245               0.999999985               0.000983594               0.000143035               0.999999985               0.000985274               0.000122831               0.999999985               0.000984438               0.000096310               0.999999985               0.000980916               0.000061898               0.999999985               0.000835434               0.000391051               0.999999985               0.000850006               0.000313663               0.999999985               0.000850255               0.000282084               0.999999985               0.000849614               0.000271791               0.999999985               0.000851059               0.000271348               0.999999985               0.000854637               0.000274970               0.999999985               0.000859529               0.000279353               0.999999985               0.000864860               0.000282426               0.999999985               0.000869682               0.000282882               0.999999985               0.000873501               0.000280075               0.999999985               0.000875866               0.000273771               0.999999985               0.000876555               0.000263498               0.999999985               0.000875238               0.000248669               0.999999985               0.000871430               0.000228520               0.999999985               0.000864980               0.000202296               0.999999985               0.000855889               0.000169162               0.999999985               0.000844453               0.000128407               0.999999985               0.000802342               0.000515888               0.999999985               0.000792345               0.000417003               0.999999985               0.000780480               0.000379908               0.999999985               0.000773538               0.000369724               0.999999985               0.000771179               0.000371311               0.999999985               0.000771535               0.000377316               0.999999985               0.000773015               0.000383529               0.999999985               0.000774105               0.000387715               0.999999985               0.000773937               0.000388318               0.999999985               0.000771827               0.000384994               0.999999985               0.000767450               0.000377330               0.999999985               0.000760512               0.000365212               0.999999985               0.000750746               0.000347772               0.999999985               0.000737993               0.000324384               0.999999985               0.000722246               0.000294879               0.999999985               0.000703883               0.000259198               0.999999985               0.000683494               0.000217655               0.999999985               0.000761058               0.000636054               0.999999985               0.000723422               0.000519788               0.999999985               0.000700248               0.000480166               0.999999985               0.000688521               0.000471702               0.999999985               0.000683539               0.000476122               0.999999985               0.000681568               0.000484485               0.999999985               0.000679907               0.000492498               0.999999985               0.000676747               0.000497474               0.999999985               0.000671119               0.000498340               0.999999985               0.000662471               0.000494500               0.999999985               0.000650524               0.000485927               0.999999985               0.000634966               0.000472346               0.999999985               0.000615729               0.000453009               0.999999985               0.000593063               0.000427729               0.999999985               0.000567235               0.000397146               0.999999985               0.000539006               0.000361768               0.999999985               0.000509278               0.000322719               0.999999985               0.000712328               0.000750452               0.999999985               0.000646688               0.000622044               0.999999985               0.000614881               0.000582354               0.999999985               0.000600764               0.000576613               0.999999985               0.000594766               0.000583931               0.999999985               0.000591220               0.000594580               0.999999985               0.000586708               0.000603975               0.999999985               0.000579149               0.000609455               0.999999985               0.000567560               0.000610214               0.999999985               0.000551609               0.000605973               0.999999985               0.000531102               0.000596341               0.999999985               0.000506091               0.000581407               0.999999985               0.000476719               0.000560664               0.999999985               0.000443593               0.000534473               0.999999985               0.000407520               0.000504176               0.999999985               0.000369531               0.000470661               0.999999985               0.000330434               0.000435197               0.999999985               0.000657073               0.000858004               0.999999985               0.000565632               0.000723599               0.999999985               0.000528983               0.000685655               0.999999985               0.000515411               0.000682704               0.999999985               0.000509861               0.000692484               0.999999985               0.000505281               0.000705007               0.999999985               0.000497748               0.000715351               0.999999985               0.000485156               0.000721006               0.999999985               0.000466865               0.000721575               0.999999985               0.000442637               0.000716545               0.999999985               0.000412638               0.000705721               0.999999985               0.000377344               0.000689287               0.999999985               0.000337215               0.000667370               0.999999985               0.000293254               0.000641075               0.999999985               0.000246655               0.000611980               0.999999985               0.000198454               0.000581041               0.999999985               0.000149464               0.000549175               0.999999985               0.000597208               0.000956677               0.999999985               0.000483103               0.000824241               0.999999985               0.000447095               0.000788481               0.999999985               0.000436225               0.000787683               0.999999985               0.000432039               0.000799374               0.999999985               0.000426393               0.000813241               0.999999985               0.000415031               0.000824267               0.999999985               0.000396436               0.000830089               0.999999985               0.000370259               0.000830110               0.999999985               0.000336610               0.000823899               0.999999985               0.000296032               0.000811620               0.999999985               0.000249416               0.000793681               0.999999985               0.000197575               0.000771327               0.999999985               0.000141968               0.000746050               0.999999985               0.000084141               0.000719245               0.999999985               0.000025123               0.000691927               0.999999985              -0.000034050               0.000664603               0.999999985               0.000535218               0.001050286               0.999999985               0.000413884               0.000937162               0.999999985               0.000375170               0.000897521               0.999999985               0.000363806               0.000891590               0.999999985               0.000360489               0.000900010               0.999999985               0.000356722               0.000913477               0.999999985               0.000348363               0.000926744               0.999999985               0.000333599               0.000937136               0.999999985               0.000311696               0.000943120               0.999999985               0.000282688               0.000944229               0.999999985               0.000246986               0.000940344               0.999999985               0.000204781               0.000931783               0.999999985               0.000156560               0.000919148               0.999999985               0.000103446               0.000903351               0.999999985               0.000046649               0.000885454               0.999999985              -0.000012399               0.000866941               0.999999985              -0.000072247               0.000848291               0.999999985               0.000467608               0.001135703               0.999999985               0.000347527               0.001046646               0.999999985               0.000306312               0.001009504               0.999999985               0.000293480               0.001000954               0.999999985               0.000289957               0.001007287               0.999999985               0.000287341               0.001020355               0.999999985               0.000281347               0.001035482               0.999999985               0.000270010               0.001049700               0.999999985               0.000252341               0.001061207               0.999999985               0.000227892               0.001069050               0.999999985               0.000196913               0.001072929               0.999999985               0.000159542               0.001072808               0.999999985               0.000115750               0.001068973               0.999999985               0.000065881               0.001062033               0.999999985               0.000010898               0.001052871               0.999999985              -0.000047840               0.001042518               0.999999985              -0.000108532               0.001031979               0.999999985               0.000395977               0.001210727               0.999999985               0.000284079               0.001149251               0.999999985               0.000242137               0.001119367               0.999999985               0.000227597               0.001111544               0.999999985               0.000223213               0.001117437               0.999999985               0.000220954               0.001130939               0.999999985               0.000216634               0.001147921               0.999999985               0.000208088               0.001165633               0.999999985               0.000194324               0.001182277               0.999999985               0.000174378               0.001196556               0.999999985               0.000148170               0.001207807               0.999999985               0.000115826               0.001215789               0.999999985               0.000076885               0.001220600               0.999999985               0.000031274               0.001222365               0.999999985              -0.000020644               0.001221645               0.999999985              -0.000078345               0.001219306               0.999999985              -0.000140585               0.001216447               0.999999985               0.000320952               0.001274213               0.999999985               0.000223433               0.001240858               0.999999985               0.000183666               0.001221499               0.999999985               0.000168240               0.001217318               0.999999985               0.000162863               0.001224675               0.999999985               0.000160519               0.001239619               0.999999985               0.000157094               0.001258871               0.999999985               0.000150740               0.001280256               0.999999985               0.000140338               0.001301939               0.999999985               0.000124797               0.001322448               0.999999985               0.000103529               0.001340897               0.999999985               0.000076412               0.001356892               0.999999985               0.000043086               0.001370261               0.999999985               0.000003038               0.001381162               0.999999985              -0.000044285               0.001389588               0.999999985              -0.000099500               0.001395968               0.999999985              -0.000162256               0.001401047               0.999999985               0.000243176               0.001324921               0.999999985               0.000165380               0.001317184               0.999999985               0.000131185               0.001309727               0.999999985               0.000116634               0.001311039               0.999999985               0.000110886               0.001321306               0.999999985               0.000108230               0.001338615               0.999999985               0.000105473               0.001360621               0.999999985               0.000100792               0.001385620               0.999999985               0.000093268               0.001412071               0.999999985               0.000081868               0.001438485               0.999999985               0.000065806               0.001463918               0.999999985               0.000044674               0.001487801               0.999999985               0.000018051               0.001509760               0.999999985              -0.000014747               0.001529704               0.999999985              -0.000055018               0.001547448               0.999999985              -0.000103883               0.001562993               0.999999985              -0.000162658               0.001576516               0.999999985               0.000163275               0.001361907               0.999999985               0.000109272               0.001374607               0.999999985               0.000084069               0.001378092               0.999999985               0.000072589               0.001385241               0.999999985               0.000067547               0.001398983               0.999999985               0.000065159               0.001418765               0.999999985               0.000063134               0.001443448               0.999999985               0.000059972               0.001471599               0.999999985               0.000055017               0.001501886               0.999999985               0.000047542               0.001533243               0.999999985               0.000036879               0.001564675               0.999999985               0.000022543               0.001595555               0.999999985               0.000003915               0.001625493               0.999999985              -0.000019601               0.001654009               0.999999985              -0.000049328               0.001680639               0.999999985              -0.000086928               0.001704974               0.999999985              -0.000134183               0.001726737               0.999999985               0.000081973               0.001384431               0.999999985               0.000054364               0.001410272               0.999999985               0.000040968               0.001421518               0.999999985               0.000034593               0.001433179               0.999999985               0.000031591               0.001449635               0.999999985               0.000030181               0.001471342               0.999999985               0.000029057               0.001497820               0.999999985               0.000027571               0.001528034               0.999999985               0.000025018               0.001560886               0.999999985               0.000021268               0.001595519               0.999999985               0.000016039               0.001631123               0.999999985               0.000008936               0.001667081               0.999999985              -0.000000621               0.001702939               0.999999985              -0.000013090               0.001737980               0.999999985              -0.000029025               0.001771509               0.999999985              -0.000049615               0.001802803               0.999999985              -0.000076621               0.001831094               0.999999985               0.000000000               0.001392019               0.999999985              -0.000000000               0.001422399               0.999999985               0.000000000               0.001436479               0.999999985              -0.000000000               0.001449855               0.999999985               0.000000000               0.001467298               0.999999985               0.000000000               0.001489757               0.999999985              -0.000000000               0.001516925               0.999999985               0.000000000               0.001547849               0.999999985              -0.000000000               0.001581619               0.999999985              -0.000000000               0.001617255               0.999999985              -0.000000000               0.001654239               0.999999985               0.000000000               0.001692161               0.999999985               0.000000000               0.001730205               0.999999985              -0.000000000               0.001767659               0.999999985              -0.000000000               0.001803965               0.999999985               0.000000000               0.001838198               0.999999985              -0.000000000               0.001869134               0.999999985 </DataArray>
<DataArray type="Float64"                                    Name="defo"                                                      NumberOfComponents=" 3" format="ascii">
             -0.000879404               0.000000000               0.999999985              -0.000929831               0.000000000               0.999999985              -0.000951120               0.000000000               0.999999985              -0.000963088              -0.000000000               0.999999985              -0.000973027              -0.000000000               0.999999985              -0.000983600               0.000000000               0.999999985              -0.000995475               0.000000000               0.999999985              -0.001008666              -0.000000000               0.999999985              -0.001022634              -0.000000000               0.999999985              -0.001036879              -0.000000000               0.999999985              -0.001050979              -0.000000000               0.999999985              -0.001064602              -0.000000000               0.999999985              -0.001077395              -0.000000000               0.999999985              -0.001088969               0.000000000               0.999999985              -0.001098852               0.000000000               0.999999985              -0.001106510              -0.000000000               0.999999985              -0.001111057               0.000000000               0.999999985              -0.000874413               0.000131989               0.999999985              -0.000920647               0.000104979               0.999999985              -0.000939201               0.000092852               0.999999985              -0.000949431               0.000088076               0.999999985              -0.000958216               0.000087089               0.999999985              -0.000967792               0.000087754               0.999999985              -0.000978665               0.000088950               0.999999985              -0.000990674               0.000089742               0.999999985              -0.001003386               0.000089797               0.999999985              -0.001016257               0.000088738               0.999999985              -0.001028791               0.000086273               0.999999985              -0.001040615               0.000082209               0.999999985              -0.001051442               0.000076344               0.999999985              -0.001060864               0.000068229               0.999999985              -0.001068333               0.000057058               0.999999985              -0.001073452               0.000042024               0.999999985              -0.001075662               0.000021577               0.999999985              -0.000859596               0.000262732               0.999999985              -0.000893516               0.000209638               0.999999985              -0.000904583               0.000186578               0.999999985              -0.000910193               0.000178155               0.999999985              -0.000915730               0.000176867               0.999999985              -0.000922620               0.000178723               0.999999985              -0.000930932               0.000181229               0.999999985              -0.000940117               0.000183180               0.999999985              -0.000949577               0.000183409               0.999999985              -0.000958629               0.000181343               0.999999985              -0.000966883               0.000176725               0.999999985              -0.000974019               0.000169213               0.999999985              -0.000979701               0.000158245               0.999999985              -0.000983594               0.000143035               0.999999985              -0.000985274               0.000122831               0.999999985              -0.000984438               0.000096310               0.999999985              -0.000980916               0.000061898               0.999999985              -0.000835434               0.000391051               0.999999985              -0.000850006               0.000313663               0.999999985              -0.000850255               0.000282084               0.999999985              -0.000849614               0.000271791               0.999999985              -0.000851059               0.000271348               0.999999985              -0.000854637               0.000274970               0.999999985              -0.000859529               0.000279353               0.999999985              -0.000864860               0.000282426               0.999999985              -0.000869682               0.000282882               0.999999985              -0.000873501               0.000280075               0.999999985              -0.000875866               0.000273771               0.999999985              -0.000876555               0.000263498               0.999999985              -0.000875238               0.000248669               0.999999985              -0.000871430               0.000228520               0.999999985              -0.000864980               0.000202296               0.999999985              -0.000855889               0.000169162               0.999999985              -0.000844453               0.000128407               0.999999985              -0.000802342               0.000515888               0.999999985              -0.000792345               0.000417003               0.999999985              -0.000780480               0.000379908               0.999999985              -0.000773538               0.000369724               0.999999985              -0.000771179               0.000371311               0.999999985              -0.000771535               0.000377316               0.999999985              -0.000773015               0.000383529               0.999999985              -0.000774105               0.000387715               0.999999985              -0.000773937               0.000388318               0.999999985              -0.000771827               0.000384994               0.999999985              -0.000767450               0.000377330               0.999999985              -0.000760512               0.000365212               0.999999985              -0.000750746               0.000347772               0.999999985              -0.000737993               0.000324384               0.999999985              -0.000722246               0.000294879               0.999999985              -0.000703883               0.000259198               0.999999985              -0.000683494               0.000217655               0.999999985              -0.000761058               0.000636054               0.999999985              -0.000723422               0.000519788               0.999999985              -0.000700248               0.000480166               0.999999985              -0.000688521               0.000471702               0.999999985              -0.000683539               0.000476122               0.999999985              -0.000681568               0.000484485               0.999999985              -0.000679907               0.000492498               0.999999985              -0.000676747               0.000497474               0.999999985              -0.000671119               0.000498340               0.999999985              -0.000662471               0.000494500               0.999999985              -0.000650524               0.000485927               0.999999985              -0.000634966               0.000472346               0.999999985              -0.000615729               0.000453009               0.999999985              -0.000593063               0.000427729               0.999999985              -0.000567235               0.000397146               0.999999985              -0.000539006               0.000361768               0.999999985              -0.000509278               0.000322719               0.999999985              -0.000712328               0.000750452               0.999999985              -0.000646688               0.000622044               0.999999985              -0.000614881               0.000582354               0.999999985              -0.000600764               0.000576613               0.999999985              -0.000594766               0.000583931               0.999999985              -0.000591220               0.000594580               0.999999985              -0.000586708               0.000603975               0.999999985              -0.000579149               0.000609455               0.999999985              -0.000567560               0.000610214               0.999999985              -0.000551609               0.000605973               0.999999985              -0.000531102               0.000596341               0.999999985              -0.000506091               0.000581407               0.999999985              -0.000476719               0.000560664               0.999999985              -0.000443593               0.000534473               0.999999985              -0.000407520               0.000504176               0.999999985              -0.000369531               0.000470661               0.999999985              -0.000330434               0.000435197               0.999999985              -0.000657073               0.000858004               0.999999985              -0.000565632               0.000723599               0.999999985              -0.000528983               0.000685655               0.999999985              -0.000515411               0.000682704               0.999999985              -0.000509861               0.000692484               0.999999985              -0.000505281               0.000705007               0.999999985              -0.000497748               0.000715351               0.999999985              -0.000485156               0.000721006               0.999999985              -0.000466865               0.000721575               0.999999985              -0.000442637               0.000716545               0.999999985              -0.000412638               0.000705721               0.999999985              -0.000377344               0.000689287               0.999999985              -0.000337215               0.000667370               0.999999985              -0.000293254               0.000641075               0.999999985              -0.000246655               0.000611980               0.999999985              -0.000198454               0.000581041               0.999999985              -0.000149464               0.000549175               0.999999985              -0.000597208               0.000956677               0.999999985              -0.000483103               0.000824241               0.999999985              -0.000447095               0.000788481               0.999999985              -0.000436225               0.000787683               0.999999985              -0.000432039               0.000799374               0.999999985              -0.000426393               0.000813241               0.999999985              -0.000415031               0.000824267               0.999999985              -0.000396436               0.000830089               0.999999985              -0.000370259               0.000830110               0.999999985              -0.000336610               0.000823899               0.999999985              -0.000296032               0.000811620               0.999999985              -0.000249416               0.000793681               0.999999985              -0.000197575               0.000771327               0.999999985              -0.000141968               0.000746050               0.999999985              -0.000084141               0.000719245               0.999999985              -0.000025123               0.000691927               0.999999985               0.000034050               0.000664603               0.999999985              -0.000535218               0.001050286               0.999999985              -0.000413884               0.000937162               0.999999985              -0.000375170               0.000897521               0.999999985              -0.000363806               0.000891590               0.999999985              -0.000360489               0.000900010               0.999999985              -0.000356722               0.000913477               0.999999985              -0.000348363               0.000926744               0.999999985              -0.000333599               0.000937136               0.999999985              -0.000311696               0.000943120               0.999999985              -0.000282688               0.000944229               0.999999985              -0.000246986               0.000940344               0.999999985              -0.000204781               0.000931783               0.999999985              -0.000156560               0.000919148               0.999999985              -0.000103446               0.000903351               0.999999985              -0.000046649               0.000885454               0.999999985               0.000012399               0.000866941               0.999999985               0.000072247               0.000848291               0.999999985              -0.000467608               0.001135703               0.999999985              -0.000347527               0.001046646               0.999999985              -0.000306312               0.001009504               0.999999985              -0.000293480               0.001000954               0.999999985              -0.000289957               0.001007287               0.999999985              -0.000287341               0.001020355               0.999999985              -0.000281347               0.001035482               0.999999985              -0.000270010               0.001049700               0.999999985              -0.000252341               0.001061207               0.999999985              -0.000227892               0.001069050               0.999999985              -0.000196913               0.001072929               0.999999985              -0.000159542               0.001072808               0.999999985              -0.000115750               0.001068973               0.999999985              -0.000065881               0.001062033               0.999999985              -0.000010898               0.001052871               0.999999985               0.000047840               0.001042518               0.999999985               0.000108532               0.001031979               0.999999985              -0.000395977               0.001210727               0.999999985              -0.000284079               0.001149251               0.999999985              -0.000242137               0.001119367               0.999999985              -0.000227597               0.001111544               0.999999985              -0.000223213               0.001117437               0.999999985              -0.000220954               0.001130939               0.999999985              -0.000216634               0.001147921               0.999999985              -0.000208088               0.001165633               0.999999985              -0.000194324               0.001182277               0.999999985              -0.000174378               0.001196556               0.999999985              -0.000148170               0.001207807               0.999999985              -0.000115826               0.001215789               0.999999985              -0.000076885               0.001220600               0.999999985              -0.000031274               0.001222365               0.999999985               0.000020644               0.001221645               0.999999985               0.000078345               0.001219306               0.999999985               0.000140585               0.001216447               0.999999985              -0.000320952               0.001274213               0.999999985              -0.000223433               0.001240858               0.999999985              -0.000183666               0.001221499               0.999999985              -0.000168240               0.001217318               0.999999985              -0.000162863               0.001224675               0.999999985              -0.000160519               0.001239619               0.999999985              -0.000157094               0.001258871               0.999999985              -0.000150740               0.001280256               0.999999985              -0.000140338               0.001301939               0.999999985              -0.000124797               0.001322448               0.999999985              -0.000103529               0.001340897               0.999999985              -0.000076412               0.001356892               0.999999985              -0.000043086               0.001370261               0.999999985              -0.000003038               0.001381162               0.999999985               0.000044285               0.001389588               0.999999985               0.000099500               0.001395968               0.999999985               0.000162256               0.001401047               0.999999985              -0.000243176               0.001324921               0.999999985              -0.000165380               0.001317184               0.999999985              -0.000131185               0.001309727               0.999999985              -0.000116634               0.001311039               0.999999985              -0.000110886               0.001321306               0.999999985              -0.000108230               0.001338615               0.999999985              -0.000105473               0.001360621               0.999999985              -0.000100792               0.001385620               0.999999985              -0.000093268               0.001412071               0.999999985              -0.000081868               0.001438485               0.999999985              -0.000065806               0.001463918               0.999999985              -0.000044674               0.001487801               0.999999985              -0.000018051               0.001509760               0.999999985               0.000014747               0.001529704               0.999999985               0.000055018               0.001547448               0.999999985               0.000103883               0.001562993               0.999999985               0.000162658               0.001576516               0.999999985              -0.000163275               0.001361907               0.999999985              -0.000109272               0.001374607               0.999999985              -0.000084069               0.001378092               0.999999985              -0.000072589               0.001385241               0.999999985              -0.000067547               0.001398983               0.999999985              -0.000065159               0.001418765               0.999999985              -0.000063134               0.001443448               0.999999985              -0.000059972               0.001471599               0.999999985              -0.000055017               0.001501886               0.999999985              -0.000047542               0.001533243               0.999999985              -0.000036879               0.001564675               0.999999985              -0.000022543               0.001595555               0.999999985              -0.000003915               0.001625493               0.999999985               0.000019601               0.001654009               0.999999985               0.000049328               0.001680639               0.999999985               0.000086928               0.001704974               0.999999985               0.000134183               0.001726737               0.999999985              -0.000081973               0.001384431               0.999999985              -0.000054364               0.001410272               0.999999985              -0.000040968               0.001421518               0.999999985              -0.000034593               0.001433179               0.999999985              -0.000031591               0.001449635               0.999999985              -0.000030181               0.001471342               0.999999985              -0.000029057               0.001497820               0.999999985              -0.000027571               0.001528034               0.999999985              -0.000025018               0.001560886               0.999999985              -0.000021268               0.001595519               0.999999985              -0.000016039               0.001631123               0.999999985              -0.000008936               0.001667081               0.999999985               0.000000621               0.001702939               0.999999985               0.000013090               0.001737980               0.999999985               0.000029025               0.001771509               0.999999985               0.000049615               0.001802803               0.999999985               0.000076621               0.001831094               0.999999985               0.000000000               0.001392019               0.999999985              -0.000000000               0.001422399               0.999999985               0.000000000               0.001436479               0.999999985              -0.000000000               0.001449855               0.999999985               0.000000000               0.001467298               0.999999985               0.000000000               0.001489757               0.999999985              -0.000000000               0.001516925               0.999999985               0.000000000               0.001547849               0.999999985              -0.000000000               0.001581619               0.999999985              -0.000000000               0.001617255               0.999999985              -0.000000000               0.001654239               0.999999985               0.000000000               0.001692161               0.999999985               0.000000000               0.001730205               0.999999985              -0.000000000               0.001767659               0.999999985              -0.000000000               0.001803965               0.999999985               0.000000000               0.001838198               0.999999985              -0.000000000               0.001869134               0.999999985              -0.000879404               0.000000000               0.999999985              -0.000929831               0.000000000               0.999999985              -0.000951120               0.000000000               0.999999985              -0.000963088              -0.000000000               0.999999985              -0.000973027              -0.000000000               0.999999985              -0.000983600               0.000000000               0.999999985              -0.000995475               0.000000000               0.999999985              -0.001008666              -0.000000000               0.999999985              -0.001022634              -0.000000000               0.999999985              -0.001036879              -0.000000000               0.999999985              -0.001050979              -0.000000000               0.999999985              -0.001064602              -0.000000000               0.999999985              -0.001077395              -0.000000000               0.999999985              -0.001088969               0.000000000               0.999999985              -0.001098852               0.000000000               0.999999985              -0.001106510              -0.000000000               0.999999985              -0.001111057               0.000000000               0.999999985              -0.000874413              -0.000131989               0.999999985              -0.000920647              -0.000104979               0.999999985              -0.000939201              -0.000092852               0.999999985              -0.000949431              -0.000088076               0.999999985              -0.000958216              -0.000087089               0.999999985              -0.000967792              -0.000087754               0.999999985              -0.000978665              -0.000088950               0.999999985              -0.000990674              -0.000089742               0.999999985              -0.001003386              -0.000089797               0.999999985              -0.001016257              -0.000088738               0.999999985              -0.001028791              -0.000086273               0.999999985              -0.001040615              -0.000082209               0.999999985              -0.001051442              -0.000076344               0.999999985              -0.001060864              -0.000068229               0.999999985              -0.001068333              -0.000057058               0.999999985              -0.001073452              -0.000042024               0.999999985              -0.001075662              -0.000021577               0.999999985              -0.000859596              -0.000262732               0.999999985              -0.000893516              -0.000209638               0.999999985              -0.000904583              -0.000186578               0.999999985              -0.000910193              -0.000178155               0.999999985              -0.000915730              -0.000176867               0.999999985              -0.000922620              -0.000178723               0.999999985              -0.000930932              -0.000181229               0.999999985              -0.000940117              -0.000183180               0.999999985              -0.000949577              -0.000183409               0.999999985              -0.000958629              -0.000181343               0.999999985              -0.000966883              -0.000176725               0.999999985              -0.000974019              -0.000169213               0.999999985              -0.000979701              -0.000158245               0.999999985              -0.000983594              -0.000143035               0.999999985              -0.000985274              -0.000122831               0.999999985              -0.000984438              -0.000096310               0.999999985              -0.000980916              -0.000061898               0.999999985              -0.000835434              -0.000391051               0.999999985              -0.000850006              -0.000313663               0.999999985              -0.000850255              -0.000282084               0.999999985              -0.000849614              -0.000271791               0.999999985              -0.000851059              -0.000271348               0.999999985              -0.000854637              -0.000274970               0.999999985              -0.000859529              -0.000279353               0.999999985              -0.000864860              -0.000282426               0.999999985              -0.000869682              -0.000282882               0.999999985              -0.000873501              -0.000280075               0.999999985              -0.000875866              -0.000273771               0.999999985              -0.000876555              -0.000263498               0.999999985              -0.000875238              -0.000248669               0.999999985              -0.000871430              -0.000228520               0.999999985              -0.000864980              -0.000202296               0.999999985              -0.000855889              -0.000169162               0.999999985              -0.000844453              -0.000128407               0.999999985              -0.000802342              -0.000515888               0.999999985              -0.000792345              -0.000417003               0.999999985              -0.000780480              -0.000379908               0.999999985              -0.000773538              -0.000369724               0.999999985              -0.000771179              -0.000371311               0.999999985              -0.000771535              -0.000377316               0.999999985              -0.000773015              -0.000383529               0.999999985              -0.000774105              -0.000387715               0.999999985              -0.000773937              -0.000388318               0.999999985              -0.000771827              -0.000384994               0.999999985              -0.000767450              -0.000377330               0.999999985              -0.000760512              -0.000365212               0.999999985              -0.000750746              -0.000347772               0.999999985              -0.000737993              -0.000324384               0.999999985              -0.000722246              -0.000294879               0.999999985              -0.000703883              -0.000259198               0.999999985              -0.000683494              -0.000217655               0.999999985              -0.000761058              -0.000636054               0.999999985              -0.000723422              -0.000519788               0.999999985              -0.000700248              -0.000480166               0.999999985              -0.000688521              -0.000471702               0.999999985              -0.000683539              -0.000476122               0.999999985              -0.000681568              -0.000484485               0.999999985              -0.000679907              -0.000492498               0.999999985              -0.000676747              -0.000497474               0.999999985              -0.000671119              -0.000498340               0.999999985              -0.000662471              -0.000494500               0.999999985              -0.000650524              -0.000485927               0.999999985              -0.000634966              -0.000472346               0.999999985              -0.000615729              -0.000453009               0.999999985              -0.000593063              -0.000427729               0.999999985              -0.000567235              -0.000397146               0.999999985              -0.000539006              -0.000361768               0.999999985              -0.000509278              -0.000322719               0.999999985              -0.000712328              -0.000750452               0.999999985              -0.000646688              -0.000622044               0.999999985              -0.000614881              -0.000582354               0.999999985              -0.000600764              -0.000576613               0.999999985              -0.000594766              -0.000583931               0.999999985              -0.000591220              -0.000594580               0.999999985              -0.000586708              -0.000603975               0.999999985              -0.000579149              -0.000609455               0.999999985              -0.000567560              -0.000610214               0.999999985              -0.000551609              -0.000605973               0.999999985              -0.000531102              -0.000596341               0.999999985              -0.000506091              -0.000581407               0.999999985              -0.000476719              -0.000560664               0.999999985              -0.000443593              -0.000534473               0.999999985              -0.000407520              -0.000504176               0.999999985              -0.000369531              -0.000470661               0.999999985              -0.000330434              -0.000435197               0.999999985              -0.000657073              -0.000858004               0.999999985              -0.000565632              -0.000723599               0.999999985              -0.000528983              -0.000685655               0.999999985              -0.000515411              -0.000682704               0.999999985              -0.000509861              -0.000692484               0.999999985              -0.000505281              -0.000705007               0.999999985              -0.000497748              -0.000715351               0.999999985              -0.000485156              -0.000721006               0.999999985              -0.000466865              -0.000721575               0.999999985              -0.000442637              -0.000716545               0.999999985              -0.000412638              -0.000705721               0.999999985              -0.000377344              -0.000689287               0.999999985              -0.000337215              -0.000667370               0.999999985              -0.000293254              -0.000641075               0.999999985              -0.000246655              -0.000611980               0.999999985              -0.000198454              -0.000581041               0.999999985              -0.000149464              -0.000549175               0.999999985              -0.000597208              -0.000956677               0.999999985              -0.000483103              -0.000824241               0.999999985              -0.000447095              -0.000788481               0.999999985              -0.000436225              -0.000787683               0.999999985              -0.000432039              -0.000799374               0.999999985              -0.000426393              -0.000813241               0.999999985              -0.000415031              -0.000824267               0.999999985              -0.000396436              -0.000830089               0.999999985              -0.000370259              -0.000830110               0.999999985              -0.000336610              -0.000823899               0.999999985              -0.000296032              -0.000811620               0.999999985              -0.000249416              -0.000793681               0.999999985              -0.000197575              -0.000771327               0.999999985              -0.000141968              -0.000746050               0.999999985              -0.000084141              -0.000719245               0.999999985              -0.000025123              -0.000691927               0.999999985               0.000034050              -0.000664603               0.999999985              -0.000535218              -0.001050286               0.999999985              -0.000413884              -0.000937162               0.999999985              -0.000375170              -0.000897521               0.999999985              -0.000363806              -0.000891590               0.999999985              -0.000360489              -0.000900010               0.999999985              -0.000356722              -0.000913477               0.999999985              -0.000348363              -0.000926744               0.999999985              -0.000333599              -0.000937136               0.999999985              -0.000311696              -0.000943120               0.999999985              -0.000282688              -0.000944229               0.999999985              -0.000246986              -0.000940344               0.999999985              -0.000204781              -0.000931783               0.999999985              -0.000156560              -0.000919148               0.999999985              -0.000103446              -0.000903351               0.999999985              -0.000046649              -0.000885454               0.999999985               0.000012399              -0.000866941               0.999999985               0.000072247              -0.000848291               0.999999985              -0.000467608              -0.001135703               0.999999985              -0.000347527              -0.001046646               0.999999985              -0.000306312              -0.001009504               0.999999985              -0.000293480              -0.001000954               0.999999985              -0.000289957              -0.001007287               0.999999985              -0.000287341              -0.001020355               0.999999985              -0.000281347              -0.001035482               0.999999985              -0.000270010              -0.001049700               0.999999985              -0.000252341              -0.001061207               0.999999985              -0.000227892              -0.001069050               0.999999985              -0.000196913              -0.001072929               0.999999985              -0.000159542              -0.001072808               0.999999985              -0.000115750              -0.001068973               0.999999985              -0.000065881              -0.001062033               0.999999985              -0.000010898              -0.001052871               0.999999985               0.000047840              -0.001042518               0.999999985               0.000108532              -0.001031979               0.999999985              -0.000395977              -0.001210727               0.999999985              -0.000284079              -0.001149251               0.999999985              -0.000242137              -0.001119367               0.999999985              -0.000227597              -0.001111544               0.999999985              -0.000223213              -0.001117437               0.999999985              -0.000220954              -0.001130939               0.999999985              -0.000216634              -0.001147921               0.999999985              -0.000208088              -0.001165633               0.999999985              -0.000194324              -0.001182277               0.999999985              -0.000174378              -0.001196556               0.999999985              -0.000148170              -0.001207807               0.999999985              -0.000115826              -0.001215789               0.999999985              -0.000076885              -0.001220600               0.999999985              -0.000031274              -0.001222365               0.999999985               0.000020644              -0.001221645               0.999999985               0.000078345              -0.001219306               0.999999985               0.000140585              -0.001216447               0.999999985              -0.000320952              -0.001274213               0.999999985              -0.000223433              -0.001240858               0.999999985              -0.000183666              -0.001221499               0.999999985              -0.000168240              -0.001217318               0.999999985              -0.000162863              -0.001224675               0.999999985              -0.000160519              -0.001239619               0.999999985              -0.000157094              -0.001258871               0.999999985              -0.000150740              -0.001280256               0.999999985              -0.000140338              -0.001301939               0.999999985              -0.000124797              -0.001322448               0.999999985              -0.000103529              -0.001340897               0.999999985              -0.000076412              -0.001356892               0.999999985              -0.000043086              -0.001370261               0.999999985              -0.000003038              -0.001381162               0.999999985               0.000044285              -0.001389588               0.999999985               0.000099500              -0.001395968               0.999999985               0.000162256              -0.001401047               0.999999985              -0.000243176              -0.001324921               0.999999985              -0.000165380              -0.001317184               0.999999985              -0.000131185              -0.001309727               0.999999985              -0.000116634              -0.001311039               0.999999985              -0.000110886              -0.001321306               0.999999985              -0.000108230              -0.001338615               0.999999985              -0.000105473              -0.001360621               0.999999985              -0.000100792              -0.001385620               0.999999985              -0.000093268              -0.001412071               0.999999985              -0.000081868              -0.001438485               0.999999985              -0.000065806              -0.001463918               0.999999985              -0.000044674              -0.001487801               0.999999985              -0.000018051              -0.001509760               0.999999985               0.000014747              -0.001529704               0.999999985               0.000055018              -0.001547448               0.999999985               0.000103883              -0.001562993               0.999999985               0.000162658              -0.001576516               0.999999985              -0.000163275              -0.001361907               0.999999985              -0.000109272              -0.001374607               0.999999985              -0.000084069              -0.001378092               0.999999985              -0.000072589              -0.001385241               0.999999985              -0.000067547              -0.001398983               0.999999985              -0.000065159              -0.001418765               0.999999985              -0.000063134              -0.001443448               0.999999985              -0.000059972              -0.001471599               0.999999985              -0.000055017              -0.001501886               0.999999985              -0.000047542              -0.001533243               0.999999985              -0.000036879              -0.001564675               0.999999985              -0.000022543              -0.001595555               0.999999985              -0.000003915              -0.001625493               0.999999985               0.000019601              -0.001654009               0.999999985               0.000049328              -0.001680639               0.999999985               0.000086928              -0.001704974               0.999999985               0.000134183              -0.001726737               0.999999985              -0.000081973              -0.001384431               0.999999985              -0.000054364              -0.001410272               0.999999985              -0.000040968              -0.001421518               0.999999985              -0.000034593              -0.001433179               0.999999985              -0.000031591              -0.001449635               0.999999985              -0.000030181              -0.001471342               0.999999985              -0.000029057              -0.001497820               0.999999985              -0.000027571              -0.001528034               0.999999985              -0.000025018              -0.001560886               0.999999985              -0.000021268              -0.001595519               0.999999985              -0.000016039              -0.001631123               0.999999985              -0.000008936              -0.001667081               0.999999985               0.000000621              -0.001702939               0.999999985               0.000013090              -0.001737980               0.999999985               0.000029025              -0.001771509               0.999999985               0.000049615              -0.001802803               0.999999985               0.000076621              -0.001831094               0.999999985               0.000000000              -0.001392019               0.999999985              -0.000000000              -0.001422399               0.999999985               0.000000000              -0.001436479               0.999999985               0.000000000              -0.001449855               0.999999985              -0.000000000              -0.001467298               0.999999985              -0.000000000              -0.001489757               0.999999985              -0.000000000              -0.001516925               0.999999985               0.000000000              -0.001547849               0.999999985               0.000000000              -0.001581619               0.999999985               0.000000000              -0.001617255               0.999999985              -0.000000000              -0.001654239               0.999999985              -0.000000000              -0.001692161               0.999999985               0.000000000              -0.001730205               0.999999985               0.000000000              -0.001767659               0.999999985               0.000000000              -0.001803965               0.999999985               0.000000000              -0.001838198               0.999999985              -0.000000000              -0.001869134               0.999999985               0.000879404              -0.000000000               0.999999985               0.000929831              -0.000000000               0.999999985               0.000951120               0.000000000               0.999999985               0.000963088              -0.000000000               0.999999985               0.000973027              -0.000000000               0.999999985               0.000983600              -0.000000000               0.999999985               0.000995475               0.000000000               0.999999985               0.001008666              -0.000000000               0.999999985               0.001022634              -0.000000000               0.999999985               0.001036879              -0.000000000               0.999999985               0.001050979              -0.000000000               0.999999985               0.001064602               0.000000000               0.999999985               0.001077395               0.000000000               0.999999985               0.001088969               0.000000000               0.999999985               0.001098852              -0.000000000               0.999999985               0.001106510               0.000000000               0.999999985               0.001111057               0.000000000               0.999999985               0.000874413              -0.000131989               0.999999985               0.000920647              -0.000104979               0.999999985               0.000939201              -0.000092852               0.999999985               0.000949431              -0.000088076               0.999999985               0.000958216              -0.000087089               0.999999985               0.000967792              -0.000087754               0.999999985               0.000978665              -0.000088950               0.999999985               0.000990674              -0.000089742               0.999999985               0.001003386              -0.000089797               0.999999985               0.001016257              -0.000088738               0.999999985               0.001028791              -0.000086273               0.999999985               0.001040615              -0.000082209               0.999999985               0.001051442              -0.000076344               0.999999985               0.001060864              -0.000068229               0.999999985               0.001068333              -0.000057058               0.999999985               0.001073452              -0.000042024               0.999999985               0.001075662              -0.000021577               0.999999985               0.000859596              -0.000262732               0.999999985               0.000893516              -0.000209638               0.999999985               0.000904583              -0.000186578               0.999999985               0.000910193              -0.000178155               0.999999985               0.000915730              -0.000176867               0.999999985               0.000922620              -0.000178723               0.999999985               0.000930932              -0.000181229               0.999999985               0.000940117              -0.000183180               0.999999985               0.000949577              -0.000183409               0.999999985               0.000958629              -0.000181343               0.999999985               0.000966883              -0.000176725               0.999999985               0.000974019              -0.000169213               0.999999985               0.000979701              -0.000158245               0.999999985               0.000983594              -0.000143035               0.999999985               0.000985274              -0.000122831               0.999999985               0.000984438              -0.000096310               0.999999985               0.000980916              -0.000061898               0.999999985               0.000835434              -0.000391051               0.999999985               0.000850006              -0.000313663               0.999999985               0.000850255              -0.000282084               0.999999985               0.000849614              -0.000271791               0.999999985               0.000851059              -0.000271348               0.999999985               0.000854637              -0.000274970               0.999999985               0.000859529              -0.000279353               0.999999985               0.000864860              -0.000282426               0.999999985               0.000869682              -0.000282882               0.999999985               0.000873501              -0.000280075               0.999999985               0.000875866              -0.000273771               0.999999985               0.000876555              -0.000263498               0.999999985               0.000875238              -0.000248669               0.999999985               0.000871430              -0.000228520               0.999999985               0.000864980              -0.000202296               0.999999985               0.000855889              -0.000169162               0.999999985               0.000844453              -0.000128407               0.999999985               0.000802342              -0.000515888               0.999999985               0.000792345              -0.000417003               0.999999985               0.000780480              -0.000379908               0.999999985               0.000773538              -0.000369724               0.999999985               0.000771179              -0.000371311               0.999999985               0.000771535              -0.000377316               0.999999985               0.000773015              -0.000383529               0.999999985               0.000774105              -0.000387715               0.999999985               0.000773937              -0.000388318               0.999999985               0.000771827              -0.000384994               0.999999985               0.000767450              -0.000377330               0.999999985               0.000760512              -0.000365212               0.999999985               0.000750746              -0.000347772               0.999999985               0.000737993              -0.000324384               0.999999985               0.000722246              -0.000294879               0.999999985               0.000703883              -0.000259198               0.999999985               0.000683494              -0.000217655               0.999999985               0.000761058              -0.000636054               0.999999985               0.000723422              -0.000519788               0.999999985               0.000700248              -0.000480166               0.999999985               0.000688521              -0.000471702               0.999999985               0.000683539              -0.000476122               0.999999985               0.000681568              -0.000484485               0.999999985               0.000679907              -0.000492498               0.999999985               0.000676747              -0.000497474               0.999999985               0.000671119              -0.000498340               0.999999985               0.000662471              -0.000494500               0.999999985               0.000650524              -0.000485927               0.999999985               0.000634966              -0.000472346               0.999999985               0.000615729              -0.000453009               0.999999985               0.000593063              -0.000427729               0.999999985               0.000567235              -0.000397146               0.999999985               0.000539006              -0.000361768               0.999999985               0.000509278              -0.000322719               0.999999985               0.000712328              -0.000750452               0.999999985               0.000646688              -0.000622044               0.999999985               0.000614881              -0.000582354               0.999999985               0.000600764              -0.000576613               0.999999985               0.000594766              -0.000583931               0.999999985               0.000591220              -0.000594580               0.999999985               0.000586708              -0.000603975               0.999999985               0.000579149              -0.000609455               0.999999985               0.000567560              -0.000610214               0.999999985               0.000551609              -0.000605973               0.999999985               0.000531102              -0.000596341               0.999999985               0.000506091              -0.000581407               0.999999985               0.000476719              -0.000560664               0.999999985               0.000443593              -0.000534473               0.999999985               0.000407520              -0.000504176               0.999999985               0.000369531              -0.000470661               0.999999985               0.000330434              -0.000435197               0.999999985               0.000657073              -0.000858004               0.999999985               0.000565632              -0.000723599               0.999999985               0.000528983              -0.000685655               0.999999985               0.000515411              -0.000682704               0.999999985               0.000509861              -0.000692484               0.999999985               0.000505281              -0.000705007               0.999999985               0.000497748              -0.000715351               0.999999985               0.000485156              -0.000721006               0.999999985               0.000466865              -0.000721575               0.999999985               0.000442637              -0.000716545               0.999999985               0.000412638              -0.000705721               0.999999985               0.000377344              -0.000689287               0.999999985               0.000337215              -0.000667370               0.999999985               0.000293254              -0.000641075               0.999999985               0.000246655              -0.000611980               0.999999985               0.000198454              -0.000581041               0.999999985               0.000149464              -0.000549175               0.999999985               0.000597208              -0.000956677               0.999999985               0.000483103              -0.000824241               0.999999985               0.000447095              -0.000788481               0.999999985               0.000436225              -0.000787683               0.999999985               0.000432039              -0.000799374               0.999999985               0.000426393              -0.000813241               0.999999985               0.000415031              -0.000824267               0.999999985               0.000396436              -0.000830089               0.999999985               0.000370259              -0.000830110               0.999999985               0.000336610              -0.000823899               0.999999985               0.000296032              -0.000811620               0.999999985               0.000249416              -0.000793681               0.999999985               0.000197575              -0.000771327               0.999999985               0.000141968              -0.000746050               0.999999985               0.000084141              -0.000719245               0.999999985               0.000025123              -0.000691927               0.999999985              -0.000034050              -0.000664603               0.999999985               0.000535218              -0.001050286               0.999999985               0.000413884              -0.000937162               0.999999985               0.000375170              -0.000897521               0.999999985               0.000363806              -0.000891590               0.999999985               0.000360489              -0.000900010               0.999999985               0.000356722              -0.000913477               0.999999985               0.000348363              -0.000926744               0.999999985               0.000333599              -0.000937136               0.999999985               0.000311696              -0.000943120               0.999999985               0.000282688              -0.000944229               0.999999985               0.000246986              -0.000940344               0.999999985               0.000204781              -0.000931783               0.999999985               0.000156560              -0.000919148               0.999999985               0.000103446              -0.000903351               0.999999985               0.000046649              -0.000885454               0.999999985              -0.000012399              -0.000866941               0.999999985              -0.000072247              -0.000848291               0.999999985               0.000467608              -0.001135703               0.999999985               0.000347527              -0.001046646               0.999999985               0.000306312              -0.001009504               0.999999985               0.000293480              -0.001000954               0.999999985               0.000289957              -0.001007287               0.999999985               0.000287341              -0.001020355               0.999999985               0.000281347              -0.001035482               0.999999985               0.000270010              -0.001049700               0.999999985               0.000252341              -0.001061207               0.999999985               0.000227892              -0.001069050               0.999999985               0.000196913              -0.001072929               0.999999985               0.000159542              -0.001072808               0.999999985               0.000115750              -0.001068973               0.999999985               0.000065881              -0.001062033               0.999999985               0.000010898              -0.001052871               0.999999985              -0.000047840              -0.001042518               0.999999985              -0.000108532              -0.001031979               0.999999985               0.000395977              -0.001210727               0.999999985               0.000284079              -0.001149251               0.999999985               0.000242137              -0.001119367               0.999999985               0.000227597              -0.001111544               0.999999985               0.000223213              -0.001117437               0.999999985               0.000220954              -0.001130939               0.999999985               0.000216634              -0.001147921               0.999999985               0.000208088              -0.001165633               0.999999985               0.000194324              -0.001182277               0.999999985               0.000174378              -0.001196556               0.999999985               0.000148170              -0.001207807               0.999999985               0.000115826              -0.001215789               0.999999985               0.000076885              -0.001220600               0.999999985               0.000031274              -0.001222365               0.999999985              -0.000020644              -0.001221645               0.999999985              -0.000078345              -0.001219306               0.999999985              -0.000140585              -0.001216447               0.999999985               0.000320952              -0.001274213               0.999999985               0.000223433              -0.001240858               0.999999985               0.000183666              -0.001221499               0.999999985               0.000168240              -0.001217318               0.999999985               0.000162863              -0.001224675               0.999999985               0.000160519              -0.001239619               0.999999985               0.000157094              -0.001258871               0.999999985               0.000150740              -0.001280256               0.999999985               0.000140338              -0.001301939               0.999999985               0.000124797              -0.001322448               0.999999985               0.000103529              -0.001340897               0.999999985               0.000076412              -0.001356892               0.999999985               0.000043086              -0.001370261               0.999999985               0.000003038              -0.001381162               0.999999985              -0.000044285              -0.001389588               0.999999985              -0.000099500              -0.001395968               0.999999985              -0.000162256              -0.001401047               0.999999985               0.000243176              -0.001324921               0.999999985               0.000165380              -0.001317184               0.999999985               0.000131185              -0.001309727               0.999999985               0.000116634              -0.001311039               0.999999985               0.000110886              -0.001321306               0.999999985               0.000108230              -0.001338615               0.999999985               0.000105473              -0.001360621               0.999999985               0.000100792              -0.001385620               0.999999985               0.000093268              -0.001412071               0.999999985               0.000081868              -0.001438485               0.999999985               0.000065806              -0.001463918               0.999999985               0.000044674              -0.001487801               0.999999985               0.000018051              -0.001509760               0.999999985              -0.000014747              -0.001529704               0.999999985              -0.000055018              -0.001547448               0.999999985              -0.000103883              -0.001562993               0.999999985              -0.000162658              -0.001576516               0.999999985               0.000163275              -0.001361907               0.999999985               0.000109272              -0.001374607               0.999999985               0.000084069              -0.001378092               0.999999985               0.000072589              -0.001385241               0.999999985               0.000067547              -0.001398983               0.999999985               0.000065159              -0.001418765               0.999999985               0.000063134              -0.001443448               0.999999985               0.000059972              -0.001471599               0.999999985               0.000055017              -0.001501886               0.999999985               0.000047542              -0.001533243               0.999999985               0.000036879              -0.001564675               0.999999985               0.000022543              -0.001595555               0.999999985               0.000003915              -0.001625493               0.999999985              -0.000019601              -0.001654009               0.999999985              -0.000049328              -0.001680639               0.999999985              -0.000086928              -0.001704974               0.999999985              -0.000134183              -0.001726737               0.999999985               0.000081973              -0.001384431               0.999999985               0.000054364              -0.001410272               0.999999985               0.000040968              -0.001421518               0.999999985               0.000034593              -0.001433179               0.999999985               0.000031591              -0.001449635               0.999999985               0.000030181              -0.001471342               0.999999985               0.000029057              -0.001497820               0.999999985               0.000027571              -0.001528034               0.999999985               0.000025018              -0.001560886               0.999999985               0.000021268              -0.001595519               0.999999985               0.000016039              -0.001631123               0.999999985               0.000008936              -0.001667081               0.999999985              -0.000000621              -0.001702939               0.999999985              -0.000013090              -0.001737980               0.999999985              -0.000029025              -0.001771509               0.999999985              -0.000049615              -0.001802803               0.999999985              -0.000076621              -0.001831094               0.999999985               0.000000000              -0.001392019               0.999999985              -0.000000000              -0.001422399               0.999999985               0.000000000              -0.001436479               0.999999985               0.000000000              -0.001449855               0.999999985              -0.000000000              -0.001467298               0.999999985              -0.000000000              -0.001489757               0.999999985              -0.000000000              -0.001516925               0.999999985               0.000000000              -0.001547849               0.999999985               0.000000000              -0.001581619               0.999999985               0.000000000              -0.001617255               0.999999985              -0.000000000              -0.001654239               0.999999985              -0.000000000              -0.001692161               0.999999985               0.000000000              -0.001730205               0.999999985               0.000000000              -0.001767659               0.999999985               0.000000000              -0.001803965               0.999999985               0.000000000              -0.001838198               0.999999985              -0.000000000              -0.001869134               0.999999985               0.000879404              -0.000000000               0.999999985               0.000929831              -0.000000000               0.999999985               0.000951120               0.000000000               0.999999985               0.000963088              -0.000000000               0.999999985               0.000973027              -0.000000000               0.999999985               0.000983600              -0.000000000               0.999999985               0.000995475               0.000000000               0.999999985               0.001008666              -0.000000000               0.999999985               0.001022634              -0.000000000               0.999999985               0.001036879              -0.000000000               0.999999985               0.001050979              -0.000000000               0.999999985               0.001064602               0.000000000               0.999999985               0.001077395               0.000000000               0.999999985               0.001088969               0.000000000               0.999999985               0.001098852              -0.000000000               0.999999985               0.001106510               0.000000000               0.999999985               0.001111057               0.000000000               0.999999985               0.000874413               0.000131989               0.999999985               0.000920647               0.000104979               0.999999985               0.000939201               0.000092852               0.999999985               0.000949431               0.000088076               0.999999985               0.000958216               0.000087089               0.999999985               0.000967792               0.000087754               0.999999985               0.000978665               0.000088950               0.999999985               0.000990674               0.000089742               0.999999985               0.001003386               0.000089797               0.999999985               0.001016257               0.000088738               0.999999985               0.001028791               0.000086273               0.999999985               0.001040615               0.000082209               0.999999985               0.001051442               0.000076344               0.999999985               0.001060864               0.000068229               0.999999985               0.001068333               0.000057058               0.999999985               0.001073452               0.000042024               0.999999985               0.001075662               0.000021577               0.999999985               0.000859596               0.000262732               0.999999985               0.000893516               0.000209638               0.999999985               0.000904583               0.000186578               0.999999985               0.000910193               0.000178155               0.999999985               0.000915730               0.000176867               0.999999985               0.000922620               0.000178723               0.999999985               0.000930932               0.000181229               0.999999985               0.000940117               0.000183180               0.999999985               0.000949577               0.000183409               0.999999985               0.000958629               0.000181343               0.999999985               0.000966883               0.000176725               0.999999985               0.000974019               0.000169213               0.999999985               0.000979701               0.000158245               0.999999985               0.000983594               0.000143035               0.999999985               0.000985274               0.000122831               0.999999985               0.000984438               0.000096310               0.999999985               0.000980916               0.000061898               0.999999985               0.000835434               0.000391051               0.999999985               0.000850006               0.000313663               0.999999985               0.000850255               0.000282084               0.999999985               0.000849614               0.000271791               0.999999985               0.000851059               0.000271348               0.999999985               0.000854637               0.000274970               0.999999985               0.000859529               0.000279353               0.999999985               0.000864860               0.000282426               0.999999985               0.000869682               0.000282882               0.999999985               0.000873501               0.000280075               0.999999985               0.000875866               0.000273771               0.999999985               0.000876555               0.000263498               0.999999985               0.000875238               0.000248669               0.999999985               0.000871430               0.000228520               0.999999985               0.000864980               0.000202296               0.999999985               0.000855889               0.000169162               0.999999985               0.000844453               0.000128407               0.999999985               0.000802342               0.000515888               0.999999985               0.000792345               0.000417003               0.999999985               0.000780480               0.000379908               0.999999985               0.000773538               0.000369724               0.999999985               0.000771179               0.000371311               0.999999985               0.000771535               0.000377316               0.999999985               0.000773015               0.000383529               0.999999985               0.000774105               0.000387715               0.999999985               0.000773937               0.000388318               0.999999985               0.000771827               0.000384994               0.999999985               0.000767450               0.000377330               0.999999985               0.000760512               0.000365212               0.999999985               0.000750746               0.000347772               0.999999985               0.000737993               0.000324384               0.999999985               0.000722246               0.000294879               0.999999985               0.000703883               0.000259198               0.999999985               0.000683494               0.000217655               0.999999985               0.000761058               0.000636054               0.999999985               0.000723422               0.000519788               0.999999985               0.000700248               0.000480166               0.999999985               0.000688521               0.000471702               0.999999985               0.000683539               0.000476122               0.999999985               0.000681568               0.000484485               0.999999985               0.000679907               0.000492498               0.999999985               0.000676747               0.000497474               0.999999985               0.000671119               0.000498340               0.999999985               0.000662471               0.000494500               0.999999985               0.000650524               0.000485927               0.999999985               0.000634966               0.000472346               0.999999985               0.000615729               0.000453009               0.999999985               0.000593063               0.000427729               0.999999985               0.000567235               0.000397146               0.999999985               0.000539006               0.000361768               0.999999985               0.000509278               0.000322719               0.999999985               0.000712328               0.000750452               0.999999985               0.000646688               0.000622044               0.999999985               0.000614881               0.000582354               0.999999985               0.000600764               0.000576613               0.999999985               0.000594766               0.000583931               0.999999985               0.000591220               0.000594580               0.999999985               0.000586708               0.000603975               0.999999985               0.000579149               0.000609455               0.999999985               0.000567560               0.000610214               0.999999985               0.000551609               0.000605973               0.999999985               0.000531102               0.000596341               0.999999985               0.000506091               0.000581407               0.999999985               0.000476719               0.000560664               0.999999985               0.000443593               0.000534473               0.999999985               0.000407520               0.000504176               0.999999985               0.000369531               0.000470661               0.999999985               0.000330434               0.000435197               0.999999985               0.000657073               0.000858004               0.999999985               0.000565632               0.000723599               0.999999985               0.000528983               0.000685655               0.999999985               0.000515411               0.000682704               0.999999985               0.000509861               0.000692484               0.999999985               0.000505281               0.000705007               0.999999985               0.000497748               0.000715351               0.999999985               0.000485156               0.000721006               0.999999985               0.000466865               0.000721575               0.999999985               0.000442637               0.000716545               0.999999985               0.000412638               0.000705721               0.999999985               0.000377344               0.000689287               0.999999985               0.000337215               0.000667370               0.999999985               0.000293254               0.000641075               0.999999985               0.000246655               0.000611980               0.999999985               0.000198454               0.000581041               0.999999985               0.000149464               0.000549175               0.999999985               0.000597208               0.000956677               0.999999985               0.000483103               0.000824241               0.999999985               0.000447095               0.000788481               0.999999985               0.000436225               0.000787683               0.999999985               0.000432039               0.000799374               0.999999985               0.000426393               0.000813241               0.999999985               0.000415031               0.000824267               0.999999985               0.000396436               0.000830089               0.999999985               0.000370259               0.000830110               0.999999985               0.000336610               0.000823899               0.999999985               0.000296032               0.000811620               0.999999985               0.000249416               0.000793681               0.999999985               0.000197575               0.000771327               0.999999985               0.000141968               0.000746050               0.999999985               0.000084141               0.000719245               0.999999985               0.000025123               0.000691927               0.999999985              -0.000034050               0.000664603               0.999999985               0.000535218               0.001050286               0.999999985               0.000413884               0.000937162               0.999999985               0.000375170               0.000897521               0.999999985               0.000363806               0.000891590               0.999999985               0.000360489               0.000900010               0.999999985               0.000356722               0.000913477               0.999999985               0.000348363               0.000926744               0.999999985               0.000333599               0.000937136               0.999999985               0.000311696               0.000943120               0.999999985               0.000282688               0.000944229               0.999999985               0.000246986               0.000940344               0.999999985               0.000204781               0.000931783               0.999999985               0.000156560               0.000919148               0.999999985               0.000103446               0.000903351               0.999999985               0.000046649               0.000885454               0.999999985              -0.000012399               0.000866941               0.999999985              -0.000072247               0.000848291               0.999999985               0.000467608               0.001135703               0.999999985               0.000347527               0.001046646               0.999999985               0.000306312               0.001009504               0.999999985               0.000293480               0.001000954               0.999999985               0.000289957               0.001007287               0.999999985               0.000287341               0.001020355               0.999999985               0.000281347               0.001035482               0.999999985               0.000270010               0.001049700               0.999999985               0.000252341               0.001061207               0.999999985               0.000227892               0.001069050               0.999999985               0.000196913               0.001072929               0.999999985               0.000159542               0.001072808               0.999999985               0.000115750               0.001068973               0.999999985               0.000065881               0.001062033               0.999999985               0.000010898               0.001052871               0.999999985              -0.000047840               0.001042518               0.999999985              -0.000108532               0.001031979               0.999999985               0.000395977               0.001210727               0.999999985               0.000284079               0.001149251               0.999999985               0.000242137               0.001119367               0.999999985               0.000227597               0.001111544               0.999999985               0.000223213               0.001117437               0.999999985               0.000220954               0.001130939               0.999999985               0.000216634               0.001147921               0.999999985               0.000208088               0.001165633               0.999999985               0.000194324               0.001182277               0.999999985               0.000174378               0.001196556               0.999999985               0.000148170               0.001207807               0.999999985               0.000115826               0.001215789               0.999999985               0.000076885               0.001220600               0.999999985               0.000031274               0.001222365               0.999999985              -0.000020644               0.001221645               0.999999985              -0.000078345               0.001219306               0.999999985              -0.000140585               0.001216447               0.999999985               0.000320952               0.001274213               0.999999985               0.000223433               0.001240858               0.999999985               0.000183666               0.001221499               0.999999985               0.000168240               0.001217318               0.999999985               0.000162863               0.001224675               0.999999985               0.000160519               0.001239619               0.999999985               0.000157094               0.001258871               0.999999985               0.000150740               0.001280256               0.999999985               0.000140338               0.001301939               0.999999985               0.000124797               0.001322448               0.999999985               0.000103529               0.001340897               0.999999985               0.000076412               0.001356892               0.999999985               0.000043086               0.001370261               0.999999985               0.000003038               0.001381162               0.999999985              -0.000044285               0.001389588               0.999999985              -0.000099500               0.001395968               0.999999985              -0.000162256               0.001401047               0.999999985               0.000243176               0.001324921               0.999999985               0.000165380               0.001317184               0.999999985               0.000131185               0.001309727               0.999999985               0.000116634               0.001311039               0.999999985               0.000110886               0.001321306               0.999999985               0.000108230               0.001338615               0.999999985               0.000105473               0.001360621               0.999999985               0.000100792               0.001385620               0.999999985               0.000093268               0.001412071               0.999999985               0.000081868               0.001438485               0.999999985               0.000065806               0.001463918               0.999999985               0.000044674               0.001487801               0.999999985               0.000018051               0.001509760               0.999999985              -0.000014747               0.001529704               0.999999985              -0.000055018               0.001547448               0.999999985              -0.000103883               0.001562993               0.999999985              -0.000162658               0.001576516               0.999999985               0.000163275               0.001361907               0.999999985               0.000109272               0.001374607               0.999999985               0.000084069               0.001378092               0.999999985               0.000072589               0.001385241               0.999999985               0.000067547               0.001398983               0.999999985               0.000065159               0.001418765               0.999999985               0.000063134               0.001443448               0.999999985               0.000059972               0.001471599               0.999999985               0.000055017               0.001501886               0.999999985               0.000047542               0.001533243               0.999999985               0.000036879               0.001564675               0.999999985               0.000022543               0.001595555               0.999999985               0.000003915               0.001625493               0.999999985              -0.000019601               0.001654009               0.999999985              -0.000049328               0.001680639               0.999999985              -0.000086928               0.001704974               0.999999985              -0.000134183               0.001726737               0.999999985               0.000081973               0.001384431               0.999999985               0.000054364               0.001410272               0.999999985               0.000040968               0.001421518               0.999999985               0.000034593               0.001433179               0.999999985               0.000031591               0.001449635               0.999999985               0.000030181               0.001471342               0.999999985               0.000029057               0.001497820               0.999999985               0.000027571               0.001528034               0.999999985               0.000025018               0.001560886               0.999999985               0.000021268               0.001595519               0.999999985               0.000016039               0.001631123               0.999999985               0.000008936               0.001667081               0.999999985              -0.000000621               0.001702939               0.999999985              -0.000013090               0.001737980               0.999999985              -0.000029025               0.001771509               0.999999985              -0.000049615               0.001802803               0.999999985              -0.000076621               0.001831094               0.999999985               0.000000000               0.001392019               0.999999985              -0.000000000               0.001422399               0.999999985               0.000000000               0.001436479               0.999999985              -0.000000000               0.001449855               0.999999985               0.000000000               0.001467298               0.999999985               0.000000000               0.001489757               0.999999985              -0.000000000               0.001516925               0.999999985               0.000000000               0.001547849               0.999999985              -0.000000000               0.001581619               0.999999985              -0.000000000               0.001617255               0.999999985              -0.000000000               0.001654239               0.999999985               0.000000000               0.001692161               0.999999985               0.000000000               0.001730205               0.999999985              -0.000000000               0.001767659               0.999999985              -0.000000000               0.001803965               0.999999985               0.000000000               0.001838198               0.999999985              -0.000000000               0.001869134               0.999999985 </DataArray>
<DataArray type="Float64"                                    Name="stress"                                                      NumberOfComponents="10" format="ascii">
              0.002251045               0.023972054              -0.000000000              -0.002152360               0.008708058               0.006555698               0.000000000               0.000000000               0.000000000               0.000000000               0.002157550               0.018429317               0.000000000              -0.001494580               0.006641237               0.005146658               0.000000000               0.000000000               0.000000000               0.000000000               0.002760738               0.013946860              -0.000000000              -0.000708079               0.004884933               0.004176854               0.000000000               0.000000000               0.000000000               0.000000000               0.002527286               0.011431443              -0.000000000              -0.000481197               0.003970842               0.003489645               0.000000000               0.000000000               0.000000000               0.000000000               0.002063509               0.009851283               0.000000000              -0.000457594               0.003436259               0.002978666               0.000000000               0.000000000               0.000000000               0.000000000               0.001580596               0.008742767               0.000000000              -0.000500121               0.003080933               0.002580812               0.000000000               0.000000000               0.000000000               0.000000000               0.001148438               0.007883265              -0.000000000              -0.000554743               0.002812643               0.002257900               0.000000000               0.000000000               0.000000000               0.000000000               0.000790804               0.007152410              -0.000000000              -0.000597498               0.002583279               0.001985780               0.000000000               0.000000000               0.000000000               0.000000000               0.000516658               0.006496823              -0.000000000              -0.000618354               0.002371704               0.001753350               0.000000000               0.000000000               0.000000000               0.000000000               0.000309553               0.005877098              -0.000000000              -0.000618553               0.002165197               0.001546644               0.000000000               0.000000000               0.000000000               0.000000000               0.000150759               0.005266661               0.000000000              -0.000601796               0.001956135               0.001354338               0.000000000               0.000000000               0.000000000               0.000000000               0.000028903               0.004651099               0.000000000              -0.000570548               0.001740533               0.001169986               0.000000000               0.000000000               0.000000000               0.000000000              -0.000055940               0.004020793               0.000000000              -0.000523575               0.001514776               0.000991201               0.000000000               0.000000000               0.000000000               0.000000000              -0.000099819               0.003358412               0.000000000              -0.000457233               0.001271870               0.000814638               0.000000000               0.000000000               0.000000000               0.000000000              -0.000107353               0.002634642              -0.000000000              -0.000369587               0.001001401               0.000631814               0.000000000               0.000000000               0.000000000               0.000000000              -0.000070865               0.001821747               0.000000000              -0.000254292               0.000692007               0.000437715               0.000000000               0.000000000               0.000000000               0.000000000              -0.000106589               0.001196027               0.000000000              -0.000189474               0.000461830               0.000272356               0.000000000               0.000000000               0.000000000               0.000000000               0.002311225               0.023456385              -0.001584472              -0.002065334               0.008507161               0.006441827               0.000000000               0.000000000               0.000000000               0.000000000               0.002090478               0.018106935              -0.000712259              -0.001479434               0.006528729               0.005049295               0.000000000               0.000000000               0.000000000               0.000000000               0.002554471               0.013818259               0.000148601              -0.000769354               0.004862492               0.004093138               0.000000000               0.000000000               0.000000000               0.000000000               0.002269187               0.011404027               0.000501438              -0.000574557               0.003992824               0.003418266               0.000000000               0.000000000               0.000000000               0.000000000               0.001799892               0.009873322               0.000636272              -0.000559205               0.003477476               0.002918271               0.000000000               0.000000000               0.000000000               0.000000000               0.001334157               0.008789629               0.000673603              -0.000598394               0.003129311               0.002530918               0.000000000               0.000000000               0.000000000               0.000000000               0.000928813               0.007939124               0.000666248              -0.000644084               0.002861043               0.002216959               0.000000000               0.000000000               0.000000000               0.000000000               0.000600582               0.007218450               0.000640727              -0.000677087               0.002631821               0.001954735               0.000000000               0.000000000               0.000000000               0.000000000               0.000349662               0.006565382               0.000609197              -0.000689548               0.002418288               0.001728740               0.000000000               0.000000000               0.000000000               0.000000000               0.000164770               0.005947027               0.000575562              -0.000681588               0.002209519               0.001527930               0.000000000               0.000000000               0.000000000               0.000000000               0.000029440               0.005345765               0.000541302              -0.000657179               0.002000964               0.001343784               0.000000000               0.000000000               0.000000000               0.000000000              -0.000069415               0.004746931               0.000505054              -0.000619396               0.001788760               0.001169364               0.000000000               0.000000000               0.000000000               0.000000000              -0.000133528               0.004136817               0.000460676              -0.000567174               0.001567983               0.001000809               0.000000000               0.000000000               0.000000000               0.000000000              -0.000153998               0.003503857               0.000398003              -0.000495730               0.001333184               0.000837454               0.000000000               0.000000000               0.000000000               0.000000000              -0.000134886               0.002832904               0.000308978              -0.000404695               0.001079190               0.000674496               0.000000000               0.000000000               0.000000000               0.000000000              -0.000080047               0.002102486               0.000177696              -0.000292828               0.000798431               0.000505603               0.000000000               0.000000000               0.000000000               0.000000000              -0.000100180               0.001557285               0.000108534              -0.000232228               0.000596499               0.000364271               0.000000000               0.000000000               0.000000000               0.000000000               0.002458267               0.021985939              -0.002932055              -0.001826389               0.007937369               0.006110980               0.000000000               0.000000000               0.000000000               0.000000000               0.001877521               0.017188698              -0.001316963              -0.001444514               0.006211013               0.004766499               0.000000000               0.000000000               0.000000000               0.000000000               0.001958833               0.013459908               0.000262008              -0.000947924               0.004802566               0.003854642               0.000000000               0.000000000               0.000000000               0.000000000               0.001551615               0.011325314               0.000886564              -0.000833807               0.004053002               0.003219196               0.000000000               0.000000000               0.000000000               0.000000000               0.001081923               0.009928246               0.001114722              -0.000835308               0.003587818               0.002752510               0.000000000               0.000000000               0.000000000               0.000000000               0.000666396               0.008905932               0.001167997              -0.000863341               0.003256395               0.002393053               0.000000000               0.000000000               0.000000000               0.000000000               0.000334150               0.008084801               0.001146275              -0.000885292               0.002990004               0.002104712               0.000000000               0.000000000               0.000000000               0.000000000               0.000086650               0.007377124               0.001092765              -0.000889645               0.002755565               0.001865920               0.000000000               0.000000000               0.000000000               0.000000000              -0.000087631               0.006730748               0.001027464              -0.000874203               0.002534961               0.001660758               0.000000000               0.000000000               0.000000000               0.000000000              -0.000203747               0.006124061               0.000963113              -0.000841911               0.002321970               0.001480059               0.000000000               0.000000000               0.000000000               0.000000000              -0.000279562               0.005546087               0.000899255              -0.000798095               0.002114709               0.001316614               0.000000000               0.000000000               0.000000000               0.000000000              -0.000320793               0.004985261               0.000827240              -0.000743454               0.001909555               0.001166101               0.000000000               0.000000000               0.000000000               0.000000000              -0.000325830               0.004431886               0.000737694              -0.000676171               0.001702671               0.001026500               0.000000000               0.000000000               0.000000000               0.000000000              -0.000290657               0.003881970               0.000623891              -0.000594241               0.001492057               0.000897816               0.000000000               0.000000000               0.000000000               0.000000000              -0.000218080               0.003336267               0.000472016              -0.000498812               0.001278348               0.000779536               0.000000000               0.000000000               0.000000000               0.000000000              -0.000118020               0.002796501               0.000262434              -0.000393819               0.001063431               0.000669611               0.000000000               0.000000000               0.000000000               0.000000000              -0.000099599               0.002428321               0.000154408              -0.000340889               0.000923062               0.000582173               0.000000000               0.000000000               0.000000000               0.000000000               0.002577302               0.019766158              -0.003862443              -0.001504280               0.007090080               0.005585800               0.000000000               0.000000000               0.000000000               0.000000000               0.001495238               0.015817114              -0.001737193              -0.001416422               0.005744459               0.004328037               0.000000000               0.000000000               0.000000000               0.000000000               0.001051015               0.012931826               0.000311378              -0.001222345               0.004718014               0.003495669               0.000000000               0.000000000               0.000000000               0.000000000               0.000505690               0.011189873               0.001076668              -0.001209098               0.004132953               0.002923855               0.000000000               0.000000000               0.000000000               0.000000000               0.000066006               0.009975954               0.001333868              -0.001222239               0.003732698               0.002510458               0.000000000               0.000000000               0.000000000               0.000000000              -0.000249816               0.009035642               0.001380312              -0.001223133               0.003419561               0.002196428               0.000000000               0.000000000               0.000000000               0.000000000              -0.000459510               0.008247686               0.001337633              -0.001203275               0.003150293               0.001947018               0.000000000               0.000000000               0.000000000               0.000000000              -0.000582717               0.007549380               0.001258550              -0.001162189               0.002903831               0.001741642               0.000000000               0.000000000               0.000000000               0.000000000              -0.000642639               0.006912379               0.001168626              -0.001105035               0.002672448               0.001567413               0.000000000               0.000000000               0.000000000               0.000000000              -0.000659184               0.006327577               0.001082106              -0.001038139               0.002455218               0.001417079               0.000000000               0.000000000               0.000000000               0.000000000              -0.000646697               0.005782779               0.000997344              -0.000965357               0.002249359               0.001284003               0.000000000               0.000000000               0.000000000               0.000000000              -0.000606935               0.005273756               0.000902318              -0.000886818               0.002053507               0.001166689               0.000000000               0.000000000               0.000000000               0.000000000              -0.000528217               0.004796348               0.000787023              -0.000797623               0.001864641               0.001067018               0.000000000               0.000000000               0.000000000               0.000000000              -0.000414474               0.004350907               0.000646493              -0.000699290               0.001683384               0.000984095               0.000000000               0.000000000               0.000000000               0.000000000              -0.000281459               0.003944733               0.000472443              -0.000598637               0.001514444               0.000915806               0.000000000               0.000000000               0.000000000               0.000000000              -0.000141437               0.003597818               0.000254771              -0.000502765               0.001366849               0.000864084               0.000000000               0.000000000               0.000000000               0.000000000              -0.000091825               0.003394026               0.000145010              -0.000458686               0.001284226               0.000825540               0.000000000               0.000000000               0.000000000               0.000000000               0.002513998               0.017062962              -0.004289348              -0.001190121               0.006084303               0.004894182               0.000000000               0.000000000               0.000000000               0.000000000               0.000920513               0.014180610              -0.001950193              -0.001427382               0.005202616               0.003775235               0.000000000               0.000000000               0.000000000               0.000000000              -0.000061263               0.012294970               0.000266681              -0.001559841               0.004618229               0.003058388               0.000000000               0.000000000               0.000000000               0.000000000              -0.000687956               0.010982757               0.001035762              -0.001630824               0.004204490               0.002573666               0.000000000               0.000000000               0.000000000               0.000000000              -0.001037507               0.009960450               0.001269600              -0.001634118               0.003864822               0.002230705               0.000000000               0.000000000               0.000000000               0.000000000              -0.001206044               0.009096690               0.001293733              -0.001589349               0.003561982               0.001972633               0.000000000               0.000000000               0.000000000               0.000000000              -0.001254766               0.008338193               0.001234698              -0.001512808               0.003283639               0.001770831               0.000000000               0.000000000               0.000000000               0.000000000              -0.001227682               0.007655299               0.001144701              -0.001417290               0.003024171               0.001606881               0.000000000               0.000000000               0.000000000               0.000000000              -0.001154312               0.007040507               0.001048803              -0.001312928               0.002784455               0.001471527               0.000000000               0.000000000               0.000000000               0.000000000              -0.001053644               0.006485389               0.000959958              -0.001205787               0.002563704               0.001357917               0.000000000               0.000000000               0.000000000               0.000000000              -0.000935066               0.005983446               0.000875332              -0.001098578               0.002360654               0.001262077               0.000000000               0.000000000               0.000000000               0.000000000              -0.000798331               0.005529526               0.000780419              -0.000990563               0.002173344               0.001182782               0.000000000               0.000000000               0.000000000               0.000000000              -0.000644204               0.005116951               0.000662282              -0.000881193               0.001999364               0.001118171               0.000000000               0.000000000               0.000000000               0.000000000              -0.000472275               0.004756653               0.000524871              -0.000771683               0.001842763               0.001071080               0.000000000               0.000000000               0.000000000               0.000000000              -0.000298461               0.004466470               0.000368017              -0.000670230               0.001712218               0.001041988               0.000000000               0.000000000               0.000000000               0.000000000              -0.000142349               0.004261761               0.000190772              -0.000586100               0.001615939               0.001029840               0.000000000               0.000000000               0.000000000               0.000000000              -0.000078756               0.004167475               0.000103597              -0.000550466               0.001572633               0.001022167               0.000000000               0.000000000               0.000000000               0.000000000               0.002146974               0.014157853              -0.004224968              -0.000964617               0.005040775               0.004076158               0.000000000               0.000000000               0.000000000               0.000000000               0.000163667               0.012457125              -0.001989514              -0.001495763               0.004650921               0.003155158               0.000000000               0.000000000               0.000000000               0.000000000              -0.001246242               0.011595425               0.000098648              -0.001916764               0.004504024               0.002587260               0.000000000               0.000000000               0.000000000               0.000000000              -0.001845517               0.010685620               0.000769756              -0.002027766               0.004237760               0.002209993               0.000000000               0.000000000               0.000000000               0.000000000              -0.002039133               0.009827605               0.000954916              -0.001993121               0.003940209               0.001947088               0.000000000               0.000000000               0.000000000               0.000000000              -0.002020050               0.009034023               0.000963032              -0.001886767               0.003640233               0.001753466               0.000000000               0.000000000               0.000000000               0.000000000              -0.001883795               0.008312287               0.000906544              -0.001745455               0.003352553               0.001607098               0.000000000               0.000000000               0.000000000               0.000000000              -0.001694609               0.007654529               0.000830813              -0.001592291               0.003082247               0.001489957               0.000000000               0.000000000               0.000000000               0.000000000              -0.001487884               0.007069047               0.000756299              -0.001441584               0.002836853               0.001395269               0.000000000               0.000000000               0.000000000               0.000000000              -0.001276698               0.006548930               0.000688018              -0.001297375               0.002615413               0.001318038               0.000000000               0.000000000               0.000000000               0.000000000              -0.001062292               0.006084834               0.000624665              -0.001158961               0.002414578               0.001255617               0.000000000               0.000000000               0.000000000               0.000000000              -0.000842894               0.005672069               0.000546724              -0.001025092               0.002232368               0.001207276               0.000000000               0.000000000               0.000000000               0.000000000              -0.000632234               0.005310046               0.000446090              -0.000900841               0.002070278               0.001169437               0.000000000               0.000000000               0.000000000               0.000000000              -0.000430751               0.005016550               0.000338378              -0.000788598               0.001935033               0.001146434               0.000000000               0.000000000               0.000000000               0.000000000              -0.000249049               0.004808276               0.000224916              -0.000694426               0.001834218               0.001139792               0.000000000               0.000000000               0.000000000               0.000000000              -0.000108873               0.004686544               0.000108263              -0.000626644               0.001771047               0.001144403               0.000000000               0.000000000               0.000000000               0.000000000              -0.000053352               0.004644880               0.000053866              -0.000600616               0.001748483               0.001147867               0.000000000               0.000000000               0.000000000               0.000000000               0.001402365               0.011301653              -0.003758593              -0.000886821               0.004062786               0.003175965               0.000000000               0.000000000               0.000000000               0.000000000              -0.000743835               0.010783829              -0.001915090              -0.001626914               0.004136878               0.002509964               0.000000000               0.000000000               0.000000000               0.000000000              -0.002376612               0.010863797              -0.000198949              -0.002249199               0.004370962               0.002121764               0.000000000               0.000000000               0.000000000               0.000000000              -0.002819560               0.010287949               0.000324389              -0.002343323               0.004210390               0.001867067               0.000000000               0.000000000               0.000000000               0.000000000              -0.002795311               0.009562686               0.000472390              -0.002243572               0.003935387               0.001691816               0.000000000               0.000000000               0.000000000               0.000000000              -0.002570705               0.008838673               0.000488845              -0.002068844               0.003635810               0.001566966               0.000000000               0.000000000               0.000000000               0.000000000              -0.002256876               0.008157040               0.000460220              -0.001865954               0.003340971               0.001475017               0.000000000               0.000000000               0.000000000               0.000000000              -0.001918827               0.007535761               0.000422746              -0.001661526               0.003065737               0.001404211               0.000000000               0.000000000               0.000000000               0.000000000              -0.001592618               0.006986266               0.000390559              -0.001470511               0.002818903               0.001348391               0.000000000               0.000000000               0.000000000               0.000000000              -0.001289883               0.006497579               0.000359215              -0.001295900               0.002597805               0.001301905               0.000000000               0.000000000               0.000000000               0.000000000              -0.001010633               0.006058439               0.000327758              -0.001136290               0.002398223               0.001261933               0.000000000               0.000000000               0.000000000               0.000000000              -0.000746567               0.005673247               0.000281057              -0.000989116               0.002220769               0.001231653               0.000000000               0.000000000               0.000000000               0.000000000              -0.000508289               0.005352458               0.000214718              -0.000859663               0.002070689               0.001211026               0.000000000               0.000000000               0.000000000               0.000000000              -0.000309674               0.005110940               0.000150816              -0.000754993               0.001955294               0.001200301               0.000000000               0.000000000               0.000000000               0.000000000              -0.000158761               0.004951745               0.000090834              -0.000678502               0.001876732               0.001198231               0.000000000               0.000000000               0.000000000               0.000000000              -0.000059989               0.004865754               0.000035417              -0.000630713               0.001832140               0.001201426               0.000000000               0.000000000               0.000000000               0.000000000              -0.000026543               0.004836368               0.000013608              -0.000614498               0.001816939               0.001202441               0.000000000               0.000000000               0.000000000               0.000000000               0.000326323               0.008667608              -0.003008845              -0.000961080               0.003209533               0.002248453               0.000000000               0.000000000               0.000000000               0.000000000              -0.001743765               0.009254064              -0.001783161              -0.001810666               0.003688212               0.001877546               0.000000000               0.000000000               0.000000000               0.000000000              -0.003341300               0.010102366              -0.000613703              -0.002515777               0.004206014               0.001690237               0.000000000               0.000000000               0.000000000               0.000000000              -0.003518775               0.009778681              -0.000228758              -0.002541869               0.004106818               0.001564948               0.000000000               0.000000000               0.000000000               0.000000000              -0.003242979               0.009171194              -0.000081933              -0.002362511               0.003844537               0.001482027               0.000000000               0.000000000               0.000000000               0.000000000              -0.002817787               0.008517765              -0.000024957              -0.002121386               0.003546355               0.001424970               0.000000000               0.000000000               0.000000000               0.000000000              -0.002352267               0.007889997              -0.000001061              -0.001868345               0.003252754               0.001384409               0.000000000               0.000000000               0.000000000               0.000000000              -0.001901963               0.007318529               0.000016348              -0.001628048               0.002982168               0.001354120               0.000000000               0.000000000               0.000000000               0.000000000              -0.001493237               0.006805085               0.000035228              -0.001410596               0.002738538               0.001327942               0.000000000               0.000000000               0.000000000               0.000000000              -0.001133566               0.006337134               0.000048621              -0.001217226               0.002518099               0.001300873               0.000000000               0.000000000               0.000000000               0.000000000              -0.000825145               0.005917717               0.000054836              -0.001049141               0.002322266               0.001273125               0.000000000               0.000000000               0.000000000               0.000000000              -0.000555135               0.005557291               0.000048623              -0.000902835               0.002153357               0.001250522               0.000000000               0.000000000               0.000000000               0.000000000              -0.000326936               0.005280551               0.000031016              -0.000782668               0.002021056               0.001238388               0.000000000               0.000000000               0.000000000               0.000000000              -0.000162829               0.005090899               0.000018150              -0.000697421               0.001929423               0.001232002               0.000000000               0.000000000               0.000000000               0.000000000              -0.000061525               0.004974652               0.000009871              -0.000644902               0.001873168               0.001228266               0.000000000               0.000000000               0.000000000               0.000000000              -0.000013998               0.004916884               0.000002069              -0.000619858               0.001845564               0.001225706               0.000000000               0.000000000               0.000000000               0.000000000              -0.000006497               0.004898387               0.000000764              -0.000614733               0.001837691               0.001222957               0.000000000               0.000000000               0.000000000               0.000000000              -0.000939973               0.006444203              -0.002100661              -0.001158014               0.002534050               0.001376036               0.000000000               0.000000000               0.000000000               0.000000000              -0.002714166               0.007884325              -0.001642207              -0.002003348               0.003295864               0.001292516               0.000000000               0.000000000               0.000000000               0.000000000              -0.004089484               0.009327888              -0.001114645              -0.002699536               0.004009110               0.001309574               0.000000000               0.000000000               0.000000000               0.000000000              -0.003989542               0.009265458              -0.000818748              -0.002654254               0.003973206               0.001318953               0.000000000               0.000000000               0.000000000               0.000000000              -0.003503495               0.008806491              -0.000638687              -0.002414616               0.003740340               0.001325724               0.000000000               0.000000000               0.000000000               0.000000000              -0.002920334               0.008249260              -0.000516513              -0.002126277               0.003458485               0.001332207               0.000000000               0.000000000               0.000000000               0.000000000              -0.002339826               0.007691734              -0.000426324              -0.001838897               0.003176851               0.001337954               0.000000000               0.000000000               0.000000000               0.000000000              -0.001807075               0.007173990              -0.000354638              -0.001574398               0.002916105               0.001341707               0.000000000               0.000000000               0.000000000               0.000000000              -0.001345175               0.006686134              -0.000287856              -0.001340204               0.002675424               0.001335219               0.000000000               0.000000000               0.000000000               0.000000000              -0.000952055               0.006232066              -0.000230202              -0.001136026               0.002456010               0.001319984               0.000000000               0.000000000               0.000000000               0.000000000              -0.000626252               0.005824437              -0.000182388              -0.000962897               0.002262425               0.001299528               0.000000000               0.000000000               0.000000000               0.000000000              -0.000362749               0.005485849              -0.000138220              -0.000821760               0.002102518               0.001280758               0.000000000               0.000000000               0.000000000               0.000000000              -0.000161589               0.005240669              -0.000096822              -0.000715678               0.001985431               0.001269754               0.000000000               0.000000000               0.000000000               0.000000000              -0.000036813               0.005080214              -0.000058598              -0.000648830               0.001909665               0.001260835               0.000000000               0.000000000               0.000000000               0.000000000               0.000021510               0.004991393              -0.000023202              -0.000615856               0.001869066               0.001253210               0.000000000               0.000000000               0.000000000               0.000000000               0.000032622               0.004959521              -0.000000598              -0.000607705               0.001855726               0.001248020               0.000000000               0.000000000               0.000000000               0.000000000               0.000023959               0.004952863               0.000007028              -0.000610122               0.001854312               0.001244190               0.000000000               0.000000000               0.000000000               0.000000000              -0.002412687               0.004380313              -0.001150343              -0.001452294               0.001944187               0.000491894               0.000000000               0.000000000               0.000000000               0.000000000              -0.003523533               0.006289711              -0.001492966              -0.002107534               0.002799060               0.000691526               0.000000000               0.000000000               0.000000000               0.000000000              -0.004528482               0.008159063              -0.001640980              -0.002718057               0.003625679               0.000907622               0.000000000               0.000000000               0.000000000               0.000000000              -0.004282649               0.008500085              -0.001439585              -0.002668497               0.003722832               0.001054335               0.000000000               0.000000000               0.000000000               0.000000000              -0.003717756               0.008329571              -0.001222781              -0.002435349               0.003588279               0.001152930               0.000000000               0.000000000               0.000000000               0.000000000              -0.003085738               0.007978645              -0.001033206              -0.002154477               0.003377680               0.001223203               0.000000000               0.000000000               0.000000000               0.000000000              -0.002467322               0.007568945              -0.000877901              -0.001871359               0.003146743               0.001275383               0.000000000               0.000000000               0.000000000               0.000000000              -0.001900645               0.007145730              -0.000750250              -0.001605954               0.002917204               0.001311250               0.000000000               0.000000000               0.000000000               0.000000000              -0.001406718               0.006720590              -0.000637177              -0.001367590               0.002696037               0.001328448               0.000000000               0.000000000               0.000000000               0.000000000              -0.000988081               0.006311904              -0.000536700              -0.001159516               0.002490452               0.001330936               0.000000000               0.000000000               0.000000000               0.000000000              -0.000637101               0.005935940              -0.000443419              -0.000980903               0.002305595               0.001324692               0.000000000               0.000000000               0.000000000               0.000000000              -0.000351770               0.005611514              -0.000347280              -0.000833351               0.002148270               0.001314919               0.000000000               0.000000000               0.000000000               0.000000000              -0.000137880               0.005349319              -0.000250463              -0.000720368               0.002023211               0.001302843               0.000000000               0.000000000               0.000000000               0.000000000              -0.000002832               0.005153070              -0.000158584              -0.000645194               0.001932737               0.001287543               0.000000000               0.000000000               0.000000000               0.000000000               0.000065600               0.005041796              -0.000077510              -0.000605623               0.001882456               0.001276833               0.000000000               0.000000000               0.000000000               0.000000000               0.000084692               0.004999623              -0.000021915              -0.000593192               0.001864255               0.001271063               0.000000000               0.000000000               0.000000000               0.000000000               0.000076855               0.004984091              -0.000000650              -0.000594189               0.001859410               0.001265221               0.000000000               0.000000000               0.000000000               0.000000000              -0.004271215               0.002512737              -0.000232954              -0.001915794               0.001476167              -0.000439627               0.000000000               0.000000000               0.000000000               0.000000000              -0.004430074               0.004674461              -0.001280295              -0.002245580               0.002306664               0.000061084               0.000000000               0.000000000               0.000000000               0.000000000              -0.004879239               0.006770514              -0.002062349              -0.002676023               0.003148822               0.000472800               0.000000000               0.000000000               0.000000000               0.000000000              -0.004506096               0.007499861              -0.002022607              -0.002627262               0.003375682               0.000748420               0.000000000               0.000000000               0.000000000               0.000000000              -0.003903839               0.007657692              -0.001810700              -0.002421145               0.003359587               0.000938441               0.000000000               0.000000000               0.000000000               0.000000000              -0.003253676               0.007557684              -0.001581073              -0.002164834               0.003240814               0.001075980               0.000000000               0.000000000               0.000000000               0.000000000              -0.002620436               0.007335266              -0.001373735              -0.001899567               0.003078253               0.001178686               0.000000000               0.000000000               0.000000000               0.000000000              -0.002034923               0.007045138              -0.001196390              -0.001643734               0.002896267               0.001252533               0.000000000               0.000000000               0.000000000               0.000000000              -0.001506428               0.006723166              -0.001041318              -0.001405303               0.002709467               0.001304164               0.000000000               0.000000000               0.000000000               0.000000000              -0.001050867               0.006389356              -0.000900774              -0.001192742               0.002527344               0.001334603               0.000000000               0.000000000               0.000000000               0.000000000              -0.000666480               0.006061262              -0.000769624              -0.001007585               0.002356262               0.001348677               0.000000000               0.000000000               0.000000000               0.000000000              -0.000341272               0.005755695              -0.000634186              -0.000847437               0.002201025               0.001353588               0.000000000               0.000000000               0.000000000               0.000000000              -0.000081602               0.005486408              -0.000488903              -0.000716400               0.002067584               0.001351184               0.000000000               0.000000000               0.000000000               0.000000000               0.000101136               0.005265519              -0.000341182              -0.000620262               0.001961909               0.001341647               0.000000000               0.000000000               0.000000000               0.000000000               0.000206958               0.005112015              -0.000202111              -0.000561391               0.001891118               0.001329727               0.000000000               0.000000000               0.000000000               0.000000000               0.000235444               0.005026325              -0.000085615              -0.000539998               0.001855424               0.001315426               0.000000000               0.000000000               0.000000000               0.000000000               0.000215853               0.004990387              -0.000030929              -0.000542852               0.001844396               0.001301544               0.000000000               0.000000000               0.000000000               0.000000000              -0.006383582               0.001007332               0.000563032              -0.002519757               0.001175688              -0.001344069               0.000000000               0.000000000               0.000000000               0.000000000              -0.005482212               0.003154456              -0.000988430              -0.002450132               0.001868183              -0.000581949               0.000000000               0.000000000               0.000000000               0.000000000              -0.005165024               0.005185868              -0.002265928              -0.002585112               0.002590308               0.000005196               0.000000000               0.000000000               0.000000000               0.000000000              -0.004578594               0.006181551              -0.002426233              -0.002489661               0.002890383               0.000400721               0.000000000               0.000000000               0.000000000               0.000000000              -0.003919830               0.006642166              -0.002273772              -0.002300202               0.002980767               0.000680564               0.000000000               0.000000000               0.000000000               0.000000000              -0.003260776               0.006805737              -0.002045917              -0.002073504               0.002959724               0.000886220               0.000000000               0.000000000               0.000000000               0.000000000              -0.002633527               0.006796411              -0.001815560              -0.001837120               0.002877821               0.001040701               0.000000000               0.000000000               0.000000000               0.000000000              -0.002045429               0.006686905              -0.001612051              -0.001602896               0.002763244               0.001160349               0.000000000               0.000000000               0.000000000               0.000000000              -0.001501034               0.006508950              -0.001429949              -0.001376504               0.002628463               0.001251959               0.000000000               0.000000000               0.000000000               0.000000000              -0.001013988               0.006283121              -0.001260672              -0.001165633               0.002482897               0.001317264               0.000000000               0.000000000               0.000000000               0.000000000              -0.000593217               0.006034349              -0.001103597              -0.000976748               0.002337012               0.001360264               0.000000000               0.000000000               0.000000000               0.000000000              -0.000229264               0.005787875              -0.000942927              -0.000809457               0.002199091               0.001389634               0.000000000               0.000000000               0.000000000               0.000000000               0.000081261               0.005555970              -0.000767702              -0.000664022               0.002073312               0.001409290               0.000000000               0.000000000               0.000000000               0.000000000               0.000327869               0.005348005              -0.000582422              -0.000545549               0.001964500               0.001418951               0.000000000               0.000000000               0.000000000               0.000000000               0.000491932               0.005179720              -0.000385696              -0.000462989               0.001880886               0.001417896               0.000000000               0.000000000               0.000000000               0.000000000               0.000552597               0.005065656              -0.000186031              -0.000425982               0.001830529               0.001404547               0.000000000               0.000000000               0.000000000               0.000000000               0.000534316               0.005011625              -0.000082409              -0.000426083               0.001812553               0.001386469               0.000000000               0.000000000               0.000000000               0.000000000              -0.008610278              -0.000065468               0.001121700              -0.003220668               0.001051726              -0.002168942               0.000000000               0.000000000               0.000000000               0.000000000              -0.006613859               0.001807704              -0.000668493              -0.002706156               0.001504609              -0.001201547               0.000000000               0.000000000               0.000000000               0.000000000              -0.005403728               0.003535711              -0.002223302              -0.002468357               0.002001342              -0.000467016               0.000000000               0.000000000               0.000000000               0.000000000              -0.004514442               0.004656912              -0.002556738              -0.002275025               0.002310629               0.000035604               0.000000000               0.000000000               0.000000000               0.000000000              -0.003767403               0.005354013              -0.002491808              -0.002082023               0.002478660               0.000396637               0.000000000               0.000000000               0.000000000               0.000000000              -0.003100252               0.005758320              -0.002299681              -0.001882381               0.002546880               0.000664499               0.000000000               0.000000000               0.000000000               0.000000000              -0.002483468               0.005974494              -0.002081387              -0.001678109               0.002550847               0.000872738               0.000000000               0.000000000               0.000000000               0.000000000              -0.001905396               0.006067260              -0.001880645              -0.001472928               0.002513375               0.001040447               0.000000000               0.000000000               0.000000000               0.000000000              -0.001365006               0.006053611              -0.001696117              -0.001268576               0.002440708               0.001172132               0.000000000               0.000000000               0.000000000               0.000000000              -0.000861806               0.005960912              -0.001519954              -0.001068289               0.002343047               0.001274758               0.000000000               0.000000000               0.000000000               0.000000000              -0.000402659               0.005825817              -0.001354009              -0.000879223               0.002234994               0.001355771               0.000000000               0.000000000               0.000000000               0.000000000               0.000012073               0.005672742              -0.001189147              -0.000704564               0.002125750               0.001421186               0.000000000               0.000000000               0.000000000               0.000000000               0.000391704               0.005522259              -0.001010777              -0.000543393               0.002021865               0.001478473               0.000000000               0.000000000               0.000000000               0.000000000               0.000724875               0.005375067              -0.000808322              -0.000400055               0.001925022               0.001524968               0.000000000               0.000000000               0.000000000               0.000000000               0.000982861               0.005230013              -0.000568171              -0.000285178               0.001838380               0.001553201               0.000000000               0.000000000               0.000000000               0.000000000               0.001141997               0.005105965              -0.000293383              -0.000209996               0.001771970               0.001561974               0.000000000               0.000000000               0.000000000               0.000000000               0.001188661               0.005046729              -0.000148965              -0.000185093               0.001743924               0.001558831               0.000000000               0.000000000               0.000000000               0.000000000              -0.010744531              -0.000742105               0.001339779              -0.003936433               0.001064768              -0.002871665               0.000000000               0.000000000               0.000000000               0.000000000              -0.007723721               0.000708397              -0.000380882              -0.002984942               0.001231105              -0.001753838               0.000000000               0.000000000               0.000000000               0.000000000              -0.005611326               0.001987298              -0.001931576              -0.002352656               0.001446641              -0.000906015               0.000000000               0.000000000               0.000000000               0.000000000              -0.004368175               0.003104887              -0.002354646              -0.002026173               0.001710341              -0.000315832               0.000000000               0.000000000               0.000000000               0.000000000              -0.003498290               0.003954400              -0.002367513              -0.001806155               0.001920171               0.000114015               0.000000000               0.000000000               0.000000000               0.000000000              -0.002804559               0.004554464              -0.002231445              -0.001621015               0.002058477               0.000437462               0.000000000               0.000000000               0.000000000               0.000000000              -0.002191605               0.004970923              -0.002053882              -0.001443214               0.002138029               0.000694814               0.000000000               0.000000000               0.000000000               0.000000000              -0.001630514               0.005247524              -0.001878465              -0.001267381               0.002171617               0.000904236               0.000000000               0.000000000               0.000000000               0.000000000              -0.001105891               0.005397681              -0.001713801              -0.001089418               0.002162348               0.001072930               0.000000000               0.000000000               0.000000000               0.000000000              -0.000601097               0.005452301              -0.001555913              -0.000906947               0.002119731               0.001212784               0.000000000               0.000000000               0.000000000               0.000000000              -0.000109628               0.005451388              -0.001406415              -0.000722533               0.002057955               0.001335422               0.000000000               0.000000000               0.000000000               0.000000000               0.000365395               0.005418068              -0.001260608              -0.000540235               0.001986083               0.001445848               0.000000000               0.000000000               0.000000000               0.000000000               0.000823685               0.005369087              -0.001104493              -0.000362254               0.001910429               0.001548175               0.000000000               0.000000000               0.000000000               0.000000000               0.001260521               0.005302389              -0.000913739              -0.000190103               0.001830813               0.001640710               0.000000000               0.000000000               0.000000000               0.000000000               0.001659137               0.005213037              -0.000669643              -0.000029454               0.001747480               0.001718026               0.000000000               0.000000000               0.000000000               0.000000000               0.001998964               0.005109381              -0.000362936               0.000110937               0.001666131               0.001777068               0.000000000               0.000000000               0.000000000               0.000000000               0.002193487               0.005070639              -0.000201418               0.000188726               0.001627288               0.001816013               0.000000000               0.000000000               0.000000000               0.000000000              -0.012535923              -0.001101534               0.001175135              -0.004563276               0.001153906              -0.003409370               0.000000000               0.000000000               0.000000000               0.000000000              -0.008684101              -0.000090877              -0.000173818              -0.003245176               0.001051426              -0.002193750               0.000000000               0.000000000               0.000000000               0.000000000              -0.005788920               0.000721760              -0.001423270              -0.002261063               0.000994267              -0.001266796               0.000000000               0.000000000               0.000000000               0.000000000              -0.004204553               0.001753994              -0.001813535              -0.001795954               0.001183307              -0.000612647               0.000000000               0.000000000               0.000000000               0.000000000              -0.003199108               0.002669517              -0.001866912              -0.001533352               0.001400946              -0.000132406               0.000000000               0.000000000               0.000000000               0.000000000              -0.002460624               0.003402220              -0.001788032              -0.001348009               0.001583397               0.000235389               0.000000000               0.000000000               0.000000000               0.000000000              -0.001847827               0.003970861              -0.001662971              -0.001189290               0.001720036               0.000530746               0.000000000               0.000000000               0.000000000               0.000000000              -0.001300826               0.004390150              -0.001531313              -0.001036577               0.001808894               0.000772317               0.000000000               0.000000000               0.000000000               0.000000000              -0.000793837               0.004683394              -0.001406228              -0.000883111               0.001855486               0.000972374               0.000000000               0.000000000               0.000000000               0.000000000              -0.000295020               0.004880537              -0.001288962              -0.000720698               0.001867062               0.001146364               0.000000000               0.000000000               0.000000000               0.000000000               0.000214284               0.005011626              -0.001179505              -0.000546096               0.001852557               0.001306461               0.000000000               0.000000000               0.000000000               0.000000000               0.000738433               0.005105340              -0.001071823              -0.000361255               0.001822181               0.001460926               0.000000000               0.000000000               0.000000000               0.000000000               0.001271017               0.005164115              -0.000956488              -0.000168883               0.001777649               0.001608765               0.000000000               0.000000000               0.000000000               0.000000000               0.001811405               0.005178796              -0.000812497               0.000031926               0.001715606               0.001747532               0.000000000               0.000000000               0.000000000               0.000000000               0.002368274               0.005151228              -0.000614525               0.000244197               0.001635660               0.001879857               0.000000000               0.000000000               0.000000000               0.000000000               0.002937050               0.005085153              -0.000344232               0.000465745               0.001539786               0.002005531               0.000000000               0.000000000               0.000000000               0.000000000               0.003334427               0.005084252              -0.000204057               0.000614873               0.001489776               0.002104649               0.000000000               0.000000000               0.000000000               0.000000000              -0.013731284              -0.001254027               0.000680988              -0.004992475               0.001246141              -0.003746334               0.000000000               0.000000000               0.000000000               0.000000000              -0.009342701              -0.000569316              -0.000058431              -0.003432346               0.000954337              -0.002478009               0.000000000               0.000000000               0.000000000               0.000000000              -0.005912899              -0.000103922              -0.000756039              -0.002204345               0.000700136              -0.001504209               0.000000000               0.000000000               0.000000000               0.000000000              -0.004076890               0.000826376              -0.000990380              -0.001632129               0.000819495              -0.000812633               0.000000000               0.000000000               0.000000000               0.000000000              -0.002958920               0.001755091              -0.001034340              -0.001328979               0.001028016              -0.000300963               0.000000000               0.000000000               0.000000000               0.000000000              -0.002184487               0.002557672              -0.001000753              -0.001138889               0.001232178               0.000093289               0.000000000               0.000000000               0.000000000               0.000000000              -0.001573458               0.003216842              -0.000936956              -0.000992150               0.001402986               0.000410836               0.000000000               0.000000000               0.000000000               0.000000000              -0.001039994               0.003731866              -0.000864485              -0.000856479               0.001529436               0.000672956               0.000000000               0.000000000               0.000000000               0.000000000              -0.000541334               0.004127138              -0.000794952              -0.000718891               0.001615329               0.000896438               0.000000000               0.000000000               0.000000000               0.000000000              -0.000047033               0.004430081              -0.000733057              -0.000571396               0.001667144               0.001095748               0.000000000               0.000000000               0.000000000               0.000000000               0.000465599               0.004666922              -0.000676907              -0.000408765               0.001691880               0.001283115               0.000000000               0.000000000               0.000000000               0.000000000               0.001010413               0.004857734              -0.000620444              -0.000228312               0.001695332               0.001467021               0.000000000               0.000000000               0.000000000               0.000000000               0.001592121               0.004996419              -0.000556775              -0.000027508               0.001674625               0.001647118               0.000000000               0.000000000               0.000000000               0.000000000               0.002216760               0.005075867              -0.000479902               0.000196800               0.001626339               0.001823138               0.000000000               0.000000000               0.000000000               0.000000000               0.002904899               0.005099824              -0.000373602               0.000451855               0.001549306               0.002001161               0.000000000               0.000000000               0.000000000               0.000000000               0.003679303               0.005066625              -0.000214755               0.000746403               0.001440057               0.002186460               0.000000000               0.000000000               0.000000000               0.000000000               0.004269635               0.005099306              -0.000131332               0.000963690               0.001378522               0.002342212               0.000000000               0.000000000               0.000000000               0.000000000              -0.014150747              -0.001292258              -0.000000000              -0.005144995               0.001284237              -0.003860758               0.000000000               0.000000000               0.000000000               0.000000000              -0.009577526              -0.000726976               0.000000000              -0.003500698               0.000924568              -0.002576130               0.000000000               0.000000000               0.000000000               0.000000000              -0.005957790              -0.000390013              -0.000000000              -0.002185418               0.000598464              -0.001586954               0.000000000               0.000000000               0.000000000               0.000000000              -0.004028618               0.000493737              -0.000000000              -0.001572447               0.000688723              -0.000883724               0.000000000               0.000000000               0.000000000               0.000000000              -0.002865657               0.001422279               0.000000000              -0.001252404               0.000891555              -0.000360849               0.000000000               0.000000000               0.000000000               0.000000000              -0.002076970               0.002248089               0.000000000              -0.001059872               0.001102646               0.000042773               0.000000000               0.000000000               0.000000000               0.000000000              -0.001467359               0.002936271              -0.000000000              -0.000917291               0.001284511               0.000367220               0.000000000               0.000000000               0.000000000               0.000000000              -0.000943420               0.003484028              -0.000000000              -0.000789284               0.001424426               0.000635141               0.000000000               0.000000000               0.000000000               0.000000000              -0.000446202               0.003913363               0.000000000              -0.000656495               0.001523273               0.000866778               0.000000000               0.000000000               0.000000000               0.000000000               0.000047284               0.004252897               0.000000000              -0.000513879               0.001588911               0.001075032               0.000000000               0.000000000               0.000000000               0.000000000               0.000559563               0.004536687               0.000000000              -0.000357249               0.001631297               0.001274048               0.000000000               0.000000000               0.000000000               0.000000000               0.001106367               0.004764842               0.000000000              -0.000180717               0.001648504               0.001467787               0.000000000               0.000000000               0.000000000               0.000000000               0.001703006               0.004928507              -0.000000000               0.000022563               0.001635298               0.001657861               0.000000000               0.000000000               0.000000000               0.000000000               0.002365291               0.005038136              -0.000000000               0.000257215               0.001593624               0.001850838               0.000000000               0.000000000               0.000000000               0.000000000               0.003108717               0.005090114              -0.000000000               0.000529499               0.001520188               0.002049687               0.000000000               0.000000000               0.000000000               0.000000000               0.003964737               0.005067389               0.000000000               0.000853344               0.001404665               0.002258009               0.000000000               0.000000000               0.000000000               0.000000000               0.004637031               0.005110097              -0.000000000               0.001100114               0.001336644               0.002436758               0.000000000               0.000000000               0.000000000               0.000000000               0.000000000               0.000000000               0.000000000               0.000000000               0.000000000               0.000000000               0.000000000               0.000000000               0.000000000               0.000000000               0.000000000               0.000000000               0.000000000               0.000000000               0.000000000               0.000000000               0.000000000               0.000000000               0.000000000               0.000000000               0.000000000               0.000000000               0.000000000               0.000000000               0.000000000               0.000000000               0.000000000               0.000000000               0.000000000               0.000000000               0.000000000               0.000000000               0.000000000               0.000000000               0.000000000               0.000000000               0.000000000               0.000000000               0.000000000               0.000000000               0.000000000               0.000000000               0.000000000               0.000000000               0.000000000               0.000000000               0.000000000               0.000000000               0.000000000               0.000000000               0.000000000               0.000000000               0.000000000               0.000000000               0.000000000               0.000000000               0.000000000               0.000000000               0.000000000               0.000000000               0.000000000               0.000000000               0.000000000               0.000000000               0.000000000               0.000000000               0.000000000               0.000000000               0.000000000               0.000000000               0.000000000               0.000000000               0.000000000               0.000000000               0.000000000               0.000000000               0.000000000               0.000000000               0.000000000               0.000000000               0.000000000               0.000000000               0.000000000               0.000000000               0.000000000               0.000000000               0.000000000               0.000000000               0.000000000               0.000000000               0.000000000               0.000000000               0.000000000               0.000000000               0.000000000               0.000000000               0.000000000               0.000000000               0.000000000               0.000000000               0.000000000               0.000000000               0.000000000               0.000000000               0.000000000               0.000000000               0.000000000               0.000000000               0.000000000               0.000000000               0.000000000               0.000000000               0.000000000               0.000000000               0.000000000               0.000000000               0.000000000               0.000000000               0.000000000               0.000000000               0.000000000               0.000000000               0.000000000               0.000000000               0.000000000               0.000000000               0.000000000               0.000000000               0.000000000               0.000000000               0.000000000               0.000000000               0.000000000               0.000000000               0.000000000               0.000000000               0.000000000               0.000000000               0.000000000               0.000000000               0.000000000               0.000000000               0.000000000               0.000000000               0.000000000               0.000000000               0.000000000               0.000000000               0.000000000               0.000000000               0.000000000               0.000000000               0.000000000               0.000000000               0.000000000               0.000000000               0.000000000               0.000000000               0.000000000               0.000000000               0.000000000               0.000000000               0.000000000               0.000000000               0.000000000               0.000000000               0.000000000               0.000000000               0.000000000               0.000000000               0.002311225               0.023456385               0.001584472              -0.002065334               0.008507161               0.006441827               0.000000000               0.000000000               0.000000000               0.000000000               0.002090478               0.018106935               0.000712259              -0.001479434               0.006528729               0.005049295               0.000000000               0.000000000               0.000000000               0.000000000               0.002554471               0.013818259              -0.000148601              -0.000769354               0.004862492               0.004093138               0.000000000               0.000000000               0.000000000               0.000000000               0.002269187               0.011404027              -0.000501438              -0.000574557               0.003992824               0.003418266               0.000000000               0.000000000               0.000000000               0.000000000               0.001799892               0.009873322              -0.000636272              -0.000559205               0.003477476               0.002918271               0.000000000               0.000000000               0.000000000               0.000000000               0.001334157               0.008789629              -0.000673603              -0.000598394               0.003129311               0.002530918               0.000000000               0.000000000               0.000000000               0.000000000               0.000928813               0.007939124              -0.000666248              -0.000644084               0.002861043               0.002216959               0.000000000               0.000000000               0.000000000               0.000000000               0.000600582               0.007218450              -0.000640727              -0.000677087               0.002631821               0.001954735               0.000000000               0.000000000               0.000000000               0.000000000               0.000349662               0.006565382              -0.000609197              -0.000689548               0.002418288               0.001728740               0.000000000               0.000000000               0.000000000               0.000000000               0.000164770               0.005947027              -0.000575562              -0.000681588               0.002209519               0.001527930               0.000000000               0.000000000               0.000000000               0.000000000               0.000029440               0.005345765              -0.000541302              -0.000657179               0.002000964               0.001343784               0.000000000               0.000000000               0.000000000               0.000000000              -0.000069415               0.004746931              -0.000505054              -0.000619396               0.001788760               0.001169364               0.000000000               0.000000000               0.000000000               0.000000000              -0.000133528               0.004136817              -0.000460676              -0.000567174               0.001567983               0.001000809               0.000000000               0.000000000               0.000000000               0.000000000              -0.000153998               0.003503857              -0.000398003              -0.000495730               0.001333184               0.000837454               0.000000000               0.000000000               0.000000000               0.000000000              -0.000134886               0.002832904              -0.000308978              -0.000404695               0.001079190               0.000674496               0.000000000               0.000000000               0.000000000               0.000000000              -0.000080047               0.002102486              -0.000177696              -0.000292828               0.000798431               0.000505603               0.000000000               0.000000000               0.000000000               0.000000000              -0.000100180               0.001557285              -0.000108534              -0.000232228               0.000596499               0.000364271               0.000000000               0.000000000               0.000000000               0.000000000               0.002458267               0.021985939               0.002932055              -0.001826389               0.007937369               0.006110980               0.000000000               0.000000000               0.000000000               0.000000000               0.001877521               0.017188698               0.001316963              -0.001444514               0.006211013               0.004766499               0.000000000               0.000000000               0.000000000               0.000000000               0.001958833               0.013459908              -0.000262008              -0.000947924               0.004802566               0.003854642               0.000000000               0.000000000               0.000000000               0.000000000               0.001551615               0.011325314              -0.000886564              -0.000833807               0.004053002               0.003219196               0.000000000               0.000000000               0.000000000               0.000000000               0.001081923               0.009928246              -0.001114722              -0.000835308               0.003587818               0.002752510               0.000000000               0.000000000               0.000000000               0.000000000               0.000666396               0.008905932              -0.001167997              -0.000863341               0.003256395               0.002393053               0.000000000               0.000000000               0.000000000               0.000000000               0.000334150               0.008084801              -0.001146275              -0.000885292               0.002990004               0.002104712               0.000000000               0.000000000               0.000000000               0.000000000               0.000086650               0.007377124              -0.001092765              -0.000889645               0.002755565               0.001865920               0.000000000               0.000000000               0.000000000               0.000000000              -0.000087631               0.006730748              -0.001027464              -0.000874203               0.002534961               0.001660758               0.000000000               0.000000000               0.000000000               0.000000000              -0.000203747               0.006124061              -0.000963113              -0.000841911               0.002321970               0.001480059               0.000000000               0.000000000               0.000000000               0.000000000              -0.000279562               0.005546087              -0.000899255              -0.000798095               0.002114709               0.001316614               0.000000000               0.000000000               0.000000000               0.000000000              -0.000320793               0.004985261              -0.000827240              -0.000743454               0.001909555               0.001166101               0.000000000               0.000000000               0.000000000               0.000000000              -0.000325830               0.004431886              -0.000737694              -0.000676171               0.001702671               0.001026500               0.000000000               0.000000000               0.000000000               0.000000000              -0.000290657               0.003881970              -0.000623891              -0.000594241               0.001492057               0.000897816               0.000000000               0.000000000               0.000000000               0.000000000              -0.000218080               0.003336267              -0.000472016              -0.000498812               0.001278348               0.000779536               0.000000000               0.000000000               0.000000000               0.000000000              -0.000118020               0.002796501              -0.000262434              -0.000393819               0.001063431               0.000669611               0.000000000               0.000000000               0.000000000               0.000000000              -0.000099599               0.002428321              -0.000154408              -0.000340889               0.000923062               0.000582173               0.000000000               0.000000000               0.000000000               0.000000000               0.002577302               0.019766158               0.003862443              -0.001504280               0.007090080               0.005585800               0.000000000               0.000000000               0.000000000               0.000000000               0.001495238               0.015817114               0.001737193              -0.001416422               0.005744459               0.004328037               0.000000000               0.000000000               0.000000000               0.000000000               0.001051015               0.012931826              -0.000311378              -0.001222345               0.004718014               0.003495669               0.000000000               0.000000000               0.000000000               0.000000000               0.000505690               0.011189873              -0.001076668              -0.001209098               0.004132953               0.002923855               0.000000000               0.000000000               0.000000000               0.000000000               0.000066006               0.009975954              -0.001333868              -0.001222239               0.003732698               0.002510458               0.000000000               0.000000000               0.000000000               0.000000000              -0.000249816               0.009035642              -0.001380312              -0.001223133               0.003419561               0.002196428               0.000000000               0.000000000               0.000000000               0.000000000              -0.000459510               0.008247686              -0.001337633              -0.001203275               0.003150293               0.001947018               0.000000000               0.000000000               0.000000000               0.000000000              -0.000582717               0.007549380              -0.001258550              -0.001162189               0.002903831               0.001741642               0.000000000               0.000000000               0.000000000               0.000000000              -0.000642639               0.006912379              -0.001168626              -0.001105035               0.002672448               0.001567413               0.000000000               0.000000000               0.000000000               0.000000000              -0.000659184               0.006327577              -0.001082106              -0.001038139               0.002455218               0.001417079               0.000000000               0.000000000               0.000000000               0.000000000              -0.000646697               0.005782779              -0.000997344              -0.000965357               0.002249359               0.001284003               0.000000000               0.000000000               0.000000000               0.000000000              -0.000606935               0.005273756              -0.000902318              -0.000886818               0.002053507               0.001166689               0.000000000               0.000000000               0.000000000               0.000000000              -0.000528217               0.004796348              -0.000787023              -0.000797623               0.001864641               0.001067018               0.000000000               0.000000000               0.000000000               0.000000000              -0.000414474               0.004350907              -0.000646493              -0.000699290               0.001683384               0.000984095               0.000000000               0.000000000               0.000000000               0.000000000              -0.000281459               0.003944733              -0.000472443              -0.000598637               0.001514444               0.000915806               0.000000000               0.000000000               0.000000000               0.000000000              -0.000141437               0.003597818              -0.000254771              -0.000502765               0.001366849               0.000864084               0.000000000               0.000000000               0.000000000               0.000000000              -0.000091825               0.003394026              -0.000145010              -0.000458686               0.001284226               0.000825540               0.000000000               0.000000000               0.000000000               0.000000000               0.002513998               0.017062962               0.004289348              -0.001190121               0.006084303               0.004894182               0.000000000               0.000000000               0.000000000               0.000000000               0.000920513               0.014180610               0.001950193              -0.001427382               0.005202616               0.003775235               0.000000000               0.000000000               0.000000000               0.000000000              -0.000061263               0.012294970              -0.000266681              -0.001559841               0.004618229               0.003058388               0.000000000               0.000000000               0.000000000               0.000000000              -0.000687956               0.010982757              -0.001035762              -0.001630824               0.004204490               0.002573666               0.000000000               0.000000000               0.000000000               0.000000000              -0.001037507               0.009960450              -0.001269600              -0.001634118               0.003864822               0.002230705               0.000000000               0.000000000               0.000000000               0.000000000              -0.001206044               0.009096690              -0.001293733              -0.001589349               0.003561982               0.001972633               0.000000000               0.000000000               0.000000000               0.000000000              -0.001254766               0.008338193              -0.001234698              -0.001512808               0.003283639               0.001770831               0.000000000               0.000000000               0.000000000               0.000000000              -0.001227682               0.007655299              -0.001144701              -0.001417290               0.003024171               0.001606881               0.000000000               0.000000000               0.000000000               0.000000000              -0.001154312               0.007040507              -0.001048803              -0.001312928               0.002784455               0.001471527               0.000000000               0.000000000               0.000000000               0.000000000              -0.001053644               0.006485389              -0.000959958              -0.001205787               0.002563704               0.001357917               0.000000000               0.000000000               0.000000000               0.000000000              -0.000935066               0.005983446              -0.000875332              -0.001098578               0.002360654               0.001262077               0.000000000               0.000000000               0.000000000               0.000000000              -0.000798331               0.005529526              -0.000780419              -0.000990563               0.002173344               0.001182782               0.000000000               0.000000000               0.000000000               0.000000000              -0.000644204               0.005116951              -0.000662282              -0.000881193               0.001999364               0.001118171               0.000000000               0.000000000               0.000000000               0.000000000              -0.000472275               0.004756653              -0.000524871              -0.000771683               0.001842763               0.001071080               0.000000000               0.000000000               0.000000000               0.000000000              -0.000298461               0.004466470              -0.000368017              -0.000670230               0.001712218               0.001041988               0.000000000               0.000000000               0.000000000               0.000000000              -0.000142349               0.004261761              -0.000190772              -0.000586100               0.001615939               0.001029840               0.000000000               0.000000000               0.000000000               0.000000000              -0.000078756               0.004167475              -0.000103597              -0.000550466               0.001572633               0.001022167               0.000000000               0.000000000               0.000000000               0.000000000               0.002146974               0.014157853               0.004224968              -0.000964617               0.005040775               0.004076158               0.000000000               0.000000000               0.000000000               0.000000000               0.000163667               0.012457125               0.001989514              -0.001495763               0.004650921               0.003155158               0.000000000               0.000000000               0.000000000               0.000000000              -0.001246242               0.011595425              -0.000098648              -0.001916764               0.004504024               0.002587260               0.000000000               0.000000000               0.000000000               0.000000000              -0.001845517               0.010685620              -0.000769756              -0.002027766               0.004237760               0.002209993               0.000000000               0.000000000               0.000000000               0.000000000              -0.002039133               0.009827605              -0.000954916              -0.001993121               0.003940209               0.001947088               0.000000000               0.000000000               0.000000000               0.000000000              -0.002020050               0.009034023              -0.000963032              -0.001886767               0.003640233               0.001753466               0.000000000               0.000000000               0.000000000               0.000000000              -0.001883795               0.008312287              -0.000906544              -0.001745455               0.003352553               0.001607098               0.000000000               0.000000000               0.000000000               0.000000000              -0.001694609               0.007654529              -0.000830813              -0.001592291               0.003082247               0.001489957               0.000000000               0.000000000               0.000000000               0.000000000              -0.001487884               0.007069047              -0.000756299              -0.001441584               0.002836853               0.001395269               0.000000000               0.000000000               0.000000000               0.000000000              -0.001276698               0.006548930              -0.000688018              -0.001297375               0.002615413               0.001318038               0.000000000               0.000000000               0.000000000               0.000000000              -0.001062292               0.006084834              -0.000624665              -0.001158961               0.002414578               0.001255617               0.000000000               0.000000000               0.000000000               0.000000000              -0.000842894               0.005672069              -0.000546724              -0.001025092               0.002232368               0.001207276               0.000000000               0.000000000               0.000000000               0.000000000              -0.000632234               0.005310046              -0.000446090              -0.000900841               0.002070278               0.001169437               0.000000000               0.000000000               0.000000000               0.000000000              -0.000430751               0.005016550              -0.000338378              -0.000788598               0.001935033               0.001146434               0.000000000               0.000000000               0.000000000               0.000000000              -0.000249049               0.004808276              -0.000224916              -0.000694426               0.001834218               0.001139792               0.000000000               0.000000000               0.000000000               0.000000000              -0.000108873               0.004686544              -0.000108263              -0.000626644               0.001771047               0.001144403               0.000000000               0.000000000               0.000000000               0.000000000              -0.000053352               0.004644880              -0.000053866              -0.000600616               0.001748483               0.001147867               0.000000000               0.000000000               0.000000000               0.000000000               0.001402365               0.011301653               0.003758593              -0.000886821               0.004062786               0.003175965               0.000000000               0.000000000               0.000000000               0.000000000              -0.000743835               0.010783829               0.001915090              -0.001626914               0.004136878               0.002509964               0.000000000               0.000000000               0.000000000               0.000000000              -0.002376612               0.010863797               0.000198949              -0.002249199               0.004370962               0.002121764               0.000000000               0.000000000               0.000000000               0.000000000              -0.002819560               0.010287949              -0.000324389              -0.002343323               0.004210390               0.001867067               0.000000000               0.000000000               0.000000000               0.000000000              -0.002795311               0.009562686              -0.000472390              -0.002243572               0.003935387               0.001691816               0.000000000               0.000000000               0.000000000               0.000000000              -0.002570705               0.008838673              -0.000488845              -0.002068844               0.003635810               0.001566966               0.000000000               0.000000000               0.000000000               0.000000000              -0.002256876               0.008157040              -0.000460220              -0.001865954               0.003340971               0.001475017               0.000000000               0.000000000               0.000000000               0.000000000              -0.001918827               0.007535761              -0.000422746              -0.001661526               0.003065737               0.001404211               0.000000000               0.000000000               0.000000000               0.000000000              -0.001592618               0.006986266              -0.000390559              -0.001470511               0.002818903               0.001348391               0.000000000               0.000000000               0.000000000               0.000000000              -0.001289883               0.006497579              -0.000359215              -0.001295900               0.002597805               0.001301905               0.000000000               0.000000000               0.000000000               0.000000000              -0.001010633               0.006058439              -0.000327758              -0.001136290               0.002398223               0.001261933               0.000000000               0.000000000               0.000000000               0.000000000              -0.000746567               0.005673247              -0.000281057              -0.000989116               0.002220769               0.001231653               0.000000000               0.000000000               0.000000000               0.000000000              -0.000508289               0.005352458              -0.000214718              -0.000859663               0.002070689               0.001211026               0.000000000               0.000000000               0.000000000               0.000000000              -0.000309674               0.005110940              -0.000150816              -0.000754993               0.001955294               0.001200301               0.000000000               0.000000000               0.000000000               0.000000000              -0.000158761               0.004951745              -0.000090834              -0.000678502               0.001876732               0.001198231               0.000000000               0.000000000               0.000000000               0.000000000              -0.000059989               0.004865754              -0.000035417              -0.000630713               0.001832140               0.001201426               0.000000000               0.000000000               0.000000000               0.000000000              -0.000026543               0.004836368              -0.000013608              -0.000614498               0.001816939               0.001202441               0.000000000               0.000000000               0.000000000               0.000000000               0.000326323               0.008667608               0.003008845              -0.000961080               0.003209533               0.002248453               0.000000000               0.000000000               0.000000000               0.000000000              -0.001743765               0.009254064               0.001783161              -0.001810666               0.003688212               0.001877546               0.000000000               0.000000000               0.000000000               0.000000000              -0.003341300               0.010102366               0.000613703              -0.002515777               0.004206014               0.001690237               0.000000000               0.000000000               0.000000000               0.000000000              -0.003518775               0.009778681               0.000228758              -0.002541869               0.004106818               0.001564948               0.000000000               0.000000000               0.000000000               0.000000000              -0.003242979               0.009171194               0.000081933              -0.002362511               0.003844537               0.001482027               0.000000000               0.000000000               0.000000000               0.000000000              -0.002817787               0.008517765               0.000024957              -0.002121386               0.003546355               0.001424970               0.000000000               0.000000000               0.000000000               0.000000000              -0.002352267               0.007889997               0.000001061              -0.001868345               0.003252754               0.001384409               0.000000000               0.000000000               0.000000000               0.000000000              -0.001901963               0.007318529              -0.000016348              -0.001628048               0.002982168               0.001354120               0.000000000               0.000000000               0.000000000               0.000000000              -0.001493237               0.006805085              -0.000035228              -0.001410596               0.002738538               0.001327942               0.000000000               0.000000000               0.000000000               0.000000000              -0.001133566               0.006337134              -0.000048621              -0.001217226               0.002518099               0.001300873               0.000000000               0.000000000               0.000000000               0.000000000              -0.000825145               0.005917717              -0.000054836              -0.001049141               0.002322266               0.001273125               0.000000000               0.000000000               0.000000000               0.000000000              -0.000555135               0.005557291              -0.000048623              -0.000902835               0.002153357               0.001250522               0.000000000               0.000000000               0.000000000               0.000000000              -0.000326936               0.005280551              -0.000031016              -0.000782668               0.002021056               0.001238388               0.000000000               0.000000000               0.000000000               0.000000000              -0.000162829               0.005090899              -0.000018150              -0.000697421               0.001929423               0.001232002               0.000000000               0.000000000               0.000000000               0.000000000              -0.000061525               0.004974652              -0.000009871              -0.000644902               0.001873168               0.001228266               0.000000000               0.000000000               0.000000000               0.000000000              -0.000013998               0.004916884              -0.000002069              -0.000619858               0.001845564               0.001225706               0.000000000               0.000000000               0.000000000               0.000000000              -0.000006497               0.004898387              -0.000000764              -0.000614733               0.001837691               0.001222957               0.000000000               0.000000000               0.000000000               0.000000000              -0.000939973               0.006444203               0.002100661              -0.001158014               0.002534050               0.001376036               0.000000000               0.000000000               0.000000000               0.000000000              -0.002714166               0.007884325               0.001642207              -0.002003348               0.003295864               0.001292516               0.000000000               0.000000000               0.000000000               0.000000000              -0.004089484               0.009327888               0.001114645              -0.002699536               0.004009110               0.001309574               0.000000000               0.000000000               0.000000000               0.000000000              -0.003989542               0.009265458               0.000818748              -0.002654254               0.003973206               0.001318953               0.000000000               0.000000000               0.000000000               0.000000000              -0.003503495               0.008806491               0.000638687              -0.002414616               0.003740340               0.001325724               0.000000000               0.000000000               0.000000000               0.000000000              -0.002920334               0.008249260               0.000516513              -0.002126277               0.003458485               0.001332207               0.000000000               0.000000000               0.000000000               0.000000000              -0.002339826               0.007691734               0.000426324              -0.001838897               0.003176851               0.001337954               0.000000000               0.000000000               0.000000000               0.000000000              -0.001807075               0.007173990               0.000354638              -0.001574398               0.002916105               0.001341707               0.000000000               0.000000000               0.000000000               0.000000000              -0.001345175               0.006686134               0.000287856              -0.001340204               0.002675424               0.001335219               0.000000000               0.000000000               0.000000000               0.000000000              -0.000952055               0.006232066               0.000230202              -0.001136026               0.002456010               0.001319984               0.000000000               0.000000000               0.000000000               0.000000000              -0.000626252               0.005824437               0.000182388              -0.000962897               0.002262425               0.001299528               0.000000000               0.000000000               0.000000000               0.000000000              -0.000362749               0.005485849               0.000138220              -0.000821760               0.002102518               0.001280758               0.000000000               0.000000000               0.000000000               0.000000000              -0.000161589               0.005240669               0.000096822              -0.000715678               0.001985431               0.001269754               0.000000000               0.000000000               0.000000000               0.000000000              -0.000036813               0.005080214               0.000058598              -0.000648830               0.001909665               0.001260835               0.000000000               0.000000000               0.000000000               0.000000000               0.000021510               0.004991393               0.000023202              -0.000615856               0.001869066               0.001253210               0.000000000               0.000000000               0.000000000               0.000000000               0.000032622               0.004959521               0.000000598              -0.000607705               0.001855726               0.001248020               0.000000000               0.000000000               0.000000000               0.000000000               0.000023959               0.004952863              -0.000007028              -0.000610122               0.001854312               0.001244190               0.000000000               0.000000000               0.000000000               0.000000000              -0.002412687               0.004380313               0.001150343              -0.001452294               0.001944187               0.000491894               0.000000000               0.000000000               0.000000000               0.000000000              -0.003523533               0.006289711               0.001492966              -0.002107534               0.002799060               0.000691526               0.000000000               0.000000000               0.000000000               0.000000000              -0.004528482               0.008159063               0.001640980              -0.002718057               0.003625679               0.000907622               0.000000000               0.000000000               0.000000000               0.000000000              -0.004282649               0.008500085               0.001439585              -0.002668497               0.003722832               0.001054335               0.000000000               0.000000000               0.000000000               0.000000000              -0.003717756               0.008329571               0.001222781              -0.002435349               0.003588279               0.001152930               0.000000000               0.000000000               0.000000000               0.000000000              -0.003085738               0.007978645               0.001033206              -0.002154477               0.003377680               0.001223203               0.000000000               0.000000000               0.000000000               0.000000000              -0.002467322               0.007568945               0.000877901              -0.001871359               0.003146743               0.001275383               0.000000000               0.000000000               0.000000000               0.000000000              -0.001900645               0.007145730               0.000750250              -0.001605954               0.002917204               0.001311250               0.000000000               0.000000000               0.000000000               0.000000000              -0.001406718               0.006720590               0.000637177              -0.001367590               0.002696037               0.001328448               0.000000000               0.000000000               0.000000000               0.000000000              -0.000988081               0.006311904               0.000536700              -0.001159516               0.002490452               0.001330936               0.000000000               0.000000000               0.000000000               0.000000000              -0.000637101               0.005935940               0.000443419              -0.000980903               0.002305595               0.001324692               0.000000000               0.000000000               0.000000000               0.000000000              -0.000351770               0.005611514               0.000347280              -0.000833351               0.002148270               0.001314919               0.000000000               0.000000000               0.000000000               0.000000000              -0.000137880               0.005349319               0.000250463              -0.000720368               0.002023211               0.001302843               0.000000000               0.000000000               0.000000000               0.000000000              -0.000002832               0.005153070               0.000158584              -0.000645194               0.001932737               0.001287543               0.000000000               0.000000000               0.000000000               0.000000000               0.000065600               0.005041796               0.000077510              -0.000605623               0.001882456               0.001276833               0.000000000               0.000000000               0.000000000               0.000000000               0.000084692               0.004999623               0.000021915              -0.000593192               0.001864255               0.001271063               0.000000000               0.000000000               0.000000000               0.000000000               0.000076855               0.004984091               0.000000650              -0.000594189               0.001859410               0.001265221               0.000000000               0.000000000               0.000000000               0.000000000              -0.004271215               0.002512737               0.000232954              -0.001915794               0.001476167              -0.000439627               0.000000000               0.000000000               0.000000000               0.000000000              -0.004430074               0.004674461               0.001280295              -0.002245580               0.002306664               0.000061084               0.000000000               0.000000000               0.000000000               0.000000000              -0.004879239               0.006770514               0.002062349              -0.002676023               0.003148822               0.000472800               0.000000000               0.000000000               0.000000000               0.000000000              -0.004506096               0.007499861               0.002022607              -0.002627262               0.003375682               0.000748420               0.000000000               0.000000000               0.000000000               0.000000000              -0.003903839               0.007657692               0.001810700              -0.002421145               0.003359587               0.000938441               0.000000000               0.000000000               0.000000000               0.000000000              -0.003253676               0.007557684               0.001581073              -0.002164834               0.003240814               0.001075980               0.000000000               0.000000000               0.000000000               0.000000000              -0.002620436               0.007335266               0.001373735              -0.001899567               0.003078253               0.001178686               0.000000000               0.000000000               0.000000000               0.000000000              -0.002034923               0.007045138               0.001196390              -0.001643734               0.002896267               0.001252533               0.000000000               0.000000000               0.000000000               0.000000000              -0.001506428               0.006723166               0.001041318              -0.001405303               0.002709467               0.001304164               0.000000000               0.000000000               0.000000000               0.000000000              -0.001050867               0.006389356               0.000900774              -0.001192742               0.002527344               0.001334603               0.000000000               0.000000000               0.000000000               0.000000000              -0.000666480               0.006061262               0.000769624              -0.001007585               0.002356262               0.001348677               0.000000000               0.000000000               0.000000000               0.000000000              -0.000341272               0.005755695               0.000634186              -0.000847437               0.002201025               0.001353588               0.000000000               0.000000000               0.000000000               0.000000000              -0.000081602               0.005486408               0.000488903              -0.000716400               0.002067584               0.001351184               0.000000000               0.000000000               0.000000000               0.000000000               0.000101136               0.005265519               0.000341182              -0.000620262               0.001961909               0.001341647               0.000000000               0.000000000               0.000000000               0.000000000               0.000206958               0.005112015               0.000202111              -0.000561391               0.001891118               0.001329727               0.000000000               0.000000000               0.000000000               0.000000000               0.000235444               0.005026325               0.000085615              -0.000539998               0.001855424               0.001315426               0.000000000               0.000000000               0.000000000               0.000000000               0.000215853               0.004990387               0.000030929              -0.000542852               0.001844396               0.001301544               0.000000000               0.000000000               0.000000000               0.000000000              -0.006383582               0.001007332              -0.000563032              -0.002519757               0.001175688              -0.001344069               0.000000000               0.000000000               0.000000000               0.000000000              -0.005482212               0.003154456               0.000988430              -0.002450132               0.001868183              -0.000581949               0.000000000               0.000000000               0.000000000               0.000000000              -0.005165024               0.005185868               0.002265928              -0.002585112               0.002590308               0.000005196               0.000000000               0.000000000               0.000000000               0.000000000              -0.004578594               0.006181551               0.002426233              -0.002489661               0.002890383               0.000400721               0.000000000               0.000000000               0.000000000               0.000000000              -0.003919830               0.006642166               0.002273772              -0.002300202               0.002980767               0.000680564               0.000000000               0.000000000               0.000000000               0.000000000              -0.003260776               0.006805737               0.002045917              -0.002073504               0.002959724               0.000886220               0.000000000               0.000000000               0.000000000               0.000000000              -0.002633527               0.006796411               0.001815560              -0.001837120               0.002877821               0.001040701               0.000000000               0.000000000               0.000000000               0.000000000              -0.002045429               0.006686905               0.001612051              -0.001602896               0.002763244               0.001160349               0.000000000               0.000000000               0.000000000               0.000000000              -0.001501034               0.006508950               0.001429949              -0.001376504               0.002628463               0.001251959               0.000000000               0.000000000               0.000000000               0.000000000              -0.001013988               0.006283121               0.001260672              -0.001165633               0.002482897               0.001317264               0.000000000               0.000000000               0.000000000               0.000000000              -0.000593217               0.006034349               0.001103597              -0.000976748               0.002337012               0.001360264               0.000000000               0.000000000               0.000000000               0.000000000              -0.000229264               0.005787875               0.000942927              -0.000809457               0.002199091               0.001389634               0.000000000               0.000000000               0.000000000               0.000000000               0.000081261               0.005555970               0.000767702              -0.000664022               0.002073312               0.001409290               0.000000000               0.000000000               0.000000000               0.000000000               0.000327869               0.005348005               0.000582422              -0.000545549               0.001964500               0.001418951               0.000000000               0.000000000               0.000000000               0.000000000               0.000491932               0.005179720               0.000385696              -0.000462989               0.001880886               0.001417896               0.000000000               0.000000000               0.000000000               0.000000000               0.000552597               0.005065656               0.000186031              -0.000425982               0.001830529               0.001404547               0.000000000               0.000000000               0.000000000               0.000000000               0.000534316               0.005011625               0.000082409              -0.000426083               0.001812553               0.001386469               0.000000000               0.000000000               0.000000000               0.000000000              -0.008610278              -0.000065468              -0.001121700              -0.003220668               0.001051726              -0.002168942               0.000000000               0.000000000               0.000000000               0.000000000              -0.006613859               0.001807704               0.000668493              -0.002706156               0.001504609              -0.001201547               0.000000000               0.000000000               0.000000000               0.000000000              -0.005403728               0.003535711               0.002223302              -0.002468357               0.002001342              -0.000467016               0.000000000               0.000000000               0.000000000               0.000000000              -0.004514442               0.004656912               0.002556738              -0.002275025               0.002310629               0.000035604               0.000000000               0.000000000               0.000000000               0.000000000              -0.003767403               0.005354013               0.002491808              -0.002082023               0.002478660               0.000396637               0.000000000               0.000000000               0.000000000               0.000000000              -0.003100252               0.005758320               0.002299681              -0.001882381               0.002546880               0.000664499               0.000000000               0.000000000               0.000000000               0.000000000              -0.002483468               0.005974494               0.002081387              -0.001678109               0.002550847               0.000872738               0.000000000               0.000000000               0.000000000               0.000000000              -0.001905396               0.006067260               0.001880645              -0.001472928               0.002513375               0.001040447               0.000000000               0.000000000               0.000000000               0.000000000              -0.001365006               0.006053611               0.001696117              -0.001268576               0.002440708               0.001172132               0.000000000               0.000000000               0.000000000               0.000000000              -0.000861806               0.005960912               0.001519954              -0.001068289               0.002343047               0.001274758               0.000000000               0.000000000               0.000000000               0.000000000              -0.000402659               0.005825817               0.001354009              -0.000879223               0.002234994               0.001355771               0.000000000               0.000000000               0.000000000               0.000000000               0.000012073               0.005672742               0.001189147              -0.000704564               0.002125750               0.001421186               0.000000000               0.000000000               0.000000000               0.000000000               0.000391704               0.005522259               0.001010777              -0.000543393               0.002021865               0.001478473               0.000000000               0.000000000               0.000000000               0.000000000               0.000724875               0.005375067               0.000808322              -0.000400055               0.001925022               0.001524968               0.000000000               0.000000000               0.000000000               0.000000000               0.000982861               0.005230013               0.000568171              -0.000285178               0.001838380               0.001553201               0.000000000               0.000000000               0.000000000               0.000000000               0.001141997               0.005105965               0.000293383              -0.000209996               0.001771970               0.001561974               0.000000000               0.000000000               0.000000000               0.000000000               0.001188661               0.005046729               0.000148965              -0.000185093               0.001743924               0.001558831               0.000000000               0.000000000               0.000000000               0.000000000              -0.010744531              -0.000742105              -0.001339779              -0.003936433               0.001064768              -0.002871665               0.000000000               0.000000000               0.000000000               0.000000000              -0.007723721               0.000708397               0.000380882              -0.002984942               0.001231105              -0.001753838               0.000000000               0.000000000               0.000000000               0.000000000              -0.005611326               0.001987298               0.001931576              -0.002352656               0.001446641              -0.000906015               0.000000000               0.000000000               0.000000000               0.000000000              -0.004368175               0.003104887               0.002354646              -0.002026173               0.001710341              -0.000315832               0.000000000               0.000000000               0.000000000               0.000000000              -0.003498290               0.003954400               0.002367513              -0.001806155               0.001920171               0.000114015               0.000000000               0.000000000               0.000000000               0.000000000              -0.002804559               0.004554464               0.002231445              -0.001621015               0.002058477               0.000437462               0.000000000               0.000000000               0.000000000               0.000000000              -0.002191605               0.004970923               0.002053882              -0.001443214               0.002138029               0.000694814               0.000000000               0.000000000               0.000000000               0.000000000              -0.001630514               0.005247524               0.001878465              -0.001267381               0.002171617               0.000904236               0.000000000               0.000000000               0.000000000               0.000000000              -0.001105891               0.005397681               0.001713801              -0.001089418               0.002162348               0.001072930               0.000000000               0.000000000               0.000000000               0.000000000              -0.000601097               0.005452301               0.001555913              -0.000906947               0.002119731               0.001212784               0.000000000               0.000000000               0.000000000               0.000000000              -0.000109628               0.005451388               0.001406415              -0.000722533               0.002057955               0.001335422               0.000000000               0.000000000               0.000000000               0.000000000               0.000365395               0.005418068               0.001260608              -0.000540235               0.001986083               0.001445848               0.000000000               0.000000000               0.000000000               0.000000000               0.000823685               0.005369087               0.001104493              -0.000362254               0.001910429               0.001548175               0.000000000               0.000000000               0.000000000               0.000000000               0.001260521               0.005302389               0.000913739              -0.000190103               0.001830813               0.001640710               0.000000000               0.000000000               0.000000000               0.000000000               0.001659137               0.005213037               0.000669643              -0.000029454               0.001747480               0.001718026               0.000000000               0.000000000               0.000000000               0.000000000               0.001998964               0.005109381               0.000362936               0.000110937               0.001666131               0.001777068               0.000000000               0.000000000               0.000000000               0.000000000               0.002193487               0.005070639               0.000201418               0.000188726               0.001627288               0.001816013               0.000000000               0.000000000               0.000000000               0.000000000              -0.012535923              -0.001101534              -0.001175135              -0.004563276               0.001153906              -0.003409370               0.000000000               0.000000000               0.000000000               0.000000000              -0.008684101              -0.000090877               0.000173818              -0.003245176               0.001051426              -0.002193750               0.000000000               0.000000000               0.000000000               0.000000000              -0.005788920               0.000721760               0.001423270              -0.002261063               0.000994267              -0.001266796               0.000000000               0.000000000               0.000000000               0.000000000              -0.004204553               0.001753994               0.001813535              -0.001795954               0.001183307              -0.000612647               0.000000000               0.000000000               0.000000000               0.000000000              -0.003199108               0.002669517               0.001866912              -0.001533352               0.001400946              -0.000132406               0.000000000               0.000000000               0.000000000               0.000000000              -0.002460624               0.003402220               0.001788032              -0.001348009               0.001583397               0.000235389               0.000000000               0.000000000               0.000000000               0.000000000              -0.001847827               0.003970861               0.001662971              -0.001189290               0.001720036               0.000530746               0.000000000               0.000000000               0.000000000               0.000000000              -0.001300826               0.004390150               0.001531313              -0.001036577               0.001808894               0.000772317               0.000000000               0.000000000               0.000000000               0.000000000              -0.000793837               0.004683394               0.001406228              -0.000883111               0.001855486               0.000972374               0.000000000               0.000000000               0.000000000               0.000000000              -0.000295020               0.004880537               0.001288962              -0.000720698               0.001867062               0.001146364               0.000000000               0.000000000               0.000000000               0.000000000               0.000214284               0.005011626               0.001179505              -0.000546096               0.001852557               0.001306461               0.000000000               0.000000000               0.000000000               0.000000000               0.000738433               0.005105340               0.001071823              -0.000361255               0.001822181               0.001460926               0.000000000               0.000000000               0.000000000               0.000000000               0.001271017               0.005164115               0.000956488              -0.000168883               0.001777649               0.001608765               0.000000000               0.000000000               0.000000000               0.000000000               0.001811405               0.005178796               0.000812497               0.000031926               0.001715606               0.001747532               0.000000000               0.000000000               0.000000000               0.000000000               0.002368274               0.005151228               0.000614525               0.000244197               0.001635660               0.001879857               0.000000000               0.000000000               0.000000000               0.000000000               0.002937050               0.005085153               0.000344232               0.000465745               0.001539786               0.002005531               0.000000000               0.000000000               0.000000000               0.000000000               0.003334427               0.005084252               0.000204057               0.000614873               0.001489776               0.002104649               0.000000000               0.000000000               0.000000000               0.000000000              -0.013731284              -0.001254027              -0.000680988              -0.004992475               0.001246141              -0.003746334               0.000000000               0.000000000               0.000000000               0.000000000              -0.009342701              -0.000569316               0.000058431              -0.003432346               0.000954337              -0.002478009               0.000000000               0.000000000               0.000000000               0.000000000              -0.005912899              -0.000103922               0.000756039              -0.002204345               0.000700136              -0.001504209               0.000000000               0.000000000               0.000000000               0.000000000              -0.004076890               0.000826376               0.000990380              -0.001632129               0.000819495              -0.000812633               0.000000000               0.000000000               0.000000000               0.000000000              -0.002958920               0.001755091               0.001034340              -0.001328979               0.001028016              -0.000300963               0.000000000               0.000000000               0.000000000               0.000000000              -0.002184487               0.002557672               0.001000753              -0.001138889               0.001232178               0.000093289               0.000000000               0.000000000               0.000000000               0.000000000              -0.001573458               0.003216842               0.000936956              -0.000992150               0.001402986               0.000410836               0.000000000               0.000000000               0.000000000               0.000000000              -0.001039994               0.003731866               0.000864485              -0.000856479               0.001529436               0.000672956               0.000000000               0.000000000               0.000000000               0.000000000              -0.000541334               0.004127138               0.000794952              -0.000718891               0.001615329               0.000896438               0.000000000               0.000000000               0.000000000               0.000000000              -0.000047033               0.004430081               0.000733057              -0.000571396               0.001667144               0.001095748               0.000000000               0.000000000               0.000000000               0.000000000               0.000465599               0.004666922               0.000676907              -0.000408765               0.001691880               0.001283115               0.000000000               0.000000000               0.000000000               0.000000000               0.001010413               0.004857734               0.000620444              -0.000228312               0.001695332               0.001467021               0.000000000               0.000000000               0.000000000               0.000000000               0.001592121               0.004996419               0.000556775              -0.000027508               0.001674625               0.001647118               0.000000000               0.000000000               0.000000000               0.000000000               0.002216760               0.005075867               0.000479902               0.000196800               0.001626339               0.001823138               0.000000000               0.000000000               0.000000000               0.000000000               0.002904899               0.005099824               0.000373602               0.000451855               0.001549306               0.002001161               0.000000000               0.000000000               0.000000000               0.000000000               0.003679303               0.005066625               0.000214755               0.000746403               0.001440057               0.002186460               0.000000000               0.000000000               0.000000000               0.000000000               0.004269635               0.005099306               0.000131332               0.000963690               0.001378522               0.002342212               0.000000000               0.000000000               0.000000000               0.000000000              -0.014150747              -0.001292258               0.000000000              -0.005144995               0.001284237              -0.003860758               0.000000000               0.000000000               0.000000000               0.000000000              -0.009577526              -0.000726976               0.000000000              -0.003500698               0.000924568              -0.002576130               0.000000000               0.000000000               0.000000000               0.000000000              -0.005957790              -0.000390013               0.000000000              -0.002185418               0.000598464              -0.001586954               0.000000000               0.000000000               0.000000000               0.000000000              -0.004028618               0.000493737               0.000000000              -0.001572447               0.000688723              -0.000883724               0.000000000               0.000000000               0.000000000               0.000000000              -0.002865657               0.001422279               0.000000000              -0.001252404               0.000891555              -0.000360849               0.000000000               0.000000000               0.000000000               0.000000000              -0.002076970               0.002248089               0.000000000              -0.001059872               0.001102646               0.000042773               0.000000000               0.000000000               0.000000000               0.000000000              -0.001467359               0.002936271              -0.000000000              -0.000917291               0.001284511               0.000367220               0.000000000               0.000000000               0.000000000               0.000000000              -0.000943420               0.003484028              -0.000000000              -0.000789284               0.001424426               0.000635141               0.000000000               0.000000000               0.000000000               0.000000000              -0.000446202               0.003913363              -0.000000000              -0.000656495               0.001523273               0.000866778               0.000000000               0.000000000               0.000000000               0.000000000               0.000047284               0.004252897               0.000000000              -0.000513879               0.001588911               0.001075032               0.000000000               0.000000000               0.000000000               0.000000000               0.000559563               0.004536687               0.000000000              -0.000357249               0.001631297               0.001274048               0.000000000               0.000000000               0.000000000               0.000000000               0.001106367               0.004764842              -0.000000000              -0.000180717               0.001648504               0.001467787               0.000000000               0.000000000               0.000000000               0.000000000               0.001703006               0.004928507              -0.000000000               0.000022563               0.001635298               0.001657861               0.000000000               0.000000000               0.000000000               0.000000000               0.002365291               0.005038136              -0.000000000               0.000257215               0.001593624               0.001850838               0.000000000               0.000000000               0.000000000               0.000000000               0.003108717               0.005090114              -0.000000000               0.000529499               0.001520188               0.002049687               0.000000000               0.000000000               0.000000000               0.000000000               0.003964737               0.005067389              -0.000000000               0.000853344               0.001404665               0.002258009               0.000000000               0.000000000               0.000000000               0.000000000               0.004637031               0.005110097               0.000000000               0.001100114               0.001336644               0.002436758               0.000000000               0.000000000               0.000000000               0.000000000               0.002251045               0.023972054               0.000000000              -0.002152360               0.008708058               0.006555698               0.000000000               0.000000000               0.000000000               0.000000000               0.002157550               0.018429317               0.000000000              -0.001494580               0.006641237               0.005146658               0.000000000               0.000000000               0.000000000               0.000000000               0.002760738               0.013946860               0.000000000              -0.000708079               0.004884933               0.004176854               0.000000000               0.000000000               0.000000000               0.000000000               0.002527286               0.011431443               0.000000000              -0.000481197               0.003970842               0.003489645               0.000000000               0.000000000               0.000000000               0.000000000               0.002063509               0.009851283               0.000000000              -0.000457594               0.003436259               0.002978666               0.000000000               0.000000000               0.000000000               0.000000000               0.001580596               0.008742767              -0.000000000              -0.000500121               0.003080933               0.002580812               0.000000000               0.000000000               0.000000000               0.000000000               0.001148438               0.007883265              -0.000000000              -0.000554743               0.002812643               0.002257900               0.000000000               0.000000000               0.000000000               0.000000000               0.000790804               0.007152410               0.000000000              -0.000597498               0.002583279               0.001985780               0.000000000               0.000000000               0.000000000               0.000000000               0.000516658               0.006496823               0.000000000              -0.000618354               0.002371704               0.001753350               0.000000000               0.000000000               0.000000000               0.000000000               0.000309553               0.005877098              -0.000000000              -0.000618553               0.002165197               0.001546644               0.000000000               0.000000000               0.000000000               0.000000000               0.000150759               0.005266661              -0.000000000              -0.000601796               0.001956135               0.001354338               0.000000000               0.000000000               0.000000000               0.000000000               0.000028903               0.004651099               0.000000000              -0.000570548               0.001740533               0.001169986               0.000000000               0.000000000               0.000000000               0.000000000              -0.000055940               0.004020793               0.000000000              -0.000523575               0.001514776               0.000991201               0.000000000               0.000000000               0.000000000               0.000000000              -0.000099819               0.003358412               0.000000000              -0.000457233               0.001271870               0.000814638               0.000000000               0.000000000               0.000000000               0.000000000              -0.000107353               0.002634642              -0.000000000              -0.000369587               0.001001401               0.000631814               0.000000000               0.000000000               0.000000000               0.000000000              -0.000070865               0.001821747              -0.000000000              -0.000254292               0.000692007               0.000437715               0.000000000               0.000000000               0.000000000               0.000000000              -0.000106589               0.001196027              -0.000000000              -0.000189474               0.000461830               0.000272356               0.000000000               0.000000000               0.000000000               0.000000000               0.002311225               0.023456385              -0.001584472              -0.002065334               0.008507161               0.006441827               0.000000000               0.000000000               0.000000000               0.000000000               0.002090478               0.018106935              -0.000712259              -0.001479434               0.006528729               0.005049295               0.000000000               0.000000000               0.000000000               0.000000000               0.002554471               0.013818259               0.000148601              -0.000769354               0.004862492               0.004093138               0.000000000               0.000000000               0.000000000               0.000000000               0.002269187               0.011404027               0.000501438              -0.000574557               0.003992824               0.003418266               0.000000000               0.000000000               0.000000000               0.000000000               0.001799892               0.009873322               0.000636272              -0.000559205               0.003477476               0.002918271               0.000000000               0.000000000               0.000000000               0.000000000               0.001334157               0.008789629               0.000673603              -0.000598394               0.003129311               0.002530918               0.000000000               0.000000000               0.000000000               0.000000000               0.000928813               0.007939124               0.000666248              -0.000644084               0.002861043               0.002216959               0.000000000               0.000000000               0.000000000               0.000000000               0.000600582               0.007218450               0.000640727              -0.000677087               0.002631821               0.001954735               0.000000000               0.000000000               0.000000000               0.000000000               0.000349662               0.006565382               0.000609197              -0.000689548               0.002418288               0.001728740               0.000000000               0.000000000               0.000000000               0.000000000               0.000164770               0.005947027               0.000575562              -0.000681588               0.002209519               0.001527930               0.000000000               0.000000000               0.000000000               0.000000000               0.000029440               0.005345765               0.000541302              -0.000657179               0.002000964               0.001343784               0.000000000               0.000000000               0.000000000               0.000000000              -0.000069415               0.004746931               0.000505054              -0.000619396               0.001788760               0.001169364               0.000000000               0.000000000               0.000000000               0.000000000              -0.000133528               0.004136817               0.000460676              -0.000567174               0.001567983               0.001000809               0.000000000               0.000000000               0.000000000               0.000000000              -0.000153998               0.003503857               0.000398003              -0.000495730               0.001333184               0.000837454               0.000000000               0.000000000               0.000000000               0.000000000              -0.000134886               0.002832904               0.000308978              -0.000404695               0.001079190               0.000674496               0.000000000               0.000000000               0.000000000               0.000000000              -0.000080047               0.002102486               0.000177696              -0.000292828               0.000798431               0.000505603               0.000000000               0.000000000               0.000000000               0.000000000              -0.000100180               0.001557285               0.000108534              -0.000232228               0.000596499               0.000364271               0.000000000               0.000000000               0.000000000               0.000000000               0.002458267               0.021985939              -0.002932055              -0.001826389               0.007937369               0.006110980               0.000000000               0.000000000               0.000000000               0.000000000               0.001877521               0.017188698              -0.001316963              -0.001444514               0.006211013               0.004766499               0.000000000               0.000000000               0.000000000               0.000000000               0.001958833               0.013459908               0.000262008              -0.000947924               0.004802566               0.003854642               0.000000000               0.000000000               0.000000000               0.000000000               0.001551615               0.011325314               0.000886564              -0.000833807               0.004053002               0.003219196               0.000000000               0.000000000               0.000000000               0.000000000               0.001081923               0.009928246               0.001114722              -0.000835308               0.003587818               0.002752510               0.000000000               0.000000000               0.000000000               0.000000000               0.000666396               0.008905932               0.001167997              -0.000863341               0.003256395               0.002393053               0.000000000               0.000000000               0.000000000               0.000000000               0.000334150               0.008084801               0.001146275              -0.000885292               0.002990004               0.002104712               0.000000000               0.000000000               0.000000000               0.000000000               0.000086650               0.007377124               0.001092765              -0.000889645               0.002755565               0.001865920               0.000000000               0.000000000               0.000000000               0.000000000              -0.000087631               0.006730748               0.001027464              -0.000874203               0.002534961               0.001660758               0.000000000               0.000000000               0.000000000               0.000000000              -0.000203747               0.006124061               0.000963113              -0.000841911               0.002321970               0.001480059               0.000000000               0.000000000               0.000000000               0.000000000              -0.000279562               0.005546087               0.000899255              -0.000798095               0.002114709               0.001316614               0.000000000               0.000000000               0.000000000               0.000000000              -0.000320793               0.004985261               0.000827240              -0.000743454               0.001909555               0.001166101               0.000000000               0.000000000               0.000000000               0.000000000              -0.000325830               0.004431886               0.000737694              -0.000676171               0.001702671               0.001026500               0.000000000               0.000000000               0.000000000               0.000000000              -0.000290657               0.003881970               0.000623891              -0.000594241               0.001492057               0.000897816               0.000000000               0.000000000               0.000000000               0.000000000              -0.000218080               0.003336267               0.000472016              -0.000498812               0.001278348               0.000779536               0.000000000               0.000000000               0.000000000               0.000000000              -0.000118020               0.002796501               0.000262434              -0.000393819               0.001063431               0.000669611               0.000000000               0.000000000               0.000000000               0.000000000              -0.000099599               0.002428321               0.000154408              -0.000340889               0.000923062               0.000582173               0.000000000               0.000000000               0.000000000               0.000000000               0.002577302               0.019766158              -0.003862443              -0.001504280               0.007090080               0.005585800               0.000000000               0.000000000               0.000000000               0.000000000               0.001495238               0.015817114              -0.001737193              -0.001416422               0.005744459               0.004328037               0.000000000               0.000000000               0.000000000               0.000000000               0.001051015               0.012931826               0.000311378              -0.001222345               0.004718014               0.003495669               0.000000000               0.000000000               0.000000000               0.000000000               0.000505690               0.011189873               0.001076668              -0.001209098               0.004132953               0.002923855               0.000000000               0.000000000               0.000000000               0.000000000               0.000066006               0.009975954               0.001333868              -0.001222239               0.003732698               0.002510458               0.000000000               0.000000000               0.000000000               0.000000000              -0.000249816               0.009035642               0.001380312              -0.001223133               0.003419561               0.002196428               0.000000000               0.000000000               0.000000000               0.000000000              -0.000459510               0.008247686               0.001337633              -0.001203275               0.003150293               0.001947018               0.000000000               0.000000000               0.000000000               0.000000000              -0.000582717               0.007549380               0.001258550              -0.001162189               0.002903831               0.001741642               0.000000000               0.000000000               0.000000000               0.000000000              -0.000642639               0.006912379               0.001168626              -0.001105035               0.002672448               0.001567413               0.000000000               0.000000000               0.000000000               0.000000000              -0.000659184               0.006327577               0.001082106              -0.001038139               0.002455218               0.001417079               0.000000000               0.000000000               0.000000000               0.000000000              -0.000646697               0.005782779               0.000997344              -0.000965357               0.002249359               0.001284003               0.000000000               0.000000000               0.000000000               0.000000000              -0.000606935               0.005273756               0.000902318              -0.000886818               0.002053507               0.001166689               0.000000000               0.000000000               0.000000000               0.000000000              -0.000528217               0.004796348               0.000787023              -0.000797623               0.001864641               0.001067018               0.000000000               0.000000000               0.000000000               0.000000000              -0.000414474               0.004350907               0.000646493              -0.000699290               0.001683384               0.000984095               0.000000000               0.000000000               0.000000000               0.000000000              -0.000281459               0.003944733               0.000472443              -0.000598637               0.001514444               0.000915806               0.000000000               0.000000000               0.000000000               0.000000000              -0.000141437               0.003597818               0.000254771              -0.000502765               0.001366849               0.000864084               0.000000000               0.000000000               0.000000000               0.000000000              -0.000091825               0.003394026               0.000145010              -0.000458686               0.001284226               0.000825540               0.000000000               0.000000000               0.000000000               0.000000000               0.002513998               0.017062962              -0.004289348              -0.001190121               0.006084303               0.004894182               0.000000000               0.000000000               0.000000000               0.000000000               0.000920513               0.014180610              -0.001950193              -0.001427382               0.005202616               0.003775235               0.000000000               0.000000000               0.000000000               0.000000000              -0.000061263               0.012294970               0.000266681              -0.001559841               0.004618229               0.003058388               0.000000000               0.000000000               0.000000000               0.000000000              -0.000687956               0.010982757               0.001035762              -0.001630824               0.004204490               0.002573666               0.000000000               0.000000000               0.000000000               0.000000000              -0.001037507               0.009960450               0.001269600              -0.001634118               0.003864822               0.002230705               0.000000000               0.000000000               0.000000000               0.000000000              -0.001206044               0.009096690               0.001293733              -0.001589349               0.003561982               0.001972633               0.000000000               0.000000000               0.000000000               0.000000000              -0.001254766               0.008338193               0.001234698              -0.001512808               0.003283639               0.001770831               0.000000000               0.000000000               0.000000000               0.000000000              -0.001227682               0.007655299               0.001144701              -0.001417290               0.003024171               0.001606881               0.000000000               0.000000000               0.000000000               0.000000000              -0.001154312               0.007040507               0.001048803              -0.001312928               0.002784455               0.001471527               0.000000000               0.000000000               0.000000000               0.000000000              -0.001053644               0.006485389               0.000959958              -0.001205787               0.002563704               0.001357917               0.000000000               0.000000000               0.000000000               0.000000000              -0.000935066               0.005983446               0.000875332              -0.001098578               0.002360654               0.001262077               0.000000000               0.000000000               0.000000000               0.000000000              -0.000798331               0.005529526               0.000780419              -0.000990563               0.002173344               0.001182782               0.000000000               0.000000000               0.000000000               0.000000000              -0.000644204               0.005116951               0.000662282              -0.000881193               0.001999364               0.001118171               0.000000000               0.000000000               0.000000000               0.000000000              -0.000472275               0.004756653               0.000524871              -0.000771683               0.001842763               0.001071080               0.000000000               0.000000000               0.000000000               0.000000000              -0.000298461               0.004466470               0.000368017              -0.000670230               0.001712218               0.001041988               0.000000000               0.000000000               0.000000000               0.000000000              -0.000142349               0.004261761               0.000190772              -0.000586100               0.001615939               0.001029840               0.000000000               0.000000000               0.000000000               0.000000000              -0.000078756               0.004167475               0.000103597              -0.000550466               0.001572633               0.001022167               0.000000000               0.000000000               0.000000000               0.000000000               0.002146974               0.014157853              -0.004224968              -0.000964617               0.005040775               0.004076158               0.000000000               0.000000000               0.000000000               0.000000000               0.000163667               0.012457125              -0.001989514              -0.001495763               0.004650921               0.003155158               0.000000000               0.000000000               0.000000000               0.000000000              -0.001246242               0.011595425               0.000098648              -0.001916764               0.004504024               0.002587260               0.000000000               0.000000000               0.000000000               0.000000000              -0.001845517               0.010685620               0.000769756              -0.002027766               0.004237760               0.002209993               0.000000000               0.000000000               0.000000000               0.000000000              -0.002039133               0.009827605               0.000954916              -0.001993121               0.003940209               0.001947088               0.000000000               0.000000000               0.000000000               0.000000000              -0.002020050               0.009034023               0.000963032              -0.001886767               0.003640233               0.001753466               0.000000000               0.000000000               0.000000000               0.000000000              -0.001883795               0.008312287               0.000906544              -0.001745455               0.003352553               0.001607098               0.000000000               0.000000000               0.000000000               0.000000000              -0.001694609               0.007654529               0.000830813              -0.001592291               0.003082247               0.001489957               0.000000000               0.000000000               0.000000000               0.000000000              -0.001487884               0.007069047               0.000756299              -0.001441584               0.002836853               0.001395269               0.000000000               0.000000000               0.000000000               0.000000000              -0.001276698               0.006548930               0.000688018              -0.001297375               0.002615413               0.001318038               0.000000000               0.000000000               0.000000000               0.000000000              -0.001062292               0.006084834               0.000624665              -0.001158961               0.002414578               0.001255617               0.000000000               0.000000000               0.000000000               0.000000000              -0.000842894               0.005672069               0.000546724              -0.001025092               0.002232368               0.001207276               0.000000000               0.000000000               0.000000000               0.000000000              -0.000632234               0.005310046               0.000446090              -0.000900841               0.002070278               0.001169437               0.000000000               0.000000000               0.000000000               0.000000000              -0.000430751               0.005016550               0.000338378              -0.000788598               0.001935033               0.001146434               0.000000000               0.000000000               0.000000000               0.000000000              -0.000249049               0.004808276               0.000224916              -0.000694426               0.001834218               0.001139792               0.000000000               0.000000000               0.000000000               0.000000000              -0.000108873               0.004686544               0.000108263              -0.000626644               0.001771047               0.001144403               0.000000000               0.000000000               0.000000000               0.000000000              -0.000053352               0.004644880               0.000053866              -0.000600616               0.001748483               0.001147867               0.000000000               0.000000000               0.000000000               0.000000000               0.001402365               0.011301653              -0.003758593              -0.000886821               0.004062786               0.003175965               0.000000000               0.000000000               0.000000000               0.000000000              -0.000743835               0.010783829              -0.001915090              -0.001626914               0.004136878               0.002509964               0.000000000               0.000000000               0.000000000               0.000000000              -0.002376612               0.010863797              -0.000198949              -0.002249199               0.004370962               0.002121764               0.000000000               0.000000000               0.000000000               0.000000000              -0.002819560               0.010287949               0.000324389              -0.002343323               0.004210390               0.001867067               0.000000000               0.000000000               0.000000000               0.000000000              -0.002795311               0.009562686               0.000472390              -0.002243572               0.003935387               0.001691816               0.000000000               0.000000000               0.000000000               0.000000000              -0.002570705               0.008838673               0.000488845              -0.002068844               0.003635810               0.001566966               0.000000000               0.000000000               0.000000000               0.000000000              -0.002256876               0.008157040               0.000460220              -0.001865954               0.003340971               0.001475017               0.000000000               0.000000000               0.000000000               0.000000000              -0.001918827               0.007535761               0.000422746              -0.001661526               0.003065737               0.001404211               0.000000000               0.000000000               0.000000000               0.000000000              -0.001592618               0.006986266               0.000390559              -0.001470511               0.002818903               0.001348391               0.000000000               0.000000000               0.000000000               0.000000000              -0.001289883               0.006497579               0.000359215              -0.001295900               0.002597805               0.001301905               0.000000000               0.000000000               0.000000000               0.000000000              -0.001010633               0.006058439               0.000327758              -0.001136290               0.002398223               0.001261933               0.000000000               0.000000000               0.000000000               0.000000000              -0.000746567               0.005673247               0.000281057              -0.000989116               0.002220769               0.001231653               0.000000000               0.000000000               0.000000000               0.000000000              -0.000508289               0.005352458               0.000214718              -0.000859663               0.002070689               0.001211026               0.000000000               0.000000000               0.000000000               0.000000000              -0.000309674               0.005110940               0.000150816              -0.000754993               0.001955294               0.001200301               0.000000000               0.000000000               0.000000000               0.000000000              -0.000158761               0.004951745               0.000090834              -0.000678502               0.001876732               0.001198231               0.000000000               0.000000000               0.000000000               0.000000000              -0.000059989               0.004865754               0.000035417              -0.000630713               0.001832140               0.001201426               0.000000000               0.000000000               0.000000000               0.000000000              -0.000026543               0.004836368               0.000013608              -0.000614498               0.001816939               0.001202441               0.000000000               0.000000000               0.000000000               0.000000000               0.000326323               0.008667608              -0.003008845              -0.000961080               0.003209533               0.002248453               0.000000000               0.000000000               0.000000000               0.000000000              -0.001743765               0.009254064              -0.001783161              -0.001810666               0.003688212               0.001877546               0.000000000               0.000000000               0.000000000               0.000000000              -0.003341300               0.010102366              -0.000613703              -0.002515777               0.004206014               0.001690237               0.000000000               0.000000000               0.000000000               0.000000000              -0.003518775               0.009778681              -0.000228758              -0.002541869               0.004106818               0.001564948               0.000000000               0.000000000               0.000000000               0.000000000              -0.003242979               0.009171194              -0.000081933              -0.002362511               0.003844537               0.001482027               0.000000000               0.000000000               0.000000000               0.000000000              -0.002817787               0.008517765              -0.000024957              -0.002121386               0.003546355               0.001424970               0.000000000               0.000000000               0.000000000               0.000000000              -0.002352267               0.007889997              -0.000001061              -0.001868345               0.003252754               0.001384409               0.000000000               0.000000000               0.000000000               0.000000000              -0.001901963               0.007318529               0.000016348              -0.001628048               0.002982168               0.001354120               0.000000000               0.000000000               0.000000000               0.000000000              -0.001493237               0.006805085               0.000035228              -0.001410596               0.002738538               0.001327942               0.000000000               0.000000000               0.000000000               0.000000000              -0.001133566               0.006337134               0.000048621              -0.001217226               0.002518099               0.001300873               0.000000000               0.000000000               0.000000000               0.000000000              -0.000825145               0.005917717               0.000054836              -0.001049141               0.002322266               0.001273125               0.000000000               0.000000000               0.000000000               0.000000000              -0.000555135               0.005557291               0.000048623              -0.000902835               0.002153357               0.001250522               0.000000000               0.000000000               0.000000000               0.000000000              -0.000326936               0.005280551               0.000031016              -0.000782668               0.002021056               0.001238388               0.000000000               0.000000000               0.000000000               0.000000000              -0.000162829               0.005090899               0.000018150              -0.000697421               0.001929423               0.001232002               0.000000000               0.000000000               0.000000000               0.000000000              -0.000061525               0.004974652               0.000009871              -0.000644902               0.001873168               0.001228266               0.000000000               0.000000000               0.000000000               0.000000000              -0.000013998               0.004916884               0.000002069              -0.000619858               0.001845564               0.001225706               0.000000000               0.000000000               0.000000000               0.000000000              -0.000006497               0.004898387               0.000000764              -0.000614733               0.001837691               0.001222957               0.000000000               0.000000000               0.000000000               0.000000000              -0.000939973               0.006444203              -0.002100661              -0.001158014               0.002534050               0.001376036               0.000000000               0.000000000               0.000000000               0.000000000              -0.002714166               0.007884325              -0.001642207              -0.002003348               0.003295864               0.001292516               0.000000000               0.000000000               0.000000000               0.000000000              -0.004089484               0.009327888              -0.001114645              -0.002699536               0.004009110               0.001309574               0.000000000               0.000000000               0.000000000               0.000000000              -0.003989542               0.009265458              -0.000818748              -0.002654254               0.003973206               0.001318953               0.000000000               0.000000000               0.000000000               0.000000000              -0.003503495               0.008806491              -0.000638687              -0.002414616               0.003740340               0.001325724               0.000000000               0.000000000               0.000000000               0.000000000              -0.002920334               0.008249260              -0.000516513              -0.002126277               0.003458485               0.001332207               0.000000000               0.000000000               0.000000000               0.000000000              -0.002339826               0.007691734              -0.000426324              -0.001838897               0.003176851               0.001337954               0.000000000               0.000000000               0.000000000               0.000000000              -0.001807075               0.007173990              -0.000354638              -0.001574398               0.002916105               0.001341707               0.000000000               0.000000000               0.000000000               0.000000000              -0.001345175               0.006686134              -0.000287856              -0.001340204               0.002675424               0.001335219               0.000000000               0.000000000               0.000000000               0.000000000              -0.000952055               0.006232066              -0.000230202              -0.001136026               0.002456010               0.001319984               0.000000000               0.000000000               0.000000000               0.000000000              -0.000626252               0.005824437              -0.000182388              -0.000962897               0.002262425               0.001299528               0.000000000               0.000000000               0.000000000               0.000000000              -0.000362749               0.005485849              -0.000138220              -0.000821760               0.002102518               0.001280758               0.000000000               0.000000000               0.000000000               0.000000000              -0.000161589               0.005240669              -0.000096822              -0.000715678               0.001985431               0.001269754               0.000000000               0.000000000               0.000000000               0.000000000              -0.000036813               0.005080214              -0.000058598              -0.000648830               0.001909665               0.001260835               0.000000000               0.000000000               0.000000000               0.000000000               0.000021510               0.004991393              -0.000023202              -0.000615856               0.001869066               0.001253210               0.000000000               0.000000000               0.000000000               0.000000000               0.000032622               0.004959521              -0.000000598              -0.000607705               0.001855726               0.001248020               0.000000000               0.000000000               0.000000000               0.000000000               0.000023959               0.004952863               0.000007028              -0.000610122               0.001854312               0.001244190               0.000000000               0.000000000               0.000000000               0.000000000              -0.002412687               0.004380313              -0.001150343              -0.001452294               0.001944187               0.000491894               0.000000000               0.000000000               0.000000000               0.000000000              -0.003523533               0.006289711              -0.001492966              -0.002107534               0.002799060               0.000691526               0.000000000               0.000000000               0.000000000               0.000000000              -0.004528482               0.008159063              -0.001640980              -0.002718057               0.003625679               0.000907622               0.000000000               0.000000000               0.000000000               0.000000000              -0.004282649               0.008500085              -0.001439585              -0.002668497               0.003722832               0.001054335               0.000000000               0.000000000               0.000000000               0.000000000              -0.003717756               0.008329571              -0.001222781              -0.002435349               0.003588279               0.001152930               0.000000000               0.000000000               0.000000000               0.000000000              -0.003085738               0.007978645              -0.001033206              -0.002154477               0.003377680               0.001223203               0.000000000               0.000000000               0.000000000               0.000000000              -0.002467322               0.007568945              -0.000877901              -0.001871359               0.003146743               0.001275383               0.000000000               0.000000000               0.000000000               0.000000000              -0.001900645               0.007145730              -0.000750250              -0.001605954               0.002917204               0.001311250               0.000000000               0.000000000               0.000000000               0.000000000              -0.001406718               0.006720590              -0.000637177              -0.001367590               0.002696037               0.001328448               0.000000000               0.000000000               0.000000000               0.000000000              -0.000988081               0.006311904              -0.000536700              -0.001159516               0.002490452               0.001330936               0.000000000               0.000000000               0.000000000               0.000000000              -0.000637101               0.005935940              -0.000443419              -0.000980903               0.002305595               0.001324692               0.000000000               0.000000000               0.000000000               0.000000000              -0.000351770               0.005611514              -0.000347280              -0.000833351               0.002148270               0.001314919               0.000000000               0.000000000               0.000000000               0.000000000              -0.000137880               0.005349319              -0.000250463              -0.000720368               0.002023211               0.001302843               0.000000000               0.000000000               0.000000000               0.000000000              -0.000002832               0.005153070              -0.000158584              -0.000645194               0.001932737               0.001287543               0.000000000               0.000000000               0.000000000               0.000000000               0.000065600               0.005041796              -0.000077510              -0.000605623               0.001882456               0.001276833               0.000000000               0.000000000               0.000000000               0.000000000               0.000084692               0.004999623              -0.000021915              -0.000593192               0.001864255               0.001271063               0.000000000               0.000000000               0.000000000               0.000000000               0.000076855               0.004984091              -0.000000650              -0.000594189               0.001859410               0.001265221               0.000000000               0.000000000               0.000000000               0.000000000              -0.004271215               0.002512737              -0.000232954              -0.001915794               0.001476167              -0.000439627               0.000000000               0.000000000               0.000000000               0.000000000              -0.004430074               0.004674461              -0.001280295              -0.002245580               0.002306664               0.000061084               0.000000000               0.000000000               0.000000000               0.000000000              -0.004879239               0.006770514              -0.002062349              -0.002676023               0.003148822               0.000472800               0.000000000               0.000000000               0.000000000               0.000000000              -0.004506096               0.007499861              -0.002022607              -0.002627262               0.003375682               0.000748420               0.000000000               0.000000000               0.000000000               0.000000000              -0.003903839               0.007657692              -0.001810700              -0.002421145               0.003359587               0.000938441               0.000000000               0.000000000               0.000000000               0.000000000              -0.003253676               0.007557684              -0.001581073              -0.002164834               0.003240814               0.001075980               0.000000000               0.000000000               0.000000000               0.000000000              -0.002620436               0.007335266              -0.001373735              -0.001899567               0.003078253               0.001178686               0.000000000               0.000000000               0.000000000               0.000000000              -0.002034923               0.007045138              -0.001196390              -0.001643734               0.002896267               0.001252533               0.000000000               0.000000000               0.000000000               0.000000000              -0.001506428               0.006723166              -0.001041318              -0.001405303               0.002709467               0.001304164               0.000000000               0.000000000               0.000000000               0.000000000              -0.001050867               0.006389356              -0.000900774              -0.001192742               0.002527344               0.001334603               0.000000000               0.000000000               0.000000000               0.000000000              -0.000666480               0.006061262              -0.000769624              -0.001007585               0.002356262               0.001348677               0.000000000               0.000000000               0.000000000               0.000000000              -0.000341272               0.005755695              -0.000634186              -0.000847437               0.002201025               0.001353588               0.000000000               0.000000000               0.000000000               0.000000000              -0.000081602               0.005486408              -0.000488903              -0.000716400               0.002067584               0.001351184               0.000000000               0.000000000               0.000000000               0.000000000               0.000101136               0.005265519              -0.000341182              -0.000620262               0.001961909               0.001341647               0.000000000               0.000000000               0.000000000               0.000000000               0.000206958               0.005112015              -0.000202111              -0.000561391               0.001891118               0.001329727               0.000000000               0.000000000               0.000000000               0.000000000               0.000235444               0.005026325              -0.000085615              -0.000539998               0.001855424               0.001315426               0.000000000               0.000000000               0.000000000               0.000000000               0.000215853               0.004990387              -0.000030929              -0.000542852               0.001844396               0.001301544               0.000000000               0.000000000               0.000000000               0.000000000              -0.006383582               0.001007332               0.000563032              -0.002519757               0.001175688              -0.001344069               0.000000000               0.000000000               0.000000000               0.000000000              -0.005482212               0.003154456              -0.000988430              -0.002450132               0.001868183              -0.000581949               0.000000000               0.000000000               0.000000000               0.000000000              -0.005165024               0.005185868              -0.002265928              -0.002585112               0.002590308               0.000005196               0.000000000               0.000000000               0.000000000               0.000000000              -0.004578594               0.006181551              -0.002426233              -0.002489661               0.002890383               0.000400721               0.000000000               0.000000000               0.000000000               0.000000000              -0.003919830               0.006642166              -0.002273772              -0.002300202               0.002980767               0.000680564               0.000000000               0.000000000               0.000000000               0.000000000              -0.003260776               0.006805737              -0.002045917              -0.002073504               0.002959724               0.000886220               0.000000000               0.000000000               0.000000000               0.000000000              -0.002633527               0.006796411              -0.001815560              -0.001837120               0.002877821               0.001040701               0.000000000               0.000000000               0.000000000               0.000000000              -0.002045429               0.006686905              -0.001612051              -0.001602896               0.002763244               0.001160349               0.000000000               0.000000000               0.000000000               0.000000000              -0.001501034               0.006508950              -0.001429949              -0.001376504               0.002628463               0.001251959               0.000000000               0.000000000               0.000000000               0.000000000              -0.001013988               0.006283121              -0.001260672              -0.001165633               0.002482897               0.001317264               0.000000000               0.000000000               0.000000000               0.000000000              -0.000593217               0.006034349              -0.001103597              -0.000976748               0.002337012               0.001360264               0.000000000               0.000000000               0.000000000               0.000000000              -0.000229264               0.005787875              -0.000942927              -0.000809457               0.002199091               0.001389634               0.000000000               0.000000000               0.000000000               0.000000000               0.000081261               0.005555970              -0.000767702              -0.000664022               0.002073312               0.001409290               0.000000000               0.000000000               0.000000000               0.000000000               0.000327869               0.005348005              -0.000582422              -0.000545549               0.001964500               0.001418951               0.000000000               0.000000000               0.000000000               0.000000000               0.000491932               0.005179720              -0.000385696              -0.000462989               0.001880886               0.001417896               0.000000000               0.000000000               0.000000000               0.000000000               0.000552597               0.005065656              -0.000186031              -0.000425982               0.001830529               0.001404547               0.000000000               0.000000000               0.000000000               0.000000000               0.000534316               0.005011625              -0.000082409              -0.000426083               0.001812553               0.001386469               0.000000000               0.000000000               0.000000000               0.000000000              -0.008610278              -0.000065468               0.001121700              -0.003220668               0.001051726              -0.002168942               0.000000000               0.000000000               0.000000000               0.000000000              -0.006613859               0.001807704              -0.000668493              -0.002706156               0.001504609              -0.001201547               0.000000000               0.000000000               0.000000000               0.000000000              -0.005403728               0.003535711              -0.002223302              -0.002468357               0.002001342              -0.000467016               0.000000000               0.000000000               0.000000000               0.000000000              -0.004514442               0.004656912              -0.002556738              -0.002275025               0.002310629               0.000035604               0.000000000               0.000000000               0.000000000               0.000000000              -0.003767403               0.005354013              -0.002491808              -0.002082023               0.002478660               0.000396637               0.000000000               0.000000000               0.000000000               0.000000000              -0.003100252               0.005758320              -0.002299681              -0.001882381               0.002546880               0.000664499               0.000000000               0.000000000               0.000000000               0.000000000              -0.002483468               0.005974494              -0.002081387              -0.001678109               0.002550847               0.000872738               0.000000000               0.000000000               0.000000000               0.000000000              -0.001905396               0.006067260              -0.001880645              -0.001472928               0.002513375               0.001040447               0.000000000               0.000000000               0.000000000               0.000000000              -0.001365006               0.006053611              -0.001696117              -0.001268576               0.002440708               0.001172132               0.000000000               0.000000000               0.000000000               0.000000000              -0.000861806               0.005960912              -0.001519954              -0.001068289               0.002343047               0.001274758               0.000000000               0.000000000               0.000000000               0.000000000              -0.000402659               0.005825817              -0.001354009              -0.000879223               0.002234994               0.001355771               0.000000000               0.000000000               0.000000000               0.000000000               0.000012073               0.005672742              -0.001189147              -0.000704564               0.002125750               0.001421186               0.000000000               0.000000000               0.000000000               0.000000000               0.000391704               0.005522259              -0.001010777              -0.000543393               0.002021865               0.001478473               0.000000000               0.000000000               0.000000000               0.000000000               0.000724875               0.005375067              -0.000808322              -0.000400055               0.001925022               0.001524968               0.000000000               0.000000000               0.000000000               0.000000000               0.000982861               0.005230013              -0.000568171              -0.000285178               0.001838380               0.001553201               0.000000000               0.000000000               0.000000000               0.000000000               0.001141997               0.005105965              -0.000293383              -0.000209996               0.001771970               0.001561974               0.000000000               0.000000000               0.000000000               0.000000000               0.001188661               0.005046729              -0.000148965              -0.000185093               0.001743924               0.001558831               0.000000000               0.000000000               0.000000000               0.000000000              -0.010744531              -0.000742105               0.001339779              -0.003936433               0.001064768              -0.002871665               0.000000000               0.000000000               0.000000000               0.000000000              -0.007723721               0.000708397              -0.000380882              -0.002984942               0.001231105              -0.001753838               0.000000000               0.000000000               0.000000000               0.000000000              -0.005611326               0.001987298              -0.001931576              -0.002352656               0.001446641              -0.000906015               0.000000000               0.000000000               0.000000000               0.000000000              -0.004368175               0.003104887              -0.002354646              -0.002026173               0.001710341              -0.000315832               0.000000000               0.000000000               0.000000000               0.000000000              -0.003498290               0.003954400              -0.002367513              -0.001806155               0.001920171               0.000114015               0.000000000               0.000000000               0.000000000               0.000000000              -0.002804559               0.004554464              -0.002231445              -0.001621015               0.002058477               0.000437462               0.000000000               0.000000000               0.000000000               0.000000000              -0.002191605               0.004970923              -0.002053882              -0.001443214               0.002138029               0.000694814               0.000000000               0.000000000               0.000000000               0.000000000              -0.001630514               0.005247524              -0.001878465              -0.001267381               0.002171617               0.000904236               0.000000000               0.000000000               0.000000000               0.000000000              -0.001105891               0.005397681              -0.001713801              -0.001089418               0.002162348               0.001072930               0.000000000               0.000000000               0.000000000               0.000000000              -0.000601097               0.005452301              -0.001555913              -0.000906947               0.002119731               0.001212784               0.000000000               0.000000000               0.000000000               0.000000000              -0.000109628               0.005451388              -0.001406415              -0.000722533               0.002057955               0.001335422               0.000000000               0.000000000               0.000000000               0.000000000               0.000365395               0.005418068              -0.001260608              -0.000540235               0.001986083               0.001445848               0.000000000               0.000000000               0.000000000               0.000000000               0.000823685               0.005369087              -0.001104493              -0.000362254               0.001910429               0.001548175               0.000000000               0.000000000               0.000000000               0.000000000               0.001260521               0.005302389              -0.000913739              -0.000190103               0.001830813               0.001640710               0.000000000               0.000000000               0.000000000               0.000000000               0.001659137               0.005213037              -0.000669643              -0.000029454               0.001747480               0.001718026               0.000000000               0.000000000               0.000000000               0.000000000               0.001998964               0.005109381              -0.000362936               0.000110937               0.001666131               0.001777068               0.000000000               0.000000000               0.000000000               0.000000000               0.002193487               0.005070639              -0.000201418               0.000188726               0.001627288               0.001816013               0.000000000               0.000000000               0.000000000               0.000000000              -0.012535923              -0.001101534               0.001175135              -0.004563276               0.001153906              -0.003409370               0.000000000               0.000000000               0.000000000               0.000000000              -0.008684101              -0.000090877              -0.000173818              -0.003245176               0.001051426              -0.002193750               0.000000000               0.000000000               0.000000000               0.000000000              -0.005788920               0.000721760              -0.001423270              -0.002261063               0.000994267              -0.001266796               0.000000000               0.000000000               0.000000000               0.000000000              -0.004204553               0.001753994              -0.001813535              -0.001795954               0.001183307              -0.000612647               0.000000000               0.000000000               0.000000000               0.000000000              -0.003199108               0.002669517              -0.001866912              -0.001533352               0.001400946              -0.000132406               0.000000000               0.000000000               0.000000000               0.000000000              -0.002460624               0.003402220              -0.001788032              -0.001348009               0.001583397               0.000235389               0.000000000               0.000000000               0.000000000               0.000000000              -0.001847827               0.003970861              -0.001662971              -0.001189290               0.001720036               0.000530746               0.000000000               0.000000000               0.000000000               0.000000000              -0.001300826               0.004390150              -0.001531313              -0.001036577               0.001808894               0.000772317               0.000000000               0.000000000               0.000000000               0.000000000              -0.000793837               0.004683394              -0.001406228              -0.000883111               0.001855486               0.000972374               0.000000000               0.000000000               0.000000000               0.000000000              -0.000295020               0.004880537              -0.001288962              -0.000720698               0.001867062               0.001146364               0.000000000               0.000000000               0.000000000               0.000000000               0.000214284               0.005011626              -0.001179505              -0.000546096               0.001852557               0.001306461               0.000000000               0.000000000               0.000000000               0.000000000               0.000738433               0.005105340              -0.001071823              -0.000361255               0.001822181               0.001460926               0.000000000               0.000000000               0.000000000               0.000000000               0.001271017               0.005164115              -0.000956488              -0.000168883               0.001777649               0.001608765               0.000000000               0.000000000               0.000000000               0.000000000               0.001811405               0.005178796              -0.000812497               0.000031926               0.001715606               0.001747532               0.000000000               0.000000000               0.000000000               0.000000000               0.002368274               0.005151228              -0.000614525               0.000244197               0.001635660               0.001879857               0.000000000               0.000000000               0.000000000               0.000000000               0.002937050               0.005085153              -0.000344232               0.000465745               0.001539786               0.002005531               0.000000000               0.000000000               0.000000000               0.000000000               0.003334427               0.005084252              -0.000204057               0.000614873               0.001489776               0.002104649               0.000000000               0.000000000               0.000000000               0.000000000              -0.013731284              -0.001254027               0.000680988              -0.004992475               0.001246141              -0.003746334               0.000000000               0.000000000               0.000000000               0.000000000              -0.009342701              -0.000569316              -0.000058431              -0.003432346               0.000954337              -0.002478009               0.000000000               0.000000000               0.000000000               0.000000000              -0.005912899              -0.000103922              -0.000756039              -0.002204345               0.000700136              -0.001504209               0.000000000               0.000000000               0.000000000               0.000000000              -0.004076890               0.000826376              -0.000990380              -0.001632129               0.000819495              -0.000812633               0.000000000               0.000000000               0.000000000               0.000000000              -0.002958920               0.001755091              -0.001034340              -0.001328979               0.001028016              -0.000300963               0.000000000               0.000000000               0.000000000               0.000000000              -0.002184487               0.002557672              -0.001000753              -0.001138889               0.001232178               0.000093289               0.000000000               0.000000000               0.000000000               0.000000000              -0.001573458               0.003216842              -0.000936956              -0.000992150               0.001402986               0.000410836               0.000000000               0.000000000               0.000000000               0.000000000              -0.001039994               0.003731866              -0.000864485              -0.000856479               0.001529436               0.000672956               0.000000000               0.000000000               0.000000000               0.000000000              -0.000541334               0.004127138              -0.000794952              -0.000718891               0.001615329               0.000896438               0.000000000               0.000000000               0.000000000               0.000000000              -0.000047033               0.004430081              -0.000733057              -0.000571396               0.001667144               0.001095748               0.000000000               0.000000000               0.000000000               0.000000000               0.000465599               0.004666922              -0.000676907              -0.000408765               0.001691880               0.001283115               0.000000000               0.000000000               0.000000000               0.000000000               0.001010413               0.004857734              -0.000620444              -0.000228312               0.001695332               0.001467021               0.000000000               0.000000000               0.000000000               0.000000000               0.001592121               0.004996419              -0.000556775              -0.000027508               0.001674625               0.001647118               0.000000000               0.000000000               0.000000000               0.000000000               0.002216760               0.005075867              -0.000479902               0.000196800               0.001626339               0.001823138               0.000000000               0.000000000               0.000000000               0.000000000               0.002904899               0.005099824              -0.000373602               0.000451855               0.001549306               0.002001161               0.000000000               0.000000000               0.000000000               0.000000000               0.003679303               0.005066625              -0.000214755               0.000746403               0.001440057               0.002186460               0.000000000               0.000000000               0.000000000               0.000000000               0.004269635               0.005099306              -0.000131332               0.000963690               0.001378522               0.002342212               0.000000000               0.000000000               0.000000000               0.000000000               0.000000000               0.000000000               0.000000000               0.000000000               0.000000000               0.000000000               0.000000000               0.000000000               0.000000000               0.000000000               0.000000000               0.000000000               0.000000000               0.000000000               0.000000000               0.000000000               0.000000000               0.000000000               0.000000000               0.000000000               0.000000000               0.000000000               0.000000000               0.000000000               0.000000000               0.000000000               0.000000000               0.000000000               0.000000000               0.000000000               0.000000000               0.000000000               0.000000000               0.000000000               0.000000000               0.000000000               0.000000000               0.000000000               0.000000000               0.000000000               0.000000000               0.000000000               0.000000000               0.000000000               0.000000000               0.000000000               0.000000000               0.000000000               0.000000000               0.000000000               0.000000000               0.000000000               0.000000000               0.000000000               0.000000000               0.000000000               0.000000000               0.000000000               0.000000000               0.000000000               0.000000000               0.000000000               0.000000000               0.000000000               0.000000000               0.000000000               0.000000000               0.000000000               0.000000000               0.000000000               0.000000000               0.000000000               0.000000000               0.000000000               0.000000000               0.000000000               0.000000000               0.000000000               0.000000000               0.000000000               0.000000000               0.000000000               0.000000000               0.000000000               0.000000000               0.000000000               0.000000000               0.000000000               0.000000000               0.000000000               0.000000000               0.000000000               0.000000000               0.000000000               0.000000000               0.000000000               0.000000000               0.000000000               0.000000000               0.000000000               0.000000000               0.000000000               0.000000000               0.000000000               0.000000000               0.000000000               0.000000000               0.000000000               0.000000000               0.000000000               0.000000000               0.000000000               0.000000000               0.000000000               0.000000000               0.000000000               0.000000000               0.000000000               0.000000000               0.000000000               0.000000000               0.000000000               0.000000000               0.000000000               0.000000000               0.000000000               0.000000000               0.000000000               0.000000000               0.000000000               0.000000000               0.000000000               0.000000000               0.000000000               0.000000000               0.000000000               0.000000000               0.000000000               0.000000000               0.000000000               0.000000000               0.000000000               0.000000000               0.000000000               0.000000000               0.000000000               0.000000000               0.000000000               0.000000000               0.000000000               0.000000000               0.000000000               0.000000000               0.000000000               0.000000000               0.000000000               0.000000000               0.000000000               0.000000000               0.000000000               0.000000000               0.000000000               0.000000000               0.000000000               0.000000000               0.000000000               0.000000000               0.000000000               0.000000000               0.000000000               0.000000000               0.000000000               0.000000000               0.000000000               0.000000000               0.000000000               0.000000000               0.000000000               0.000000000               0.000000000               0.000000000               0.000000000               0.000000000               0.000000000               0.000000000               0.000000000               0.000000000               0.000000000               0.000000000               0.000000000               0.000000000               0.000000000               0.000000000               0.000000000               0.000000000               0.000000000               0.000000000               0.000000000               0.000000000               0.000000000               0.000000000               0.000000000               0.000000000               0.000000000               0.000000000               0.000000000               0.000000000               0.000000000               0.000000000               0.000000000               0.000000000               0.000000000               0.000000000               0.000000000               0.000000000               0.000000000               0.000000000               0.000000000               0.000000000               0.000000000               0.000000000               0.000000000               0.000000000               0.000000000               0.000000000               0.000000000               0.000000000               0.000000000               0.000000000               0.000000000               0.000000000               0.000000000               0.000000000               0.000000000               0.000000000               0.000000000               0.000000000               0.000000000               0.000000000               0.000000000               0.000000000               0.000000000               0.000000000               0.000000000               0.000000000               0.000000000               0.000000000               0.000000000               0.000000000               0.000000000               0.000000000               0.000000000               0.000000000               0.000000000               0.000000000               0.000000000               0.000000000               0.000000000               0.000000000               0.000000000               0.000000000               0.000000000               0.000000000               0.000000000               0.000000000               0.000000000               0.000000000               0.000000000               0.000000000               0.000000000               0.000000000               0.000000000               0.000000000               0.000000000               0.000000000               0.000000000               0.000000000               0.000000000               0.000000000               0.000000000               0.000000000               0.000000000               0.000000000               0.000000000               0.000000000               0.000000000               0.000000000               0.000000000               0.000000000               0.000000000               0.000000000               0.000000000               0.000000000               0.000000000               0.000000000               0.000000000               0.000000000               0.000000000               0.000000000               0.000000000               0.000000000               0.000000000               0.000000000               0.000000000               0.000000000               0.000000000               0.000000000               0.000000000               0.000000000               0.000000000               0.000000000               0.000000000               0.000000000               0.000000000               0.000000000               0.000000000               0.000000000               0.000000000               0.000000000               0.000000000               0.000000000               0.000000000               0.000000000               0.000000000               0.000000000               0.000000000               0.000000000               0.000000000               0.000000000               0.000000000               0.000000000               0.000000000               0.000000000               0.000000000               0.000000000               0.000000000               0.000000000               0.000000000               0.000000000               0.000000000               0.002311225               0.023456385               0.001584472              -0.002065334               0.008507161               0.006441827               0.000000000               0.000000000               0.000000000               0.000000000               0.002090478               0.018106935               0.000712259              -0.001479434               0.006528729               0.005049295               0.000000000               0.000000000               0.000000000               0.000000000               0.002554471               0.013818259              -0.000148601              -0.000769354               0.004862492               0.004093138               0.000000000               0.000000000               0.000000000               0.000000000               0.002269187               0.011404027              -0.000501438              -0.000574557               0.003992824               0.003418266               0.000000000               0.000000000               0.000000000               0.000000000               0.001799892               0.009873322              -0.000636272              -0.000559205               0.003477476               0.002918271               0.000000000               0.000000000               0.000000000               0.000000000               0.001334157               0.008789629              -0.000673603              -0.000598394               0.003129311               0.002530918               0.000000000               0.000000000               0.000000000               0.000000000               0.000928813               0.007939124              -0.000666248              -0.000644084               0.002861043               0.002216959               0.000000000               0.000000000               0.000000000               0.000000000               0.000600582               0.007218450              -0.000640727              -0.000677087               0.002631821               0.001954735               0.000000000               0.000000000               0.000000000               0.000000000               0.000349662               0.006565382              -0.000609197              -0.000689548               0.002418288               0.001728740               0.000000000               0.000000000               0.000000000               0.000000000               0.000164770               0.005947027              -0.000575562              -0.000681588               0.002209519               0.001527930               0.000000000               0.000000000               0.000000000               0.000000000               0.000029440               0.005345765              -0.000541302              -0.000657179               0.002000964               0.001343784               0.000000000               0.000000000               0.000000000               0.000000000              -0.000069415               0.004746931              -0.000505054              -0.000619396               0.001788760               0.001169364               0.000000000               0.000000000               0.000000000               0.000000000              -0.000133528               0.004136817              -0.000460676              -0.000567174               0.001567983               0.001000809               0.000000000               0.000000000               0.000000000               0.000000000              -0.000153998               0.003503857              -0.000398003              -0.000495730               0.001333184               0.000837454               0.000000000               0.000000000               0.000000000               0.000000000              -0.000134886               0.002832904              -0.000308978              -0.000404695               0.001079190               0.000674496               0.000000000               0.000000000               0.000000000               0.000000000              -0.000080047               0.002102486              -0.000177696              -0.000292828               0.000798431               0.000505603               0.000000000               0.000000000               0.000000000               0.000000000              -0.000100180               0.001557285              -0.000108534              -0.000232228               0.000596499               0.000364271               0.000000000               0.000000000               0.000000000               0.000000000               0.002458267               0.021985939               0.002932055              -0.001826389               0.007937369               0.006110980               0.000000000               0.000000000               0.000000000               0.000000000               0.001877521               0.017188698               0.001316963              -0.001444514               0.006211013               0.004766499               0.000000000               0.000000000               0.000000000               0.000000000               0.001958833               0.013459908              -0.000262008              -0.000947924               0.004802566               0.003854642               0.000000000               0.000000000               0.000000000               0.000000000               0.001551615               0.011325314              -0.000886564              -0.000833807               0.004053002               0.003219196               0.000000000               0.000000000               0.000000000               0.000000000               0.001081923               0.009928246              -0.001114722              -0.000835308               0.003587818               0.002752510               0.000000000               0.000000000               0.000000000               0.000000000               0.000666396               0.008905932              -0.001167997              -0.000863341               0.003256395               0.002393053               0.000000000               0.000000000               0.000000000               0.000000000               0.000334150               0.008084801              -0.001146275              -0.000885292               0.002990004               0.002104712               0.000000000               0.000000000               0.000000000               0.000000000               0.000086650               0.007377124              -0.001092765              -0.000889645               0.002755565               0.001865920               0.000000000               0.000000000               0.000000000               0.000000000              -0.000087631               0.006730748              -0.001027464              -0.000874203               0.002534961               0.001660758               0.000000000               0.000000000               0.000000000               0.000000000              -0.000203747               0.006124061              -0.000963113              -0.000841911               0.002321970               0.001480059               0.000000000               0.000000000               0.000000000               0.000000000              -0.000279562               0.005546087              -0.000899255              -0.000798095               0.002114709               0.001316614               0.000000000               0.000000000               0.000000000               0.000000000              -0.000320793               0.004985261              -0.000827240              -0.000743454               0.001909555               0.001166101               0.000000000               0.000000000               0.000000000               0.000000000              -0.000325830               0.004431886              -0.000737694              -0.000676171               0.001702671               0.001026500               0.000000000               0.000000000               0.000000000               0.000000000              -0.000290657               0.003881970              -0.000623891              -0.000594241               0.001492057               0.000897816               0.000000000               0.000000000               0.000000000               0.000000000              -0.000218080               0.003336267              -0.000472016              -0.000498812               0.001278348               0.000779536               0.000000000               0.000000000               0.000000000               0.000000000              -0.000118020               0.002796501              -0.000262434              -0.000393819               0.001063431               0.000669611               0.000000000               0.000000000               0.000000000               0.000000000              -0.000099599               0.002428321              -0.000154408              -0.000340889               0.000923062               0.000582173               0.000000000               0.000000000               0.000000000               0.000000000               0.002577302               0.019766158               0.003862443              -0.001504280               0.007090080               0.005585800               0.000000000               0.000000000               0.000000000               0.000000000               0.001495238               0.015817114               0.001737193              -0.001416422               0.005744459               0.004328037               0.000000000               0.000000000               0.000000000               0.000000000               0.001051015               0.012931826              -0.000311378              -0.001222345               0.004718014               0.003495669               0.000000000               0.000000000               0.000000000               0.000000000               0.000505690               0.011189873              -0.001076668              -0.001209098               0.004132953               0.002923855               0.000000000               0.000000000               0.000000000               0.000000000               0.000066006               0.009975954              -0.001333868              -0.001222239               0.003732698               0.002510458               0.000000000               0.000000000               0.000000000               0.000000000              -0.000249816               0.009035642              -0.001380312              -0.001223133               0.003419561               0.002196428               0.000000000               0.000000000               0.000000000               0.000000000              -0.000459510               0.008247686              -0.001337633              -0.001203275               0.003150293               0.001947018               0.000000000               0.000000000               0.000000000               0.000000000              -0.000582717               0.007549380              -0.001258550              -0.001162189               0.002903831               0.001741642               0.000000000               0.000000000               0.000000000               0.000000000              -0.000642639               0.006912379              -0.001168626              -0.001105035               0.002672448               0.001567413               0.000000000               0.000000000               0.000000000               0.000000000              -0.000659184               0.006327577              -0.001082106              -0.001038139               0.002455218               0.001417079               0.000000000               0.000000000               0.000000000               0.000000000              -0.000646697               0.005782779              -0.000997344              -0.000965357               0.002249359               0.001284003               0.000000000               0.000000000               0.000000000               0.000000000              -0.000606935               0.005273756              -0.000902318              -0.000886818               0.002053507               0.001166689               0.000000000               0.000000000               0.000000000               0.000000000              -0.000528217               0.004796348              -0.000787023              -0.000797623               0.001864641               0.001067018               0.000000000               0.000000000               0.000000000               0.000000000              -0.000414474               0.004350907              -0.000646493              -0.000699290               0.001683384               0.000984095               0.000000000               0.000000000               0.000000000               0.000000000              -0.000281459               0.003944733              -0.000472443              -0.000598637               0.001514444               0.000915806               0.000000000               0.000000000               0.000000000               0.000000000              -0.000141437               0.003597818              -0.000254771              -0.000502765               0.001366849               0.000864084               0.000000000               0.000000000               0.000000000               0.000000000              -0.000091825               0.003394026              -0.000145010              -0.000458686               0.001284226               0.000825540               0.000000000               0.000000000               0.000000000               0.000000000               0.002513998               0.017062962               0.004289348              -0.001190121               0.006084303               0.004894182               0.000000000               0.000000000               0.000000000               0.000000000               0.000920513               0.014180610               0.001950193              -0.001427382               0.005202616               0.003775235               0.000000000               0.000000000               0.000000000               0.000000000              -0.000061263               0.012294970              -0.000266681              -0.001559841               0.004618229               0.003058388               0.000000000               0.000000000               0.000000000               0.000000000              -0.000687956               0.010982757              -0.001035762              -0.001630824               0.004204490               0.002573666               0.000000000               0.000000000               0.000000000               0.000000000              -0.001037507               0.009960450              -0.001269600              -0.001634118               0.003864822               0.002230705               0.000000000               0.000000000               0.000000000               0.000000000              -0.001206044               0.009096690              -0.001293733              -0.001589349               0.003561982               0.001972633               0.000000000               0.000000000               0.000000000               0.000000000              -0.001254766               0.008338193              -0.001234698              -0.001512808               0.003283639               0.001770831               0.000000000               0.000000000               0.000000000               0.000000000              -0.001227682               0.007655299              -0.001144701              -0.001417290               0.003024171               0.001606881               0.000000000               0.000000000               0.000000000               0.000000000              -0.001154312               0.007040507              -0.001048803              -0.001312928               0.002784455               0.001471527               0.000000000               0.000000000               0.000000000               0.000000000              -0.001053644               0.006485389              -0.000959958              -0.001205787               0.002563704               0.001357917               0.000000000               0.000000000               0.000000000               0.000000000              -0.000935066               0.005983446              -0.000875332              -0.001098578               0.002360654               0.001262077               0.000000000               0.000000000               0.000000000               0.000000000              -0.000798331               0.005529526              -0.000780419              -0.000990563               0.002173344               0.001182782               0.000000000               0.000000000               0.000000000               0.000000000              -0.000644204               0.005116951              -0.000662282              -0.000881193               0.001999364               0.001118171               0.000000000               0.000000000               0.000000000               0.000000000              -0.000472275               0.004756653              -0.000524871              -0.000771683               0.001842763               0.001071080               0.000000000               0.000000000               0.000000000               0.000000000              -0.000298461               0.004466470              -0.000368017              -0.000670230               0.001712218               0.001041988               0.000000000               0.000000000               0.000000000               0.000000000              -0.000142349               0.004261761              -0.000190772              -0.000586100               0.001615939               0.001029840               0.000000000               0.000000000               0.000000000               0.000000000              -0.000078756               0.004167475              -0.000103597              -0.000550466               0.001572633               0.001022167               0.000000000               0.000000000               0.000000000               0.000000000               0.002146974               0.014157853               0.004224968              -0.000964617               0.005040775               0.004076158               0.000000000               0.000000000               0.000000000               0.000000000               0.000163667               0.012457125               0.001989514              -0.001495763               0.004650921               0.003155158               0.000000000               0.000000000               0.000000000               0.000000000              -0.001246242               0.011595425              -0.000098648              -0.001916764               0.004504024               0.002587260               0.000000000               0.000000000               0.000000000               0.000000000              -0.001845517               0.010685620              -0.000769756              -0.002027766               0.004237760               0.002209993               0.000000000               0.000000000               0.000000000               0.000000000              -0.002039133               0.009827605              -0.000954916              -0.001993121               0.003940209               0.001947088               0.000000000               0.000000000               0.000000000               0.000000000              -0.002020050               0.009034023              -0.000963032              -0.001886767               0.003640233               0.001753466               0.000000000               0.000000000               0.000000000               0.000000000              -0.001883795               0.008312287              -0.000906544              -0.001745455               0.003352553               0.001607098               0.000000000               0.000000000               0.000000000               0.000000000              -0.001694609               0.007654529              -0.000830813              -0.001592291               0.003082247               0.001489957               0.000000000               0.000000000               0.000000000               0.000000000              -0.001487884               0.007069047              -0.000756299              -0.001441584               0.002836853               0.001395269               0.000000000               0.000000000               0.000000000               0.000000000              -0.001276698               0.006548930              -0.000688018              -0.001297375               0.002615413               0.001318038               0.000000000               0.000000000               0.000000000               0.000000000              -0.001062292               0.006084834              -0.000624665              -0.001158961               0.002414578               0.001255617               0.000000000               0.000000000               0.000000000               0.000000000              -0.000842894               0.005672069              -0.000546724              -0.001025092               0.002232368               0.001207276               0.000000000               0.000000000               0.000000000               0.000000000              -0.000632234               0.005310046              -0.000446090              -0.000900841               0.002070278               0.001169437               0.000000000               0.000000000               0.000000000               0.000000000              -0.000430751               0.005016550              -0.000338378              -0.000788598               0.001935033               0.001146434               0.000000000               0.000000000               0.000000000               0.000000000              -0.000249049               0.004808276              -0.000224916              -0.000694426               0.001834218               0.001139792               0.000000000               0.000000000               0.000000000               0.000000000              -0.000108873               0.004686544              -0.000108263              -0.000626644               0.001771047               0.001144403               0.000000000               0.000000000               0.000000000               0.000000000              -0.000053352               0.004644880              -0.000053866              -0.000600616               0.001748483               0.001147867               0.000000000               0.000000000               0.000000000               0.000000000               0.001402365               0.011301653               0.003758593              -0.000886821               0.004062786               0.003175965               0.000000000               0.000000000               0.000000000               0.000000000              -0.000743835               0.010783829               0.001915090              -0.001626914               0.004136878               0.002509964               0.000000000               0.000000000               0.000000000               0.000000000              -0.002376612               0.010863797               0.000198949              -0.002249199               0.004370962               0.002121764               0.000000000               0.000000000               0.000000000               0.000000000              -0.002819560               0.010287949              -0.000324389              -0.002343323               0.004210390               0.001867067               0.000000000               0.000000000               0.000000000               0.000000000              -0.002795311               0.009562686              -0.000472390              -0.002243572               0.003935387               0.001691816               0.000000000               0.000000000               0.000000000               0.000000000              -0.002570705               0.008838673              -0.000488845              -0.002068844               0.003635810               0.001566966               0.000000000               0.000000000               0.000000000               0.000000000              -0.002256876               0.008157040              -0.000460220              -0.001865954               0.003340971               0.001475017               0.000000000               0.000000000               0.000000000               0.000000000              -0.001918827               0.007535761              -0.000422746              -0.001661526               0.003065737               0.001404211               0.000000000               0.000000000               0.000000000               0.000000000              -0.001592618               0.006986266              -0.000390559              -0.001470511               0.002818903               0.001348391               0.000000000               0.000000000               0.000000000               0.000000000              -0.001289883               0.006497579              -0.000359215              -0.001295900               0.002597805               0.001301905               0.000000000               0.000000000               0.000000000               0.000000000              -0.001010633               0.006058439              -0.000327758              -0.001136290               0.002398223               0.001261933               0.000000000               0.000000000               0.000000000               0.000000000              -0.000746567               0.005673247              -0.000281057              -0.000989116               0.002220769               0.001231653               0.000000000               0.000000000               0.000000000               0.000000000              -0.000508289               0.005352458              -0.000214718              -0.000859663               0.002070689               0.001211026               0.000000000               0.000000000               0.000000000               0.000000000              -0.000309674               0.005110940              -0.000150816              -0.000754993               0.001955294               0.001200301               0.000000000               0.000000000               0.000000000               0.000000000              -0.000158761               0.004951745              -0.000090834              -0.000678502               0.001876732               0.001198231               0.000000000               0.000000000               0.000000000               0.000000000              -0.000059989               0.004865754              -0.000035417              -0.000630713               0.001832140               0.001201426               0.000000000               0.000000000               0.000000000               0.000000000              -0.000026543               0.004836368              -0.000013608              -0.000614498               0.001816939               0.001202441               0.000000000               0.000000000               0.000000000               0.000000000               0.000326323               0.008667608               0.003008845              -0.000961080               0.003209533               0.002248453               0.000000000               0.000000000               0.000000000               0.000000000              -0.001743765               0.009254064               0.001783161              -0.001810666               0.003688212               0.001877546               0.000000000               0.000000000               0.000000000               0.000000000              -0.003341300               0.010102366               0.000613703              -0.002515777               0.004206014               0.001690237               0.000000000               0.000000000               0.000000000               0.000000000              -0.003518775               0.009778681               0.000228758              -0.002541869               0.004106818               0.001564948               0.000000000               0.000000000               0.000000000               0.000000000              -0.003242979               0.009171194               0.000081933              -0.002362511               0.003844537               0.001482027               0.000000000               0.000000000               0.000000000               0.000000000              -0.002817787               0.008517765               0.000024957              -0.002121386               0.003546355               0.001424970               0.000000000               0.000000000               0.000000000               0.000000000              -0.002352267               0.007889997               0.000001061              -0.001868345               0.003252754               0.001384409               0.000000000               0.000000000               0.000000000               0.000000000              -0.001901963               0.007318529              -0.000016348              -0.001628048               0.002982168               0.001354120               0.000000000               0.000000000               0.000000000               0.000000000              -0.001493237               0.006805085              -0.000035228              -0.001410596               0.002738538               0.001327942               0.000000000               0.000000000               0.000000000               0.000000000              -0.001133566               0.006337134              -0.000048621              -0.001217226               0.002518099               0.001300873               0.000000000               0.000000000               0.000000000               0.000000000              -0.000825145               0.005917717              -0.000054836              -0.001049141               0.002322266               0.001273125               0.000000000               0.000000000               0.000000000               0.000000000              -0.000555135               0.005557291              -0.000048623              -0.000902835               0.002153357               0.001250522               0.000000000               0.000000000               0.000000000               0.000000000              -0.000326936               0.005280551              -0.000031016              -0.000782668               0.002021056               0.001238388               0.000000000               0.000000000               0.000000000               0.000000000              -0.000162829               0.005090899              -0.000018150              -0.000697421               0.001929423               0.001232002               0.000000000               0.000000000               0.000000000               0.000000000              -0.000061525               0.004974652              -0.000009871              -0.000644902               0.001873168               0.001228266               0.000000000               0.000000000               0.000000000               0.000000000              -0.000013998               0.004916884              -0.000002069              -0.000619858               0.001845564               0.001225706               0.000000000               0.000000000               0.000000000               0.000000000              -0.000006497               0.004898387              -0.000000764              -0.000614733               0.001837691               0.001222957               0.000000000               0.000000000               0.000000000               0.000000000              -0.000939973               0.006444203               0.002100661              -0.001158014               0.002534050               0.001376036               0.000000000               0.000000000               0.000000000               0.000000000              -0.002714166               0.007884325               0.001642207              -0.002003348               0.003295864               0.001292516               0.000000000               0.000000000               0.000000000               0.000000000              -0.004089484               0.009327888               0.001114645              -0.002699536               0.004009110               0.001309574               0.000000000               0.000000000               0.000000000               0.000000000              -0.003989542               0.009265458               0.000818748              -0.002654254               0.003973206               0.001318953               0.000000000               0.000000000               0.000000000               0.000000000              -0.003503495               0.008806491               0.000638687              -0.002414616               0.003740340               0.001325724               0.000000000               0.000000000               0.000000000               0.000000000              -0.002920334               0.008249260               0.000516513              -0.002126277               0.003458485               0.001332207               0.000000000               0.000000000               0.000000000               0.000000000              -0.002339826               0.007691734               0.000426324              -0.001838897               0.003176851               0.001337954               0.000000000               0.000000000               0.000000000               0.000000000              -0.001807075               0.007173990               0.000354638              -0.001574398               0.002916105               0.001341707               0.000000000               0.000000000               0.000000000               0.000000000              -0.001345175               0.006686134               0.000287856              -0.001340204               0.002675424               0.001335219               0.000000000               0.000000000               0.000000000               0.000000000              -0.000952055               0.006232066               0.000230202              -0.001136026               0.002456010               0.001319984               0.000000000               0.000000000               0.000000000               0.000000000              -0.000626252               0.005824437               0.000182388              -0.000962897               0.002262425               0.001299528               0.000000000               0.000000000               0.000000000               0.000000000              -0.000362749               0.005485849               0.000138220              -0.000821760               0.002102518               0.001280758               0.000000000               0.000000000               0.000000000               0.000000000              -0.000161589               0.005240669               0.000096822              -0.000715678               0.001985431               0.001269754               0.000000000               0.000000000               0.000000000               0.000000000              -0.000036813               0.005080214               0.000058598              -0.000648830               0.001909665               0.001260835               0.000000000               0.000000000               0.000000000               0.000000000               0.000021510               0.004991393               0.000023202              -0.000615856               0.001869066               0.001253210               0.000000000               0.000000000               0.000000000               0.000000000               0.000032622               0.004959521               0.000000598              -0.000607705               0.001855726               0.001248020               0.000000000               0.000000000               0.000000000               0.000000000               0.000023959               0.004952863              -0.000007028              -0.000610122               0.001854312               0.001244190               0.000000000               0.000000000               0.000000000               0.000000000              -0.002412687               0.004380313               0.001150343              -0.001452294               0.001944187               0.000491894               0.000000000               0.000000000               0.000000000               0.000000000              -0.003523533               0.006289711               0.001492966              -0.002107534               0.002799060               0.000691526               0.000000000               0.000000000               0.000000000               0.000000000              -0.004528482               0.008159063               0.001640980              -0.002718057               0.003625679               0.000907622               0.000000000               0.000000000               0.000000000               0.000000000              -0.004282649               0.008500085               0.001439585              -0.002668497               0.003722832               0.001054335               0.000000000               0.000000000               0.000000000               0.000000000              -0.003717756               0.008329571               0.001222781              -0.002435349               0.003588279               0.001152930               0.000000000               0.000000000               0.000000000               0.000000000              -0.003085738               0.007978645               0.001033206              -0.002154477               0.003377680               0.001223203               0.000000000               0.000000000               0.000000000               0.000000000              -0.002467322               0.007568945               0.000877901              -0.001871359               0.003146743               0.001275383               0.000000000               0.000000000               0.000000000               0.000000000              -0.001900645               0.007145730               0.000750250              -0.001605954               0.002917204               0.001311250               0.000000000               0.000000000               0.000000000               0.000000000              -0.001406718               0.006720590               0.000637177              -0.001367590               0.002696037               0.001328448               0.000000000               0.000000000               0.000000000               0.000000000              -0.000988081               0.006311904               0.000536700              -0.001159516               0.002490452               0.001330936               0.000000000               0.000000000               0.000000000               0.000000000              -0.000637101               0.005935940               0.000443419              -0.000980903               0.002305595               0.001324692               0.000000000               0.000000000               0.000000000               0.000000000              -0.000351770               0.005611514               0.000347280              -0.000833351               0.002148270               0.001314919               0.000000000               0.000000000               0.000000000               0.000000000              -0.000137880               0.005349319               0.000250463              -0.000720368               0.002023211               0.001302843               0.000000000               0.000000000               0.000000000               0.000000000              -0.000002832               0.005153070               0.000158584              -0.000645194               0.001932737               0.001287543               0.000000000               0.000000000               0.000000000               0.000000000               0.000065600               0.005041796               0.000077510              -0.000605623               0.001882456               0.001276833               0.000000000               0.000000000               0.000000000               0.000000000               0.000084692               0.004999623               0.000021915              -0.000593192               0.001864255               0.001271063               0.000000000               0.000000000               0.000000000               0.000000000               0.000076855               0.004984091               0.000000650              -0.000594189               0.001859410               0.001265221               0.000000000               0.000000000               0.000000000               0.000000000              -0.004271215               0.002512737               0.000232954              -0.001915794               0.001476167              -0.000439627               0.000000000               0.000000000               0.000000000               0.000000000              -0.004430074               0.004674461               0.001280295              -0.002245580               0.002306664               0.000061084               0.000000000               0.000000000               0.000000000               0.000000000              -0.004879239               0.006770514               0.002062349              -0.002676023               0.003148822               0.000472800               0.000000000               0.000000000               0.000000000               0.000000000              -0.004506096               0.007499861               0.002022607              -0.002627262               0.003375682               0.000748420               0.000000000               0.000000000               0.000000000               0.000000000              -0.003903839               0.007657692               0.001810700              -0.002421145               0.003359587               0.000938441               0.000000000               0.000000000               0.000000000               0.000000000              -0.003253676               0.007557684               0.001581073              -0.002164834               0.003240814               0.001075980               0.000000000               0.000000000               0.000000000               0.000000000              -0.002620436               0.007335266               0.001373735              -0.001899567               0.003078253               0.001178686               0.000000000               0.000000000               0.000000000               0.000000000              -0.002034923               0.007045138               0.001196390              -0.001643734               0.002896267               0.001252533               0.000000000               0.000000000               0.000000000               0.000000000              -0.001506428               0.006723166               0.001041318              -0.001405303               0.002709467               0.001304164               0.000000000               0.000000000               0.000000000               0.000000000              -0.001050867               0.006389356               0.000900774              -0.001192742               0.002527344               0.001334603               0.000000000               0.000000000               0.000000000               0.000000000              -0.000666480               0.006061262               0.000769624              -0.001007585               0.002356262               0.001348677               0.000000000               0.000000000               0.000000000               0.000000000              -0.000341272               0.005755695               0.000634186              -0.000847437               0.002201025               0.001353588               0.000000000               0.000000000               0.000000000               0.000000000              -0.000081602               0.005486408               0.000488903              -0.000716400               0.002067584               0.001351184               0.000000000               0.000000000               0.000000000               0.000000000               0.000101136               0.005265519               0.000341182              -0.000620262               0.001961909               0.001341647               0.000000000               0.000000000               0.000000000               0.000000000               0.000206958               0.005112015               0.000202111              -0.000561391               0.001891118               0.001329727               0.000000000               0.000000000               0.000000000               0.000000000               0.000235444               0.005026325               0.000085615              -0.000539998               0.001855424               0.001315426               0.000000000               0.000000000               0.000000000               0.000000000               0.000215853               0.004990387               0.000030929              -0.000542852               0.001844396               0.001301544               0.000000000               0.000000000               0.000000000               0.000000000              -0.006383582               0.001007332              -0.000563032              -0.002519757               0.001175688              -0.001344069               0.000000000               0.000000000               0.000000000               0.000000000              -0.005482212               0.003154456               0.000988430              -0.002450132               0.001868183              -0.000581949               0.000000000               0.000000000               0.000000000               0.000000000              -0.005165024               0.005185868               0.002265928              -0.002585112               0.002590308               0.000005196               0.000000000               0.000000000               0.000000000               0.000000000              -0.004578594               0.006181551               0.002426233              -0.002489661               0.002890383               0.000400721               0.000000000               0.000000000               0.000000000               0.000000000              -0.003919830               0.006642166               0.002273772              -0.002300202               0.002980767               0.000680564               0.000000000               0.000000000               0.000000000               0.000000000              -0.003260776               0.006805737               0.002045917              -0.002073504               0.002959724               0.000886220               0.000000000               0.000000000               0.000000000               0.000000000              -0.002633527               0.006796411               0.001815560              -0.001837120               0.002877821               0.001040701               0.000000000               0.000000000               0.000000000               0.000000000              -0.002045429               0.006686905               0.001612051              -0.001602896               0.002763244               0.001160349               0.000000000               0.000000000               0.000000000               0.000000000              -0.001501034               0.006508950               0.001429949              -0.001376504               0.002628463               0.001251959               0.000000000               0.000000000               0.000000000               0.000000000              -0.001013988               0.006283121               0.001260672              -0.001165633               0.002482897               0.001317264               0.000000000               0.000000000               0.000000000               0.000000000              -0.000593217               0.006034349               0.001103597              -0.000976748               0.002337012               0.001360264               0.000000000               0.000000000               0.000000000               0.000000000              -0.000229264               0.005787875               0.000942927              -0.000809457               0.002199091               0.001389634               0.000000000               0.000000000               0.000000000               0.000000000               0.000081261               0.005555970               0.000767702              -0.000664022               0.002073312               0.001409290               0.000000000               0.000000000               0.000000000               0.000000000               0.000327869               0.005348005               0.000582422              -0.000545549               0.001964500               0.001418951               0.000000000               0.000000000               0.000000000               0.000000000               0.000491932               0.005179720               0.000385696              -0.000462989               0.001880886               0.001417896               0.000000000               0.000000000               0.000000000               0.000000000               0.000552597               0.005065656               0.000186031              -0.000425982               0.001830529               0.001404547               0.000000000               0.000000000               0.000000000               0.000000000               0.000534316               0.005011625               0.000082409              -0.000426083               0.001812553               0.001386469               0.000000000               0.000000000               0.000000000               0.000000000              -0.008610278              -0.000065468              -0.001121700              -0.003220668               0.001051726              -0.002168942               0.000000000               0.000000000               0.000000000               0.000000000              -0.006613859               0.001807704               0.000668493              -0.002706156               0.001504609              -0.001201547               0.000000000               0.000000000               0.000000000               0.000000000              -0.005403728               0.003535711               0.002223302              -0.002468357               0.002001342              -0.000467016               0.000000000               0.000000000               0.000000000               0.000000000              -0.004514442               0.004656912               0.002556738              -0.002275025               0.002310629               0.000035604               0.000000000               0.000000000               0.000000000               0.000000000              -0.003767403               0.005354013               0.002491808              -0.002082023               0.002478660               0.000396637               0.000000000               0.000000000               0.000000000               0.000000000              -0.003100252               0.005758320               0.002299681              -0.001882381               0.002546880               0.000664499               0.000000000               0.000000000               0.000000000               0.000000000              -0.002483468               0.005974494               0.002081387              -0.001678109               0.002550847               0.000872738               0.000000000               0.000000000               0.000000000               0.000000000              -0.001905396               0.006067260               0.001880645              -0.001472928               0.002513375               0.001040447               0.000000000               0.000000000               0.000000000               0.000000000              -0.001365006               0.006053611               0.001696117              -0.001268576               0.002440708               0.001172132               0.000000000               0.000000000               0.000000000               0.000000000              -0.000861806               0.005960912               0.001519954              -0.001068289               0.002343047               0.001274758               0.000000000               0.000000000               0.000000000               0.000000000              -0.000402659               0.005825817               0.001354009              -0.000879223               0.002234994               0.001355771               0.000000000               0.000000000               0.000000000               0.000000000               0.000012073               0.005672742               0.001189147              -0.000704564               0.002125750               0.001421186               0.000000000               0.000000000               0.000000000               0.000000000               0.000391704               0.005522259               0.001010777              -0.000543393               0.002021865               0.001478473               0.000000000               0.000000000               0.000000000               0.000000000               0.000724875               0.005375067               0.000808322              -0.000400055               0.001925022               0.001524968               0.000000000               0.000000000               0.000000000               0.000000000               0.000982861               0.005230013               0.000568171              -0.000285178               0.001838380               0.001553201               0.000000000               0.000000000               0.000000000               0.000000000               0.001141997               0.005105965               0.000293383              -0.000209996               0.001771970               0.001561974               0.000000000               0.000000000               0.000000000               0.000000000               0.001188661               0.005046729               0.000148965              -0.000185093               0.001743924               0.001558831               0.000000000               0.000000000               0.000000000               0.000000000              -0.010744531              -0.000742105              -0.001339779              -0.003936433               0.001064768              -0.002871665               0.000000000               0.000000000               0.000000000               0.000000000              -0.007723721               0.000708397               0.000380882              -0.002984942               0.001231105              -0.001753838               0.000000000               0.000000000               0.000000000               0.000000000              -0.005611326               0.001987298               0.001931576              -0.002352656               0.001446641              -0.000906015               0.000000000               0.000000000               0.000000000               0.000000000              -0.004368175               0.003104887               0.002354646              -0.002026173               0.001710341              -0.000315832               0.000000000               0.000000000               0.000000000               0.000000000              -0.003498290               0.003954400               0.002367513              -0.001806155               0.001920171               0.000114015               0.000000000               0.000000000               0.000000000               0.000000000              -0.002804559               0.004554464               0.002231445              -0.001621015               0.002058477               0.000437462               0.000000000               0.000000000               0.000000000               0.000000000              -0.002191605               0.004970923               0.002053882              -0.001443214               0.002138029               0.000694814               0.000000000               0.000000000               0.000000000               0.000000000              -0.001630514               0.005247524               0.001878465              -0.001267381               0.002171617               0.000904236               0.000000000               0.000000000               0.000000000               0.000000000              -0.001105891               0.005397681               0.001713801              -0.001089418               0.002162348               0.001072930               0.000000000               0.000000000               0.000000000               0.000000000              -0.000601097               0.005452301               0.001555913              -0.000906947               0.002119731               0.001212784               0.000000000               0.000000000               0.000000000               0.000000000              -0.000109628               0.005451388               0.001406415              -0.000722533               0.002057955               0.001335422               0.000000000               0.000000000               0.000000000               0.000000000               0.000365395               0.005418068               0.001260608              -0.000540235               0.001986083               0.001445848               0.000000000               0.000000000               0.000000000               0.000000000               0.000823685               0.005369087               0.001104493              -0.000362254               0.001910429               0.001548175               0.000000000               0.000000000               0.000000000               0.000000000               0.001260521               0.005302389               0.000913739              -0.000190103               0.001830813               0.001640710               0.000000000               0.000000000               0.000000000               0.000000000               0.001659137               0.005213037               0.000669643              -0.000029454               0.001747480               0.001718026               0.000000000               0.000000000               0.000000000               0.000000000               0.001998964               0.005109381               0.000362936               0.000110937               0.001666131               0.001777068               0.000000000               0.000000000               0.000000000               0.000000000               0.002193487               0.005070639               0.000201418               0.000188726               0.001627288               0.001816013               0.000000000               0.000000000               0.000000000               0.000000000              -0.012535923              -0.001101534              -0.001175135              -0.004563276               0.001153906              -0.003409370               0.000000000               0.000000000               0.000000000               0.000000000              -0.008684101              -0.000090877               0.000173818              -0.003245176               0.001051426              -0.002193750               0.000000000               0.000000000               0.000000000               0.000000000              -0.005788920               0.000721760               0.001423270              -0.002261063               0.000994267              -0.001266796               0.000000000               0.000000000               0.000000000               0.000000000              -0.004204553               0.001753994               0.001813535              -0.001795954               0.001183307              -0.000612647               0.000000000               0.000000000               0.000000000               0.000000000              -0.003199108               0.002669517               0.001866912              -0.001533352               0.001400946              -0.000132406               0.000000000               0.000000000               0.000000000               0.000000000              -0.002460624               0.003402220               0.001788032              -0.001348009               0.001583397               0.000235389               0.000000000               0.000000000               0.000000000               0.000000000              -0.001847827               0.003970861               0.001662971              -0.001189290               0.001720036               0.000530746               0.000000000               0.000000000               0.000000000               0.000000000              -0.001300826               0.004390150               0.001531313              -0.001036577               0.001808894               0.000772317               0.000000000               0.000000000               0.000000000               0.000000000              -0.000793837               0.004683394               0.001406228              -0.000883111               0.001855486               0.000972374               0.000000000               0.000000000               0.000000000               0.000000000              -0.000295020               0.004880537               0.001288962              -0.000720698               0.001867062               0.001146364               0.000000000               0.000000000               0.000000000               0.000000000               0.000214284               0.005011626               0.001179505              -0.000546096               0.001852557               0.001306461               0.000000000               0.000000000               0.000000000               0.000000000               0.000738433               0.005105340               0.001071823              -0.000361255               0.001822181               0.001460926               0.000000000               0.000000000               0.000000000               0.000000000               0.001271017               0.005164115               0.000956488              -0.000168883               0.001777649               0.001608765               0.000000000               0.000000000               0.000000000               0.000000000               0.001811405               0.005178796               0.000812497               0.000031926               0.001715606               0.001747532               0.000000000               0.000000000               0.000000000               0.000000000               0.002368274               0.005151228               0.000614525               0.000244197               0.001635660               0.001879857               0.000000000               0.000000000               0.000000000               0.000000000               0.002937050               0.005085153               0.000344232               0.000465745               0.001539786               0.002005531               0.000000000               0.000000000               0.000000000               0.000000000               0.003334427               0.005084252               0.000204057               0.000614873               0.001489776               0.002104649               0.000000000               0.000000000               0.000000000               0.000000000              -0.013731284              -0.001254027              -0.000680988              -0.004992475               0.001246141              -0.003746334               0.000000000               0.000000000               0.000000000               0.000000000              -0.009342701              -0.000569316               0.000058431              -0.003432346               0.000954337              -0.002478009               0.000000000               0.000000000               0.000000000               0.000000000              -0.005912899              -0.000103922               0.000756039              -0.002204345               0.000700136              -0.001504209               0.000000000               0.000000000               0.000000000               0.000000000              -0.004076890               0.000826376               0.000990380              -0.001632129               0.000819495              -0.000812633               0.000000000               0.000000000               0.000000000               0.000000000              -0.002958920               0.001755091               0.001034340              -0.001328979               0.001028016              -0.000300963               0.000000000               0.000000000               0.000000000               0.000000000              -0.002184487               0.002557672               0.001000753              -0.001138889               0.001232178               0.000093289               0.000000000               0.000000000               0.000000000               0.000000000              -0.001573458               0.003216842               0.000936956              -0.000992150               0.001402986               0.000410836               0.000000000               0.000000000               0.000000000               0.000000000              -0.001039994               0.003731866               0.000864485              -0.000856479               0.001529436               0.000672956               0.000000000               0.000000000               0.000000000               0.000000000              -0.000541334               0.004127138               0.000794952              -0.000718891               0.001615329               0.000896438               0.000000000               0.000000000               0.000000000               0.000000000              -0.000047033               0.004430081               0.000733057              -0.000571396               0.001667144               0.001095748               0.000000000               0.000000000               0.000000000               0.000000000               0.000465599               0.004666922               0.000676907              -0.000408765               0.001691880               0.001283115               0.000000000               0.000000000               0.000000000               0.000000000               0.001010413               0.004857734               0.000620444              -0.000228312               0.001695332               0.001467021               0.000000000               0.000000000               0.000000000               0.000000000               0.001592121               0.004996419               0.000556775              -0.000027508               0.001674625               0.001647118               0.000000000               0.000000000               0.000000000               0.000000000               0.002216760               0.005075867               0.000479902               0.000196800               0.001626339               0.001823138               0.000000000               0.000000000               0.000000000               0.000000000               0.002904899               0.005099824               0.000373602               0.000451855               0.001549306               0.002001161               0.000000000               0.000000000               0.000000000               0.000000000               0.003679303               0.005066625               0.000214755               0.000746403               0.001440057               0.002186460               0.000000000               0.000000000               0.000000000               0.000000000               0.004269635               0.005099306               0.000131332               0.000963690               0.001378522               0.002342212               0.000000000               0.000000000               0.000000000               0.000000000               0.000000000               0.000000000               0.000000000               0.000000000               0.000000000               0.000000000               0.000000000               0.000000000               0.000000000               0.000000000               0.000000000               0.000000000               0.000000000               0.000000000               0.000000000               0.000000000               0.000000000               0.000000000               0.000000000               0.000000000               0.000000000               0.000000000               0.000000000               0.000000000               0.000000000               0.000000000               0.000000000               0.000000000               0.000000000               0.000000000               0.000000000               0.000000000               0.000000000               0.000000000               0.000000000               0.000000000               0.000000000               0.000000000               0.000000000               0.000000000               0.000000000               0.000000000               0.000000000               0.000000000               0.000000000               0.000000000               0.000000000               0.000000000               0.000000000               0.000000000               0.000000000               0.000000000               0.000000000               0.000000000               0.000000000               0.000000000               0.000000000               0.000000000               0.000000000               0.000000000               0.000000000               0.000000000               0.000000000               0.000000000               0.000000000               0.000000000               0.000000000               0.000000000               0.000000000               0.000000000               0.000000000               0.000000000               0.000000000               0.000000000               0.000000000               0.000000000               0.000000000               0.000000000               0.000000000               0.000000000               0.000000000               0.000000000               0.000000000               0.000000000               0.000000000               0.000000000               0.000000000               0.000000000               0.000000000               0.000000000               0.000000000               0.000000000               0.000000000               0.000000000               0.000000000               0.000000000               0.000000000               0.000000000               0.000000000               0.000000000               0.000000000               0.000000000               0.000000000               0.000000000               0.000000000               0.000000000               0.000000000               0.000000000               0.000000000               0.000000000               0.000000000               0.000000000               0.000000000               0.000000000               0.000000000               0.000000000               0.000000000               0.000000000               0.000000000               0.000000000               0.000000000               0.000000000               0.000000000               0.000000000               0.000000000               0.000000000               0.000000000               0.000000000               0.000000000               0.000000000               0.000000000               0.000000000               0.000000000               0.000000000               0.000000000               0.000000000               0.000000000               0.000000000               0.000000000               0.000000000               0.000000000               0.000000000               0.000000000               0.000000000               0.000000000               0.000000000               0.000000000               0.000000000               0.000000000               0.000000000               0.000000000               0.000000000               0.000000000               0.000000000               0.000000000               0.000000000               0.000000000               0.000000000               0.000000000               0.000000000               0.000000000               0.000000000               0.000000000               0.000000000               0.000000000               0.000000000               0.000000000               0.000000000               0.000000000               0.000000000 </DataArray>
</PointData>
</Piece>
</UnstructuredGrid> </VTKFile>
