<?xml version="1.0"?>
<VTKFile type="UnstructuredGrid" version="0.1">
<UnstructuredGrid>
<Piece NumberOfPoints="      1156" NumberOfCells="      1024">
<Points>
<DataArray type="Float64"                                    Name="coordinates"                                                      NumberOfComponents=" 3" format="ascii">
              0.133000000               0.000000000               0.000000000               0.155937500               0.000000000               0.000000000               0.178875000               0.000000000               0.000000000               0.201812500               0.000000000               0.000000000               0.224750000               0.000000000               0.000000000               0.247687500               0.000000000               0.000000000               0.270625000               0.000000000               0.000000000               0.293562500               0.000000000               0.000000000               0.316500000               0.000000000               0.000000000               0.339437500               0.000000000               0.000000000               0.362375000               0.000000000               0.000000000               0.385312500               0.000000000               0.000000000               0.408250000               0.000000000               0.000000000               0.431187500               0.000000000               0.000000000               0.454125000               0.000000000               0.000000000               0.477062500               0.000000000               0.000000000               0.500000000               0.000000000               0.000000000               0.132359569               0.013036280               0.000000000               0.155337096               0.016127762               0.000000000               0.178314623               0.019219245               0.000000000               0.201292150               0.022310727               0.000000000               0.224269676               0.025402210               0.000000000               0.247247203               0.028493692               0.000000000               0.270224730               0.031585175               0.000000000               0.293202257               0.034676657               0.000000000               0.316179784               0.037768140               0.000000000               0.339157311               0.040859622               0.000000000               0.362134838               0.043951105               0.000000000               0.385112365               0.047042587               0.000000000               0.408089892               0.050134070               0.000000000               0.431067419               0.053225552               0.000000000               0.454044946               0.056317035               0.000000000               0.477022473               0.059408517               0.000000000               0.500000000               0.062500000               0.000000000               0.130444442               0.025947013               0.000000000               0.153541665               0.032137825               0.000000000               0.176638887               0.038328636               0.000000000               0.199736109               0.044519448               0.000000000               0.222833332               0.050710260               0.000000000               0.245930554               0.056901071               0.000000000               0.269027776               0.063091883               0.000000000               0.292124999               0.069282695               0.000000000               0.315222221               0.075473506               0.000000000               0.338319444               0.081664318               0.000000000               0.361416666               0.087855130               0.000000000               0.384513888               0.094045942               0.000000000               0.407611111               0.100236753               0.000000000               0.430708333               0.106427565               0.000000000               0.453805555               0.112618377               0.000000000               0.476902778               0.118809188               0.000000000               0.500000000               0.125000000               0.000000000               0.127273065               0.038607862               0.000000000               0.150568498               0.047913621               0.000000000               0.173863932               0.057219379               0.000000000               0.197159365               0.066525138               0.000000000               0.220454798               0.075830897               0.000000000               0.243750232               0.085136655               0.000000000               0.267045665               0.094442414               0.000000000               0.290341099               0.103748172               0.000000000               0.313636532               0.113053931               0.000000000               0.336931966               0.122359690               0.000000000               0.360227399               0.131665448               0.000000000               0.383522833               0.140971207               0.000000000               0.406818266               0.150276966               0.000000000               0.430113700               0.159582724               0.000000000               0.453409133               0.168888483               0.000000000               0.476704567               0.178194241               0.000000000               0.500000000               0.187500000               0.000000000               0.122875978               0.050896897               0.000000000               0.146446229               0.063340840               0.000000000               0.170016481               0.075784784               0.000000000               0.193586732               0.088228728               0.000000000               0.217156983               0.100672672               0.000000000               0.240727235               0.113116616               0.000000000               0.264297486               0.125560560               0.000000000               0.287867738               0.138004504               0.000000000               0.311437989               0.150448448               0.000000000               0.335008240               0.162892392               0.000000000               0.358578492               0.175336336               0.000000000               0.382148743               0.187780280               0.000000000               0.405718994               0.200224224               0.000000000               0.429289246               0.212668168               0.000000000               0.452859497               0.225112112               0.000000000               0.476429749               0.237556056               0.000000000               0.500000000               0.250000000               0.000000000               0.117295528               0.062695766               0.000000000               0.141214558               0.078308531               0.000000000               0.165133587               0.093921295               0.000000000               0.189052617               0.109534060               0.000000000               0.212971646               0.125146824               0.000000000               0.236890676               0.140759589               0.000000000               0.260809705               0.156372354               0.000000000               0.284728735               0.171985118               0.000000000               0.308647764               0.187597883               0.000000000               0.332566794               0.203210648               0.000000000               0.356485823               0.218823412               0.000000000               0.380404853               0.234436177               0.000000000               0.404323882               0.250048941               0.000000000               0.428242912               0.265661706               0.000000000               0.452161941               0.281274471               0.000000000               0.476080971               0.296887235               0.000000000               0.500000000               0.312500000               0.000000000               0.110585458               0.073890841               0.000000000               0.134923867               0.092710163               0.000000000               0.159262276               0.111529486               0.000000000               0.183600685               0.130348808               0.000000000               0.207939094               0.149168131               0.000000000               0.232277503               0.167987453               0.000000000               0.256615912               0.186806776               0.000000000               0.280954320               0.205626098               0.000000000               0.305292729               0.224445420               0.000000000               0.329631138               0.243264743               0.000000000               0.353969547               0.262084065               0.000000000               0.378307956               0.280903388               0.000000000               0.402646365               0.299722710               0.000000000               0.426984773               0.318542033               0.000000000               0.451323182               0.337361355               0.000000000               0.475661591               0.356180678               0.000000000               0.500000000               0.375000000               0.000000000               0.102810390               0.084374307               0.000000000               0.127634741               0.106444663               0.000000000               0.152459092               0.128515018               0.000000000               0.177283442               0.150585374               0.000000000               0.202107793               0.172655730               0.000000000               0.226932143               0.194726086               0.000000000               0.251756494               0.216796442               0.000000000               0.276580845               0.238866798               0.000000000               0.301405195               0.260937153               0.000000000               0.326229546               0.283007509               0.000000000               0.351053896               0.305077865               0.000000000               0.375878247               0.327148221               0.000000000               0.400702598               0.349218577               0.000000000               0.425526948               0.371288933               0.000000000               0.450351299               0.393359288               0.000000000               0.475175649               0.415429644               0.000000000               0.500000000               0.437500000               0.000000000               0.094045202               0.094045202               0.000000000               0.119417377               0.119417377               0.000000000               0.144789552               0.144789552               0.000000000               0.170161727               0.170161727               0.000000000               0.195533901               0.195533901               0.000000000               0.220906076               0.220906076               0.000000000               0.246278251               0.246278251               0.000000000               0.271650426               0.271650426               0.000000000               0.297022601               0.297022601               0.000000000               0.322394776               0.322394776               0.000000000               0.347766951               0.347766951               0.000000000               0.373139126               0.373139126               0.000000000               0.398511300               0.398511300               0.000000000               0.423883475               0.423883475               0.000000000               0.449255650               0.449255650               0.000000000               0.474627825               0.474627825               0.000000000               0.500000000               0.500000000               0.000000000               0.084374307               0.102810390               0.000000000               0.106444663               0.127634741               0.000000000               0.128515018               0.152459092               0.000000000               0.150585374               0.177283442               0.000000000               0.172655730               0.202107793               0.000000000               0.194726086               0.226932143               0.000000000               0.216796442               0.251756494               0.000000000               0.238866798               0.276580845               0.000000000               0.260937153               0.301405195               0.000000000               0.283007509               0.326229546               0.000000000               0.305077865               0.351053896               0.000000000               0.327148221               0.375878247               0.000000000               0.349218577               0.400702598               0.000000000               0.371288933               0.425526948               0.000000000               0.393359288               0.450351299               0.000000000               0.415429644               0.475175649               0.000000000               0.437500000               0.500000000               0.000000000               0.073890841               0.110585458               0.000000000               0.092710163               0.134923867               0.000000000               0.111529486               0.159262276               0.000000000               0.130348808               0.183600685               0.000000000               0.149168131               0.207939094               0.000000000               0.167987453               0.232277503               0.000000000               0.186806776               0.256615912               0.000000000               0.205626098               0.280954320               0.000000000               0.224445420               0.305292729               0.000000000               0.243264743               0.329631138               0.000000000               0.262084065               0.353969547               0.000000000               0.280903388               0.378307956               0.000000000               0.299722710               0.402646365               0.000000000               0.318542033               0.426984773               0.000000000               0.337361355               0.451323182               0.000000000               0.356180678               0.475661591               0.000000000               0.375000000               0.500000000               0.000000000               0.062695766               0.117295528               0.000000000               0.078308531               0.141214558               0.000000000               0.093921295               0.165133587               0.000000000               0.109534060               0.189052617               0.000000000               0.125146824               0.212971646               0.000000000               0.140759589               0.236890676               0.000000000               0.156372354               0.260809705               0.000000000               0.171985118               0.284728735               0.000000000               0.187597883               0.308647764               0.000000000               0.203210648               0.332566794               0.000000000               0.218823412               0.356485823               0.000000000               0.234436177               0.380404853               0.000000000               0.250048941               0.404323882               0.000000000               0.265661706               0.428242912               0.000000000               0.281274471               0.452161941               0.000000000               0.296887235               0.476080971               0.000000000               0.312500000               0.500000000               0.000000000               0.050896897               0.122875978               0.000000000               0.063340840               0.146446229               0.000000000               0.075784784               0.170016481               0.000000000               0.088228728               0.193586732               0.000000000               0.100672672               0.217156983               0.000000000               0.113116616               0.240727235               0.000000000               0.125560560               0.264297486               0.000000000               0.138004504               0.287867738               0.000000000               0.150448448               0.311437989               0.000000000               0.162892392               0.335008240               0.000000000               0.175336336               0.358578492               0.000000000               0.187780280               0.382148743               0.000000000               0.200224224               0.405718994               0.000000000               0.212668168               0.429289246               0.000000000               0.225112112               0.452859497               0.000000000               0.237556056               0.476429749               0.000000000               0.250000000               0.500000000               0.000000000               0.038607862               0.127273065               0.000000000               0.047913621               0.150568498               0.000000000               0.057219379               0.173863932               0.000000000               0.066525138               0.197159365               0.000000000               0.075830897               0.220454798               0.000000000               0.085136655               0.243750232               0.000000000               0.094442414               0.267045665               0.000000000               0.103748172               0.290341099               0.000000000               0.113053931               0.313636532               0.000000000               0.122359690               0.336931966               0.000000000               0.131665448               0.360227399               0.000000000               0.140971207               0.383522833               0.000000000               0.150276966               0.406818266               0.000000000               0.159582724               0.430113700               0.000000000               0.168888483               0.453409133               0.000000000               0.178194241               0.476704567               0.000000000               0.187500000               0.500000000               0.000000000               0.025947013               0.130444442               0.000000000               0.032137825               0.153541665               0.000000000               0.038328636               0.176638887               0.000000000               0.044519448               0.199736109               0.000000000               0.050710260               0.222833332               0.000000000               0.056901071               0.245930554               0.000000000               0.063091883               0.269027776               0.000000000               0.069282695               0.292124999               0.000000000               0.075473506               0.315222221               0.000000000               0.081664318               0.338319444               0.000000000               0.087855130               0.361416666               0.000000000               0.094045942               0.384513888               0.000000000               0.100236753               0.407611111               0.000000000               0.106427565               0.430708333               0.000000000               0.112618377               0.453805555               0.000000000               0.118809188               0.476902778               0.000000000               0.125000000               0.500000000               0.000000000               0.013036280               0.132359569               0.000000000               0.016127762               0.155337096               0.000000000               0.019219245               0.178314623               0.000000000               0.022310727               0.201292150               0.000000000               0.025402210               0.224269676               0.000000000               0.028493692               0.247247203               0.000000000               0.031585175               0.270224730               0.000000000               0.034676657               0.293202257               0.000000000               0.037768140               0.316179784               0.000000000               0.040859622               0.339157311               0.000000000               0.043951105               0.362134838               0.000000000               0.047042587               0.385112365               0.000000000               0.050134070               0.408089892               0.000000000               0.053225552               0.431067419               0.000000000               0.056317035               0.454044946               0.000000000               0.059408517               0.477022473               0.000000000               0.062500000               0.500000000               0.000000000               0.000000000               0.133000000               0.000000000               0.000000000               0.155937500               0.000000000               0.000000000               0.178875000               0.000000000               0.000000000               0.201812500               0.000000000               0.000000000               0.224750000               0.000000000               0.000000000               0.247687500               0.000000000               0.000000000               0.270625000               0.000000000               0.000000000               0.293562500               0.000000000               0.000000000               0.316500000               0.000000000               0.000000000               0.339437500               0.000000000               0.000000000               0.362375000               0.000000000               0.000000000               0.385312500               0.000000000               0.000000000               0.408250000               0.000000000               0.000000000               0.431187500               0.000000000               0.000000000               0.454125000               0.000000000               0.000000000               0.477062500               0.000000000               0.000000000               0.500000000               0.000000000               0.133000000               0.000000000               0.000000000               0.155937500               0.000000000               0.000000000               0.178875000               0.000000000               0.000000000               0.201812500               0.000000000               0.000000000               0.224750000               0.000000000               0.000000000               0.247687500               0.000000000               0.000000000               0.270625000               0.000000000               0.000000000               0.293562500               0.000000000               0.000000000               0.316500000               0.000000000               0.000000000               0.339437500               0.000000000               0.000000000               0.362375000               0.000000000               0.000000000               0.385312500               0.000000000               0.000000000               0.408250000               0.000000000               0.000000000               0.431187500               0.000000000               0.000000000               0.454125000               0.000000000               0.000000000               0.477062500               0.000000000               0.000000000               0.500000000               0.000000000               0.000000000               0.132359569              -0.013036280               0.000000000               0.155337096              -0.016127762               0.000000000               0.178314623              -0.019219245               0.000000000               0.201292150              -0.022310727               0.000000000               0.224269676              -0.025402210               0.000000000               0.247247203              -0.028493692               0.000000000               0.270224730              -0.031585175               0.000000000               0.293202257              -0.034676657               0.000000000               0.316179784              -0.037768140               0.000000000               0.339157311              -0.040859622               0.000000000               0.362134838              -0.043951105               0.000000000               0.385112365              -0.047042587               0.000000000               0.408089892              -0.050134070               0.000000000               0.431067419              -0.053225552               0.000000000               0.454044946              -0.056317035               0.000000000               0.477022473              -0.059408517               0.000000000               0.500000000              -0.062500000               0.000000000               0.130444442              -0.025947013               0.000000000               0.153541665              -0.032137825               0.000000000               0.176638887              -0.038328636               0.000000000               0.199736109              -0.044519448               0.000000000               0.222833332              -0.050710260               0.000000000               0.245930554              -0.056901071               0.000000000               0.269027776              -0.063091883               0.000000000               0.292124999              -0.069282695               0.000000000               0.315222221              -0.075473506               0.000000000               0.338319444              -0.081664318               0.000000000               0.361416666              -0.087855130               0.000000000               0.384513888              -0.094045942               0.000000000               0.407611111              -0.100236753               0.000000000               0.430708333              -0.106427565               0.000000000               0.453805555              -0.112618377               0.000000000               0.476902778              -0.118809188               0.000000000               0.500000000              -0.125000000               0.000000000               0.127273065              -0.038607862               0.000000000               0.150568498              -0.047913621               0.000000000               0.173863932              -0.057219379               0.000000000               0.197159365              -0.066525138               0.000000000               0.220454798              -0.075830897               0.000000000               0.243750232              -0.085136655               0.000000000               0.267045665              -0.094442414               0.000000000               0.290341099              -0.103748172               0.000000000               0.313636532              -0.113053931               0.000000000               0.336931966              -0.122359690               0.000000000               0.360227399              -0.131665448               0.000000000               0.383522833              -0.140971207               0.000000000               0.406818266              -0.150276966               0.000000000               0.430113700              -0.159582724               0.000000000               0.453409133              -0.168888483               0.000000000               0.476704567              -0.178194241               0.000000000               0.500000000              -0.187500000               0.000000000               0.122875978              -0.050896897               0.000000000               0.146446229              -0.063340840               0.000000000               0.170016481              -0.075784784               0.000000000               0.193586732              -0.088228728               0.000000000               0.217156983              -0.100672672               0.000000000               0.240727235              -0.113116616               0.000000000               0.264297486              -0.125560560               0.000000000               0.287867738              -0.138004504               0.000000000               0.311437989              -0.150448448               0.000000000               0.335008240              -0.162892392               0.000000000               0.358578492              -0.175336336               0.000000000               0.382148743              -0.187780280               0.000000000               0.405718994              -0.200224224               0.000000000               0.429289246              -0.212668168               0.000000000               0.452859497              -0.225112112               0.000000000               0.476429749              -0.237556056               0.000000000               0.500000000              -0.250000000               0.000000000               0.117295528              -0.062695766               0.000000000               0.141214558              -0.078308531               0.000000000               0.165133587              -0.093921295               0.000000000               0.189052617              -0.109534060               0.000000000               0.212971646              -0.125146824               0.000000000               0.236890676              -0.140759589               0.000000000               0.260809705              -0.156372354               0.000000000               0.284728735              -0.171985118               0.000000000               0.308647764              -0.187597883               0.000000000               0.332566794              -0.203210648               0.000000000               0.356485823              -0.218823412               0.000000000               0.380404853              -0.234436177               0.000000000               0.404323882              -0.250048941               0.000000000               0.428242912              -0.265661706               0.000000000               0.452161941              -0.281274471               0.000000000               0.476080971              -0.296887235               0.000000000               0.500000000              -0.312500000               0.000000000               0.110585458              -0.073890841               0.000000000               0.134923867              -0.092710163               0.000000000               0.159262276              -0.111529486               0.000000000               0.183600685              -0.130348808               0.000000000               0.207939094              -0.149168131               0.000000000               0.232277503              -0.167987453               0.000000000               0.256615912              -0.186806776               0.000000000               0.280954320              -0.205626098               0.000000000               0.305292729              -0.224445420               0.000000000               0.329631138              -0.243264743               0.000000000               0.353969547              -0.262084065               0.000000000               0.378307956              -0.280903388               0.000000000               0.402646365              -0.299722710               0.000000000               0.426984773              -0.318542033               0.000000000               0.451323182              -0.337361355               0.000000000               0.475661591              -0.356180678               0.000000000               0.500000000              -0.375000000               0.000000000               0.102810390              -0.084374307               0.000000000               0.127634741              -0.106444663               0.000000000               0.152459092              -0.128515018               0.000000000               0.177283442              -0.150585374               0.000000000               0.202107793              -0.172655730               0.000000000               0.226932143              -0.194726086               0.000000000               0.251756494              -0.216796442               0.000000000               0.276580845              -0.238866798               0.000000000               0.301405195              -0.260937153               0.000000000               0.326229546              -0.283007509               0.000000000               0.351053896              -0.305077865               0.000000000               0.375878247              -0.327148221               0.000000000               0.400702598              -0.349218577               0.000000000               0.425526948              -0.371288933               0.000000000               0.450351299              -0.393359288               0.000000000               0.475175649              -0.415429644               0.000000000               0.500000000              -0.437500000               0.000000000               0.094045202              -0.094045202               0.000000000               0.119417377              -0.119417377               0.000000000               0.144789552              -0.144789552               0.000000000               0.170161727              -0.170161727               0.000000000               0.195533901              -0.195533901               0.000000000               0.220906076              -0.220906076               0.000000000               0.246278251              -0.246278251               0.000000000               0.271650426              -0.271650426               0.000000000               0.297022601              -0.297022601               0.000000000               0.322394776              -0.322394776               0.000000000               0.347766951              -0.347766951               0.000000000               0.373139126              -0.373139126               0.000000000               0.398511300              -0.398511300               0.000000000               0.423883475              -0.423883475               0.000000000               0.449255650              -0.449255650               0.000000000               0.474627825              -0.474627825               0.000000000               0.500000000              -0.500000000               0.000000000               0.084374307              -0.102810390               0.000000000               0.106444663              -0.127634741               0.000000000               0.128515018              -0.152459092               0.000000000               0.150585374              -0.177283442               0.000000000               0.172655730              -0.202107793               0.000000000               0.194726086              -0.226932143               0.000000000               0.216796442              -0.251756494               0.000000000               0.238866798              -0.276580845               0.000000000               0.260937153              -0.301405195               0.000000000               0.283007509              -0.326229546               0.000000000               0.305077865              -0.351053896               0.000000000               0.327148221              -0.375878247               0.000000000               0.349218577              -0.400702598               0.000000000               0.371288933              -0.425526948               0.000000000               0.393359288              -0.450351299               0.000000000               0.415429644              -0.475175649               0.000000000               0.437500000              -0.500000000               0.000000000               0.073890841              -0.110585458               0.000000000               0.092710163              -0.134923867               0.000000000               0.111529486              -0.159262276               0.000000000               0.130348808              -0.183600685               0.000000000               0.149168131              -0.207939094               0.000000000               0.167987453              -0.232277503               0.000000000               0.186806776              -0.256615912               0.000000000               0.205626098              -0.280954320               0.000000000               0.224445420              -0.305292729               0.000000000               0.243264743              -0.329631138               0.000000000               0.262084065              -0.353969547               0.000000000               0.280903388              -0.378307956               0.000000000               0.299722710              -0.402646365               0.000000000               0.318542033              -0.426984773               0.000000000               0.337361355              -0.451323182               0.000000000               0.356180678              -0.475661591               0.000000000               0.375000000              -0.500000000               0.000000000               0.062695766              -0.117295528               0.000000000               0.078308531              -0.141214558               0.000000000               0.093921295              -0.165133587               0.000000000               0.109534060              -0.189052617               0.000000000               0.125146824              -0.212971646               0.000000000               0.140759589              -0.236890676               0.000000000               0.156372354              -0.260809705               0.000000000               0.171985118              -0.284728735               0.000000000               0.187597883              -0.308647764               0.000000000               0.203210648              -0.332566794               0.000000000               0.218823412              -0.356485823               0.000000000               0.234436177              -0.380404853               0.000000000               0.250048941              -0.404323882               0.000000000               0.265661706              -0.428242912               0.000000000               0.281274471              -0.452161941               0.000000000               0.296887235              -0.476080971               0.000000000               0.312500000              -0.500000000               0.000000000               0.050896897              -0.122875978               0.000000000               0.063340840              -0.146446229               0.000000000               0.075784784              -0.170016481               0.000000000               0.088228728              -0.193586732               0.000000000               0.100672672              -0.217156983               0.000000000               0.113116616              -0.240727235               0.000000000               0.125560560              -0.264297486               0.000000000               0.138004504              -0.287867738               0.000000000               0.150448448              -0.311437989               0.000000000               0.162892392              -0.335008240               0.000000000               0.175336336              -0.358578492               0.000000000               0.187780280              -0.382148743               0.000000000               0.200224224              -0.405718994               0.000000000               0.212668168              -0.429289246               0.000000000               0.225112112              -0.452859497               0.000000000               0.237556056              -0.476429749               0.000000000               0.250000000              -0.500000000               0.000000000               0.038607862              -0.127273065               0.000000000               0.047913621              -0.150568498               0.000000000               0.057219379              -0.173863932               0.000000000               0.066525138              -0.197159365               0.000000000               0.075830897              -0.220454798               0.000000000               0.085136655              -0.243750232               0.000000000               0.094442414              -0.267045665               0.000000000               0.103748172              -0.290341099               0.000000000               0.113053931              -0.313636532               0.000000000               0.122359690              -0.336931966               0.000000000               0.131665448              -0.360227399               0.000000000               0.140971207              -0.383522833               0.000000000               0.150276966              -0.406818266               0.000000000               0.159582724              -0.430113700               0.000000000               0.168888483              -0.453409133               0.000000000               0.178194241              -0.476704567               0.000000000               0.187500000              -0.500000000               0.000000000               0.025947013              -0.130444442               0.000000000               0.032137825              -0.153541665               0.000000000               0.038328636              -0.176638887               0.000000000               0.044519448              -0.199736109               0.000000000               0.050710260              -0.222833332               0.000000000               0.056901071              -0.245930554               0.000000000               0.063091883              -0.269027776               0.000000000               0.069282695              -0.292124999               0.000000000               0.075473506              -0.315222221               0.000000000               0.081664318              -0.338319444               0.000000000               0.087855130              -0.361416666               0.000000000               0.094045942              -0.384513888               0.000000000               0.100236753              -0.407611111               0.000000000               0.106427565              -0.430708333               0.000000000               0.112618377              -0.453805555               0.000000000               0.118809188              -0.476902778               0.000000000               0.125000000              -0.500000000               0.000000000               0.013036280              -0.132359569               0.000000000               0.016127762              -0.155337096               0.000000000               0.019219245              -0.178314623               0.000000000               0.022310727              -0.201292150               0.000000000               0.025402210              -0.224269676               0.000000000               0.028493692              -0.247247203               0.000000000               0.031585175              -0.270224730               0.000000000               0.034676657              -0.293202257               0.000000000               0.037768140              -0.316179784               0.000000000               0.040859622              -0.339157311               0.000000000               0.043951105              -0.362134838               0.000000000               0.047042587              -0.385112365               0.000000000               0.050134070              -0.408089892               0.000000000               0.053225552              -0.431067419               0.000000000               0.056317035              -0.454044946               0.000000000               0.059408517              -0.477022473               0.000000000               0.062500000              -0.500000000               0.000000000               0.000000000              -0.133000000               0.000000000               0.000000000              -0.155937500               0.000000000               0.000000000              -0.178875000               0.000000000               0.000000000              -0.201812500               0.000000000               0.000000000              -0.224750000               0.000000000               0.000000000              -0.247687500               0.000000000               0.000000000              -0.270625000               0.000000000               0.000000000              -0.293562500               0.000000000               0.000000000              -0.316500000               0.000000000               0.000000000              -0.339437500               0.000000000               0.000000000              -0.362375000               0.000000000               0.000000000              -0.385312500               0.000000000               0.000000000              -0.408250000               0.000000000               0.000000000              -0.431187500               0.000000000               0.000000000              -0.454125000               0.000000000               0.000000000              -0.477062500               0.000000000               0.000000000              -0.500000000               0.000000000              -0.133000000               0.000000000               0.000000000              -0.155937500               0.000000000               0.000000000              -0.178875000               0.000000000               0.000000000              -0.201812500               0.000000000               0.000000000              -0.224750000               0.000000000               0.000000000              -0.247687500               0.000000000               0.000000000              -0.270625000               0.000000000               0.000000000              -0.293562500               0.000000000               0.000000000              -0.316500000               0.000000000               0.000000000              -0.339437500               0.000000000               0.000000000              -0.362375000               0.000000000               0.000000000              -0.385312500               0.000000000               0.000000000              -0.408250000               0.000000000               0.000000000              -0.431187500               0.000000000               0.000000000              -0.454125000               0.000000000               0.000000000              -0.477062500               0.000000000               0.000000000              -0.500000000               0.000000000               0.000000000              -0.132359569              -0.013036280               0.000000000              -0.155337096              -0.016127762               0.000000000              -0.178314623              -0.019219245               0.000000000              -0.201292150              -0.022310727               0.000000000              -0.224269676              -0.025402210               0.000000000              -0.247247203              -0.028493692               0.000000000              -0.270224730              -0.031585175               0.000000000              -0.293202257              -0.034676657               0.000000000              -0.316179784              -0.037768140               0.000000000              -0.339157311              -0.040859622               0.000000000              -0.362134838              -0.043951105               0.000000000              -0.385112365              -0.047042587               0.000000000              -0.408089892              -0.050134070               0.000000000              -0.431067419              -0.053225552               0.000000000              -0.454044946              -0.056317035               0.000000000              -0.477022473              -0.059408517               0.000000000              -0.500000000              -0.062500000               0.000000000              -0.130444442              -0.025947013               0.000000000              -0.153541665              -0.032137825               0.000000000              -0.176638887              -0.038328636               0.000000000              -0.199736109              -0.044519448               0.000000000              -0.222833332              -0.050710260               0.000000000              -0.245930554              -0.056901071               0.000000000              -0.269027776              -0.063091883               0.000000000              -0.292124999              -0.069282695               0.000000000              -0.315222221              -0.075473506               0.000000000              -0.338319444              -0.081664318               0.000000000              -0.361416666              -0.087855130               0.000000000              -0.384513888              -0.094045942               0.000000000              -0.407611111              -0.100236753               0.000000000              -0.430708333              -0.106427565               0.000000000              -0.453805555              -0.112618377               0.000000000              -0.476902778              -0.118809188               0.000000000              -0.500000000              -0.125000000               0.000000000              -0.127273065              -0.038607862               0.000000000              -0.150568498              -0.047913621               0.000000000              -0.173863932              -0.057219379               0.000000000              -0.197159365              -0.066525138               0.000000000              -0.220454798              -0.075830897               0.000000000              -0.243750232              -0.085136655               0.000000000              -0.267045665              -0.094442414               0.000000000              -0.290341099              -0.103748172               0.000000000              -0.313636532              -0.113053931               0.000000000              -0.336931966              -0.122359690               0.000000000              -0.360227399              -0.131665448               0.000000000              -0.383522833              -0.140971207               0.000000000              -0.406818266              -0.150276966               0.000000000              -0.430113700              -0.159582724               0.000000000              -0.453409133              -0.168888483               0.000000000              -0.476704567              -0.178194241               0.000000000              -0.500000000              -0.187500000               0.000000000              -0.122875978              -0.050896897               0.000000000              -0.146446229              -0.063340840               0.000000000              -0.170016481              -0.075784784               0.000000000              -0.193586732              -0.088228728               0.000000000              -0.217156983              -0.100672672               0.000000000              -0.240727235              -0.113116616               0.000000000              -0.264297486              -0.125560560               0.000000000              -0.287867738              -0.138004504               0.000000000              -0.311437989              -0.150448448               0.000000000              -0.335008240              -0.162892392               0.000000000              -0.358578492              -0.175336336               0.000000000              -0.382148743              -0.187780280               0.000000000              -0.405718994              -0.200224224               0.000000000              -0.429289246              -0.212668168               0.000000000              -0.452859497              -0.225112112               0.000000000              -0.476429749              -0.237556056               0.000000000              -0.500000000              -0.250000000               0.000000000              -0.117295528              -0.062695766               0.000000000              -0.141214558              -0.078308531               0.000000000              -0.165133587              -0.093921295               0.000000000              -0.189052617              -0.109534060               0.000000000              -0.212971646              -0.125146824               0.000000000              -0.236890676              -0.140759589               0.000000000              -0.260809705              -0.156372354               0.000000000              -0.284728735              -0.171985118               0.000000000              -0.308647764              -0.187597883               0.000000000              -0.332566794              -0.203210648               0.000000000              -0.356485823              -0.218823412               0.000000000              -0.380404853              -0.234436177               0.000000000              -0.404323882              -0.250048941               0.000000000              -0.428242912              -0.265661706               0.000000000              -0.452161941              -0.281274471               0.000000000              -0.476080971              -0.296887235               0.000000000              -0.500000000              -0.312500000               0.000000000              -0.110585458              -0.073890841               0.000000000              -0.134923867              -0.092710163               0.000000000              -0.159262276              -0.111529486               0.000000000              -0.183600685              -0.130348808               0.000000000              -0.207939094              -0.149168131               0.000000000              -0.232277503              -0.167987453               0.000000000              -0.256615912              -0.186806776               0.000000000              -0.280954320              -0.205626098               0.000000000              -0.305292729              -0.224445420               0.000000000              -0.329631138              -0.243264743               0.000000000              -0.353969547              -0.262084065               0.000000000              -0.378307956              -0.280903388               0.000000000              -0.402646365              -0.299722710               0.000000000              -0.426984773              -0.318542033               0.000000000              -0.451323182              -0.337361355               0.000000000              -0.475661591              -0.356180678               0.000000000              -0.500000000              -0.375000000               0.000000000              -0.102810390              -0.084374307               0.000000000              -0.127634741              -0.106444663               0.000000000              -0.152459092              -0.128515018               0.000000000              -0.177283442              -0.150585374               0.000000000              -0.202107793              -0.172655730               0.000000000              -0.226932143              -0.194726086               0.000000000              -0.251756494              -0.216796442               0.000000000              -0.276580845              -0.238866798               0.000000000              -0.301405195              -0.260937153               0.000000000              -0.326229546              -0.283007509               0.000000000              -0.351053896              -0.305077865               0.000000000              -0.375878247              -0.327148221               0.000000000              -0.400702598              -0.349218577               0.000000000              -0.425526948              -0.371288933               0.000000000              -0.450351299              -0.393359288               0.000000000              -0.475175649              -0.415429644               0.000000000              -0.500000000              -0.437500000               0.000000000              -0.094045202              -0.094045202               0.000000000              -0.119417377              -0.119417377               0.000000000              -0.144789552              -0.144789552               0.000000000              -0.170161727              -0.170161727               0.000000000              -0.195533901              -0.195533901               0.000000000              -0.220906076              -0.220906076               0.000000000              -0.246278251              -0.246278251               0.000000000              -0.271650426              -0.271650426               0.000000000              -0.297022601              -0.297022601               0.000000000              -0.322394776              -0.322394776               0.000000000              -0.347766951              -0.347766951               0.000000000              -0.373139126              -0.373139126               0.000000000              -0.398511300              -0.398511300               0.000000000              -0.423883475              -0.423883475               0.000000000              -0.449255650              -0.449255650               0.000000000              -0.474627825              -0.474627825               0.000000000              -0.500000000              -0.500000000               0.000000000              -0.084374307              -0.102810390               0.000000000              -0.106444663              -0.127634741               0.000000000              -0.128515018              -0.152459092               0.000000000              -0.150585374              -0.177283442               0.000000000              -0.172655730              -0.202107793               0.000000000              -0.194726086              -0.226932143               0.000000000              -0.216796442              -0.251756494               0.000000000              -0.238866798              -0.276580845               0.000000000              -0.260937153              -0.301405195               0.000000000              -0.283007509              -0.326229546               0.000000000              -0.305077865              -0.351053896               0.000000000              -0.327148221              -0.375878247               0.000000000              -0.349218577              -0.400702598               0.000000000              -0.371288933              -0.425526948               0.000000000              -0.393359288              -0.450351299               0.000000000              -0.415429644              -0.475175649               0.000000000              -0.437500000              -0.500000000               0.000000000              -0.073890841              -0.110585458               0.000000000              -0.092710163              -0.134923867               0.000000000              -0.111529486              -0.159262276               0.000000000              -0.130348808              -0.183600685               0.000000000              -0.149168131              -0.207939094               0.000000000              -0.167987453              -0.232277503               0.000000000              -0.186806776              -0.256615912               0.000000000              -0.205626098              -0.280954320               0.000000000              -0.224445420              -0.305292729               0.000000000              -0.243264743              -0.329631138               0.000000000              -0.262084065              -0.353969547               0.000000000              -0.280903388              -0.378307956               0.000000000              -0.299722710              -0.402646365               0.000000000              -0.318542033              -0.426984773               0.000000000              -0.337361355              -0.451323182               0.000000000              -0.356180678              -0.475661591               0.000000000              -0.375000000              -0.500000000               0.000000000              -0.062695766              -0.117295528               0.000000000              -0.078308531              -0.141214558               0.000000000              -0.093921295              -0.165133587               0.000000000              -0.109534060              -0.189052617               0.000000000              -0.125146824              -0.212971646               0.000000000              -0.140759589              -0.236890676               0.000000000              -0.156372354              -0.260809705               0.000000000              -0.171985118              -0.284728735               0.000000000              -0.187597883              -0.308647764               0.000000000              -0.203210648              -0.332566794               0.000000000              -0.218823412              -0.356485823               0.000000000              -0.234436177              -0.380404853               0.000000000              -0.250048941              -0.404323882               0.000000000              -0.265661706              -0.428242912               0.000000000              -0.281274471              -0.452161941               0.000000000              -0.296887235              -0.476080971               0.000000000              -0.312500000              -0.500000000               0.000000000              -0.050896897              -0.122875978               0.000000000              -0.063340840              -0.146446229               0.000000000              -0.075784784              -0.170016481               0.000000000              -0.088228728              -0.193586732               0.000000000              -0.100672672              -0.217156983               0.000000000              -0.113116616              -0.240727235               0.000000000              -0.125560560              -0.264297486               0.000000000              -0.138004504              -0.287867738               0.000000000              -0.150448448              -0.311437989               0.000000000              -0.162892392              -0.335008240               0.000000000              -0.175336336              -0.358578492               0.000000000              -0.187780280              -0.382148743               0.000000000              -0.200224224              -0.405718994               0.000000000              -0.212668168              -0.429289246               0.000000000              -0.225112112              -0.452859497               0.000000000              -0.237556056              -0.476429749               0.000000000              -0.250000000              -0.500000000               0.000000000              -0.038607862              -0.127273065               0.000000000              -0.047913621              -0.150568498               0.000000000              -0.057219379              -0.173863932               0.000000000              -0.066525138              -0.197159365               0.000000000              -0.075830897              -0.220454798               0.000000000              -0.085136655              -0.243750232               0.000000000              -0.094442414              -0.267045665               0.000000000              -0.103748172              -0.290341099               0.000000000              -0.113053931              -0.313636532               0.000000000              -0.122359690              -0.336931966               0.000000000              -0.131665448              -0.360227399               0.000000000              -0.140971207              -0.383522833               0.000000000              -0.150276966              -0.406818266               0.000000000              -0.159582724              -0.430113700               0.000000000              -0.168888483              -0.453409133               0.000000000              -0.178194241              -0.476704567               0.000000000              -0.187500000              -0.500000000               0.000000000              -0.025947013              -0.130444442               0.000000000              -0.032137825              -0.153541665               0.000000000              -0.038328636              -0.176638887               0.000000000              -0.044519448              -0.199736109               0.000000000              -0.050710260              -0.222833332               0.000000000              -0.056901071              -0.245930554               0.000000000              -0.063091883              -0.269027776               0.000000000              -0.069282695              -0.292124999               0.000000000              -0.075473506              -0.315222221               0.000000000              -0.081664318              -0.338319444               0.000000000              -0.087855130              -0.361416666               0.000000000              -0.094045942              -0.384513888               0.000000000              -0.100236753              -0.407611111               0.000000000              -0.106427565              -0.430708333               0.000000000              -0.112618377              -0.453805555               0.000000000              -0.118809188              -0.476902778               0.000000000              -0.125000000              -0.500000000               0.000000000              -0.013036280              -0.132359569               0.000000000              -0.016127762              -0.155337096               0.000000000              -0.019219245              -0.178314623               0.000000000              -0.022310727              -0.201292150               0.000000000              -0.025402210              -0.224269676               0.000000000              -0.028493692              -0.247247203               0.000000000              -0.031585175              -0.270224730               0.000000000              -0.034676657              -0.293202257               0.000000000              -0.037768140              -0.316179784               0.000000000              -0.040859622              -0.339157311               0.000000000              -0.043951105              -0.362134838               0.000000000              -0.047042587              -0.385112365               0.000000000              -0.050134070              -0.408089892               0.000000000              -0.053225552              -0.431067419               0.000000000              -0.056317035              -0.454044946               0.000000000              -0.059408517              -0.477022473               0.000000000              -0.062500000              -0.500000000               0.000000000               0.000000000              -0.133000000               0.000000000               0.000000000              -0.155937500               0.000000000               0.000000000              -0.178875000               0.000000000               0.000000000              -0.201812500               0.000000000               0.000000000              -0.224750000               0.000000000               0.000000000              -0.247687500               0.000000000               0.000000000              -0.270625000               0.000000000               0.000000000              -0.293562500               0.000000000               0.000000000              -0.316500000               0.000000000               0.000000000              -0.339437500               0.000000000               0.000000000              -0.362375000               0.000000000               0.000000000              -0.385312500               0.000000000               0.000000000              -0.408250000               0.000000000               0.000000000              -0.431187500               0.000000000               0.000000000              -0.454125000               0.000000000               0.000000000              -0.477062500               0.000000000               0.000000000              -0.500000000               0.000000000              -0.133000000               0.000000000               0.000000000              -0.155937500               0.000000000               0.000000000              -0.178875000               0.000000000               0.000000000              -0.201812500               0.000000000               0.000000000              -0.224750000               0.000000000               0.000000000              -0.247687500               0.000000000               0.000000000              -0.270625000               0.000000000               0.000000000              -0.293562500               0.000000000               0.000000000              -0.316500000               0.000000000               0.000000000              -0.339437500               0.000000000               0.000000000              -0.362375000               0.000000000               0.000000000              -0.385312500               0.000000000               0.000000000              -0.408250000               0.000000000               0.000000000              -0.431187500               0.000000000               0.000000000              -0.454125000               0.000000000               0.000000000              -0.477062500               0.000000000               0.000000000              -0.500000000               0.000000000               0.000000000              -0.132359569               0.013036280               0.000000000              -0.155337096               0.016127762               0.000000000              -0.178314623               0.019219245               0.000000000              -0.201292150               0.022310727               0.000000000              -0.224269676               0.025402210               0.000000000              -0.247247203               0.028493692               0.000000000              -0.270224730               0.031585175               0.000000000              -0.293202257               0.034676657               0.000000000              -0.316179784               0.037768140               0.000000000              -0.339157311               0.040859622               0.000000000              -0.362134838               0.043951105               0.000000000              -0.385112365               0.047042587               0.000000000              -0.408089892               0.050134070               0.000000000              -0.431067419               0.053225552               0.000000000              -0.454044946               0.056317035               0.000000000              -0.477022473               0.059408517               0.000000000              -0.500000000               0.062500000               0.000000000              -0.130444442               0.025947013               0.000000000              -0.153541665               0.032137825               0.000000000              -0.176638887               0.038328636               0.000000000              -0.199736109               0.044519448               0.000000000              -0.222833332               0.050710260               0.000000000              -0.245930554               0.056901071               0.000000000              -0.269027776               0.063091883               0.000000000              -0.292124999               0.069282695               0.000000000              -0.315222221               0.075473506               0.000000000              -0.338319444               0.081664318               0.000000000              -0.361416666               0.087855130               0.000000000              -0.384513888               0.094045942               0.000000000              -0.407611111               0.100236753               0.000000000              -0.430708333               0.106427565               0.000000000              -0.453805555               0.112618377               0.000000000              -0.476902778               0.118809188               0.000000000              -0.500000000               0.125000000               0.000000000              -0.127273065               0.038607862               0.000000000              -0.150568498               0.047913621               0.000000000              -0.173863932               0.057219379               0.000000000              -0.197159365               0.066525138               0.000000000              -0.220454798               0.075830897               0.000000000              -0.243750232               0.085136655               0.000000000              -0.267045665               0.094442414               0.000000000              -0.290341099               0.103748172               0.000000000              -0.313636532               0.113053931               0.000000000              -0.336931966               0.122359690               0.000000000              -0.360227399               0.131665448               0.000000000              -0.383522833               0.140971207               0.000000000              -0.406818266               0.150276966               0.000000000              -0.430113700               0.159582724               0.000000000              -0.453409133               0.168888483               0.000000000              -0.476704567               0.178194241               0.000000000              -0.500000000               0.187500000               0.000000000              -0.122875978               0.050896897               0.000000000              -0.146446229               0.063340840               0.000000000              -0.170016481               0.075784784               0.000000000              -0.193586732               0.088228728               0.000000000              -0.217156983               0.100672672               0.000000000              -0.240727235               0.113116616               0.000000000              -0.264297486               0.125560560               0.000000000              -0.287867738               0.138004504               0.000000000              -0.311437989               0.150448448               0.000000000              -0.335008240               0.162892392               0.000000000              -0.358578492               0.175336336               0.000000000              -0.382148743               0.187780280               0.000000000              -0.405718994               0.200224224               0.000000000              -0.429289246               0.212668168               0.000000000              -0.452859497               0.225112112               0.000000000              -0.476429749               0.237556056               0.000000000              -0.500000000               0.250000000               0.000000000              -0.117295528               0.062695766               0.000000000              -0.141214558               0.078308531               0.000000000              -0.165133587               0.093921295               0.000000000              -0.189052617               0.109534060               0.000000000              -0.212971646               0.125146824               0.000000000              -0.236890676               0.140759589               0.000000000              -0.260809705               0.156372354               0.000000000              -0.284728735               0.171985118               0.000000000              -0.308647764               0.187597883               0.000000000              -0.332566794               0.203210648               0.000000000              -0.356485823               0.218823412               0.000000000              -0.380404853               0.234436177               0.000000000              -0.404323882               0.250048941               0.000000000              -0.428242912               0.265661706               0.000000000              -0.452161941               0.281274471               0.000000000              -0.476080971               0.296887235               0.000000000              -0.500000000               0.312500000               0.000000000              -0.110585458               0.073890841               0.000000000              -0.134923867               0.092710163               0.000000000              -0.159262276               0.111529486               0.000000000              -0.183600685               0.130348808               0.000000000              -0.207939094               0.149168131               0.000000000              -0.232277503               0.167987453               0.000000000              -0.256615912               0.186806776               0.000000000              -0.280954320               0.205626098               0.000000000              -0.305292729               0.224445420               0.000000000              -0.329631138               0.243264743               0.000000000              -0.353969547               0.262084065               0.000000000              -0.378307956               0.280903388               0.000000000              -0.402646365               0.299722710               0.000000000              -0.426984773               0.318542033               0.000000000              -0.451323182               0.337361355               0.000000000              -0.475661591               0.356180678               0.000000000              -0.500000000               0.375000000               0.000000000              -0.102810390               0.084374307               0.000000000              -0.127634741               0.106444663               0.000000000              -0.152459092               0.128515018               0.000000000              -0.177283442               0.150585374               0.000000000              -0.202107793               0.172655730               0.000000000              -0.226932143               0.194726086               0.000000000              -0.251756494               0.216796442               0.000000000              -0.276580845               0.238866798               0.000000000              -0.301405195               0.260937153               0.000000000              -0.326229546               0.283007509               0.000000000              -0.351053896               0.305077865               0.000000000              -0.375878247               0.327148221               0.000000000              -0.400702598               0.349218577               0.000000000              -0.425526948               0.371288933               0.000000000              -0.450351299               0.393359288               0.000000000              -0.475175649               0.415429644               0.000000000              -0.500000000               0.437500000               0.000000000              -0.094045202               0.094045202               0.000000000              -0.119417377               0.119417377               0.000000000              -0.144789552               0.144789552               0.000000000              -0.170161727               0.170161727               0.000000000              -0.195533901               0.195533901               0.000000000              -0.220906076               0.220906076               0.000000000              -0.246278251               0.246278251               0.000000000              -0.271650426               0.271650426               0.000000000              -0.297022601               0.297022601               0.000000000              -0.322394776               0.322394776               0.000000000              -0.347766951               0.347766951               0.000000000              -0.373139126               0.373139126               0.000000000              -0.398511300               0.398511300               0.000000000              -0.423883475               0.423883475               0.000000000              -0.449255650               0.449255650               0.000000000              -0.474627825               0.474627825               0.000000000              -0.500000000               0.500000000               0.000000000              -0.084374307               0.102810390               0.000000000              -0.106444663               0.127634741               0.000000000              -0.128515018               0.152459092               0.000000000              -0.150585374               0.177283442               0.000000000              -0.172655730               0.202107793               0.000000000              -0.194726086               0.226932143               0.000000000              -0.216796442               0.251756494               0.000000000              -0.238866798               0.276580845               0.000000000              -0.260937153               0.301405195               0.000000000              -0.283007509               0.326229546               0.000000000              -0.305077865               0.351053896               0.000000000              -0.327148221               0.375878247               0.000000000              -0.349218577               0.400702598               0.000000000              -0.371288933               0.425526948               0.000000000              -0.393359288               0.450351299               0.000000000              -0.415429644               0.475175649               0.000000000              -0.437500000               0.500000000               0.000000000              -0.073890841               0.110585458               0.000000000              -0.092710163               0.134923867               0.000000000              -0.111529486               0.159262276               0.000000000              -0.130348808               0.183600685               0.000000000              -0.149168131               0.207939094               0.000000000              -0.167987453               0.232277503               0.000000000              -0.186806776               0.256615912               0.000000000              -0.205626098               0.280954320               0.000000000              -0.224445420               0.305292729               0.000000000              -0.243264743               0.329631138               0.000000000              -0.262084065               0.353969547               0.000000000              -0.280903388               0.378307956               0.000000000              -0.299722710               0.402646365               0.000000000              -0.318542033               0.426984773               0.000000000              -0.337361355               0.451323182               0.000000000              -0.356180678               0.475661591               0.000000000              -0.375000000               0.500000000               0.000000000              -0.062695766               0.117295528               0.000000000              -0.078308531               0.141214558               0.000000000              -0.093921295               0.165133587               0.000000000              -0.109534060               0.189052617               0.000000000              -0.125146824               0.212971646               0.000000000              -0.140759589               0.236890676               0.000000000              -0.156372354               0.260809705               0.000000000              -0.171985118               0.284728735               0.000000000              -0.187597883               0.308647764               0.000000000              -0.203210648               0.332566794               0.000000000              -0.218823412               0.356485823               0.000000000              -0.234436177               0.380404853               0.000000000              -0.250048941               0.404323882               0.000000000              -0.265661706               0.428242912               0.000000000              -0.281274471               0.452161941               0.000000000              -0.296887235               0.476080971               0.000000000              -0.312500000               0.500000000               0.000000000              -0.050896897               0.122875978               0.000000000              -0.063340840               0.146446229               0.000000000              -0.075784784               0.170016481               0.000000000              -0.088228728               0.193586732               0.000000000              -0.100672672               0.217156983               0.000000000              -0.113116616               0.240727235               0.000000000              -0.125560560               0.264297486               0.000000000              -0.138004504               0.287867738               0.000000000              -0.150448448               0.311437989               0.000000000              -0.162892392               0.335008240               0.000000000              -0.175336336               0.358578492               0.000000000              -0.187780280               0.382148743               0.000000000              -0.200224224               0.405718994               0.000000000              -0.212668168               0.429289246               0.000000000              -0.225112112               0.452859497               0.000000000              -0.237556056               0.476429749               0.000000000              -0.250000000               0.500000000               0.000000000              -0.038607862               0.127273065               0.000000000              -0.047913621               0.150568498               0.000000000              -0.057219379               0.173863932               0.000000000              -0.066525138               0.197159365               0.000000000              -0.075830897               0.220454798               0.000000000              -0.085136655               0.243750232               0.000000000              -0.094442414               0.267045665               0.000000000              -0.103748172               0.290341099               0.000000000              -0.113053931               0.313636532               0.000000000              -0.122359690               0.336931966               0.000000000              -0.131665448               0.360227399               0.000000000              -0.140971207               0.383522833               0.000000000              -0.150276966               0.406818266               0.000000000              -0.159582724               0.430113700               0.000000000              -0.168888483               0.453409133               0.000000000              -0.178194241               0.476704567               0.000000000              -0.187500000               0.500000000               0.000000000              -0.025947013               0.130444442               0.000000000              -0.032137825               0.153541665               0.000000000              -0.038328636               0.176638887               0.000000000              -0.044519448               0.199736109               0.000000000              -0.050710260               0.222833332               0.000000000              -0.056901071               0.245930554               0.000000000              -0.063091883               0.269027776               0.000000000              -0.069282695               0.292124999               0.000000000              -0.075473506               0.315222221               0.000000000              -0.081664318               0.338319444               0.000000000              -0.087855130               0.361416666               0.000000000              -0.094045942               0.384513888               0.000000000              -0.100236753               0.407611111               0.000000000              -0.106427565               0.430708333               0.000000000              -0.112618377               0.453805555               0.000000000              -0.118809188               0.476902778               0.000000000              -0.125000000               0.500000000               0.000000000              -0.013036280               0.132359569               0.000000000              -0.016127762               0.155337096               0.000000000              -0.019219245               0.178314623               0.000000000              -0.022310727               0.201292150               0.000000000              -0.025402210               0.224269676               0.000000000              -0.028493692               0.247247203               0.000000000              -0.031585175               0.270224730               0.000000000              -0.034676657               0.293202257               0.000000000              -0.037768140               0.316179784               0.000000000              -0.040859622               0.339157311               0.000000000              -0.043951105               0.362134838               0.000000000              -0.047042587               0.385112365               0.000000000              -0.050134070               0.408089892               0.000000000              -0.053225552               0.431067419               0.000000000              -0.056317035               0.454044946               0.000000000              -0.059408517               0.477022473               0.000000000              -0.062500000               0.500000000               0.000000000               0.000000000               0.133000000               0.000000000               0.000000000               0.155937500               0.000000000               0.000000000               0.178875000               0.000000000               0.000000000               0.201812500               0.000000000               0.000000000               0.224750000               0.000000000               0.000000000               0.247687500               0.000000000               0.000000000               0.270625000               0.000000000               0.000000000               0.293562500               0.000000000               0.000000000               0.316500000               0.000000000               0.000000000               0.339437500               0.000000000               0.000000000               0.362375000               0.000000000               0.000000000               0.385312500               0.000000000               0.000000000               0.408250000               0.000000000               0.000000000               0.431187500               0.000000000               0.000000000               0.454125000               0.000000000               0.000000000               0.477062500               0.000000000               0.000000000               0.500000000               0.000000000 </DataArray>
</Points>
<Cells>
<DataArray type="Int32"                                    Name="connectivity"                                                      NumberOfComponents=" 1" format="ascii">
         0          1         18         17          1          2         19         18          2          3         20         19          3          4         21         20          4          5         22         21          5          6         23         22          6          7         24         23          7          8         25         24          8          9         26         25          9         10         27         26         10         11         28         27         11         12         29         28         12         13         30         29         13         14         31         30         14         15         32         31         15         16         33         32         17         18         35         34         18         19         36         35         19         20         37         36         20         21         38         37         21         22         39         38         22         23         40         39         23         24         41         40         24         25         42         41         25         26         43         42         26         27         44         43         27         28         45         44         28         29         46         45         29         30         47         46         30         31         48         47         31         32         49         48         32         33         50         49         34         35         52         51         35         36         53         52         36         37         54         53         37         38         55         54         38         39         56         55         39         40         57         56         40         41         58         57         41         42         59         58         42         43         60         59         43         44         61         60         44         45         62         61         45         46         63         62         46         47         64         63         47         48         65         64         48         49         66         65         49         50         67         66         51         52         69         68         52         53         70         69         53         54         71         70         54         55         72         71         55         56         73         72         56         57         74         73         57         58         75         74         58         59         76         75         59         60         77         76         60         61         78         77         61         62         79         78         62         63         80         79         63         64         81         80         64         65         82         81         65         66         83         82         66         67         84         83         68         69         86         85         69         70         87         86         70         71         88         87         71         72         89         88         72         73         90         89         73         74         91         90         74         75         92         91         75         76         93         92         76         77         94         93         77         78         95         94         78         79         96         95         79         80         97         96         80         81         98         97         81         82         99         98         82         83        100         99         83         84        101        100         85         86        103        102         86         87        104        103         87         88        105        104         88         89        106        105         89         90        107        106         90         91        108        107         91         92        109        108         92         93        110        109         93         94        111        110         94         95        112        111         95         96        113        112         96         97        114        113         97         98        115        114         98         99        116        115         99        100        117        116        100        101        118        117        102        103        120        119        103        104        121        120        104        105        122        121        105        106        123        122        106        107        124        123        107        108        125        124        108        109        126        125        109        110        127        126        110        111        128        127        111        112        129        128        112        113        130        129        113        114        131        130        114        115        132        131        115        116        133        132        116        117        134        133        117        118        135        134        119        120        137        136        120        121        138        137        121        122        139        138        122        123        140        139        123        124        141        140        124        125        142        141        125        126        143        142        126        127        144        143        127        128        145        144        128        129        146        145        129        130        147        146        130        131        148        147        131        132        149        148        132        133        150        149        133        134        151        150        134        135        152        151        136        137        154        153        137        138        155        154        138        139        156        155        139        140        157        156        140        141        158        157        141        142        159        158        142        143        160        159        143        144        161        160        144        145        162        161        145        146        163        162        146        147        164        163        147        148        165        164        148        149        166        165        149        150        167        166        150        151        168        167        151        152        169        168        153        154        171        170        154        155        172        171        155        156        173        172        156        157        174        173        157        158        175        174        158        159        176        175        159        160        177        176        160        161        178        177        161        162        179        178        162        163        180        179        163        164        181        180        164        165        182        181        165        166        183        182        166        167        184        183        167        168        185        184        168        169        186        185        170        171        188        187        171        172        189        188        172        173        190        189        173        174        191        190        174        175        192        191        175        176        193        192        176        177        194        193        177        178        195        194        178        179        196        195        179        180        197        196        180        181        198        197        181        182        199        198        182        183        200        199        183        184        201        200        184        185        202        201        185        186        203        202        187        188        205        204        188        189        206        205        189        190        207        206        190        191        208        207        191        192        209        208        192        193        210        209        193        194        211        210        194        195        212        211        195        196        213        212        196        197        214        213        197        198        215        214        198        199        216        215        199        200        217        216        200        201        218        217        201        202        219        218        202        203        220        219        204        205        222        221        205        206        223        222        206        207        224        223        207        208        225        224        208        209        226        225        209        210        227        226        210        211        228        227        211        212        229        228        212        213        230        229        213        214        231        230        214        215        232        231        215        216        233        232        216        217        234        233        217        218        235        234        218        219        236        235        219        220        237        236        221        222        239        238        222        223        240        239        223        224        241        240        224        225        242        241        225        226        243        242        226        227        244        243        227        228        245        244        228        229        246        245        229        230        247        246        230        231        248        247        231        232        249        248        232        233        250        249        233        234        251        250        234        235        252        251        235        236        253        252        236        237        254        253        238        239        256        255        239        240        257        256        240        241        258        257        241        242        259        258        242        243        260        259        243        244        261        260        244        245        262        261        245        246        263        262        246        247        264        263        247        248        265        264        248        249        266        265        249        250        267        266        250        251        268        267        251        252        269        268        252        253        270        269        253        254        271        270        255        256        273        272        256        257        274        273        257        258        275        274        258        259        276        275        259        260        277        276        260        261        278        277        261        262        279        278        262        263        280        279        263        264        281        280        264        265        282        281        265        266        283        282        266        267        284        283        267        268        285        284        268        269        286        285        269        270        287        286        270        271        288        287        306        307          1          0        307        308          2          1        308        309          3          2        309        310          4          3        310        311          5          4        311        312          6          5        312        313          7          6        313        314          8          7        314        315          9          8        315        316         10          9        316        317         11         10        317        318         12         11        318        319         13         12        319        320         14         13        320        321         15         14        321        322         16         15        323        324        307        306        324        325        308        307        325        326        309        308        326        327        310        309        327        328        311        310        328        329        312        311        329        330        313        312        330        331        314        313        331        332        315        314        332        333        316        315        333        334        317        316        334        335        318        317        335        336        319        318        336        337        320        319        337        338        321        320        338        339        322        321        340        341        324        323        341        342        325        324        342        343        326        325        343        344        327        326        344        345        328        327        345        346        329        328        346        347        330        329        347        348        331        330        348        349        332        331        349        350        333        332        350        351        334        333        351        352        335        334        352        353        336        335        353        354        337        336        354        355        338        337        355        356        339        338        357        358        341        340        358        359        342        341        359        360        343        342        360        361        344        343        361        362        345        344        362        363        346        345        363        364        347        346        364        365        348        347        365        366        349        348        366        367        350        349        367        368        351        350        368        369        352        351        369        370        353        352        370        371        354        353        371        372        355        354        372        373        356        355        374        375        358        357        375        376        359        358        376        377        360        359        377        378        361        360        378        379        362        361        379        380        363        362        380        381        364        363        381        382        365        364        382        383        366        365        383        384        367        366        384        385        368        367        385        386        369        368        386        387        370        369        387        388        371        370        388        389        372        371        389        390        373        372        391        392        375        374        392        393        376        375        393        394        377        376        394        395        378        377        395        396        379        378        396        397        380        379        397        398        381        380        398        399        382        381        399        400        383        382        400        401        384        383        401        402        385        384        402        403        386        385        403        404        387        386        404        405        388        387        405        406        389        388        406        407        390        389        408        409        392        391        409        410        393        392        410        411        394        393        411        412        395        394        412        413        396        395        413        414        397        396        414        415        398        397        415        416        399        398        416        417        400        399        417        418        401        400        418        419        402        401        419        420        403        402        420        421        404        403        421        422        405        404        422        423        406        405        423        424        407        406        425        426        409        408        426        427        410        409        427        428        411        410        428        429        412        411        429        430        413        412        430        431        414        413        431        432        415        414        432        433        416        415        433        434        417        416        434        435        418        417        435        436        419        418        436        437        420        419        437        438        421        420        438        439        422        421        439        440        423        422        440        441        424        423        442        443        426        425        443        444        427        426        444        445        428        427        445        446        429        428        446        447        430        429        447        448        431        430        448        449        432        431        449        450        433        432        450        451        434        433        451        452        435        434        452        453        436        435        453        454        437        436        454        455        438        437        455        456        439        438        456        457        440        439        457        458        441        440        459        460        443        442        460        461        444        443        461        462        445        444        462        463        446        445        463        464        447        446        464        465        448        447        465        466        449        448        466        467        450        449        467        468        451        450        468        469        452        451        469        470        453        452        470        471        454        453        471        472        455        454        472        473        456        455        473        474        457        456        474        475        458        457        476        477        460        459        477        478        461        460        478        479        462        461        479        480        463        462        480        481        464        463        481        482        465        464        482        483        466        465        483        484        467        466        484        485        468        467        485        486        469        468        486        487        470        469        487        488        471        470        488        489        472        471        489        490        473        472        490        491        474        473        491        492        475        474        493        494        477        476        494        495        478        477        495        496        479        478        496        497        480        479        497        498        481        480        498        499        482        481        499        500        483        482        500        501        484        483        501        502        485        484        502        503        486        485        503        504        487        486        504        505        488        487        505        506        489        488        506        507        490        489        507        508        491        490        508        509        492        491        510        511        494        493        511        512        495        494        512        513        496        495        513        514        497        496        514        515        498        497        515        516        499        498        516        517        500        499        517        518        501        500        518        519        502        501        519        520        503        502        520        521        504        503        521        522        505        504        522        523        506        505        523        524        507        506        524        525        508        507        525        526        509        508        527        528        511        510        528        529        512        511        529        530        513        512        530        531        514        513        531        532        515        514        532        533        516        515        533        534        517        516        534        535        518        517        535        536        519        518        536        537        520        519        537        538        521        520        538        539        522        521        539        540        523        522        540        541        524        523        541        542        525        524        542        543        526        525        544        545        528        527        545        546        529        528        546        547        530        529        547        548        531        530        548        549        532        531        549        550        533        532        550        551        534        533        551        552        535        534        552        553        536        535        553        554        537        536        554        555        538        537        555        556        539        538        556        557        540        539        557        558        541        540        558        559        542        541        559        560        543        542        561        562        545        544        562        563        546        545        563        564        547        546        564        565        548        547        565        566        549        548        566        567        550        549        567        568        551        550        568        569        552        551        569        570        553        552        570        571        554        553        571        572        555        554        572        573        556        555        573        574        557        556        574        575        558        557        575        576        559        558        576        577        560        559        578        579        596        595        579        580        597        596        580        581        598        597        581        582        599        598        582        583        600        599        583        584        601        600        584        585        602        601        585        586        603        602        586        587        604        603        587        588        605        604        588        589        606        605        589        590        607        606        590        591        608        607        591        592        609        608        592        593        610        609        593        594        611        610        595        596        613        612        596        597        614        613        597        598        615        614        598        599        616        615        599        600        617        616        600        601        618        617        601        602        619        618        602        603        620        619        603        604        621        620        604        605        622        621        605        606        623        622        606        607        624        623        607        608        625        624        608        609        626        625        609        610        627        626        610        611        628        627        612        613        630        629        613        614        631        630        614        615        632        631        615        616        633        632        616        617        634        633        617        618        635        634        618        619        636        635        619        620        637        636        620        621        638        637        621        622        639        638        622        623        640        639        623        624        641        640        624        625        642        641        625        626        643        642        626        627        644        643        627        628        645        644        629        630        647        646        630        631        648        647        631        632        649        648        632        633        650        649        633        634        651        650        634        635        652        651        635        636        653        652        636        637        654        653        637        638        655        654        638        639        656        655        639        640        657        656        640        641        658        657        641        642        659        658        642        643        660        659        643        644        661        660        644        645        662        661        646        647        664        663        647        648        665        664        648        649        666        665        649        650        667        666        650        651        668        667        651        652        669        668        652        653        670        669        653        654        671        670        654        655        672        671        655        656        673        672        656        657        674        673        657        658        675        674        658        659        676        675        659        660        677        676        660        661        678        677        661        662        679        678        663        664        681        680        664        665        682        681        665        666        683        682        666        667        684        683        667        668        685        684        668        669        686        685        669        670        687        686        670        671        688        687        671        672        689        688        672        673        690        689        673        674        691        690        674        675        692        691        675        676        693        692        676        677        694        693        677        678        695        694        678        679        696        695        680        681        698        697        681        682        699        698        682        683        700        699        683        684        701        700        684        685        702        701        685        686        703        702        686        687        704        703        687        688        705        704        688        689        706        705        689        690        707        706        690        691        708        707        691        692        709        708        692        693        710        709        693        694        711        710        694        695        712        711        695        696        713        712        697        698        715        714        698        699        716        715        699        700        717        716        700        701        718        717        701        702        719        718        702        703        720        719        703        704        721        720        704        705        722        721        705        706        723        722        706        707        724        723        707        708        725        724        708        709        726        725        709        710        727        726        710        711        728        727        711        712        729        728        712        713        730        729        714        715        732        731        715        716        733        732        716        717        734        733        717        718        735        734        718        719        736        735        719        720        737        736        720        721        738        737        721        722        739        738        722        723        740        739        723        724        741        740        724        725        742        741        725        726        743        742        726        727        744        743        727        728        745        744        728        729        746        745        729        730        747        746        731        732        749        748        732        733        750        749        733        734        751        750        734        735        752        751        735        736        753        752        736        737        754        753        737        738        755        754        738        739        756        755        739        740        757        756        740        741        758        757        741        742        759        758        742        743        760        759        743        744        761        760        744        745        762        761        745        746        763        762        746        747        764        763        748        749        766        765        749        750        767        766        750        751        768        767        751        752        769        768        752        753        770        769        753        754        771        770        754        755        772        771        755        756        773        772        756        757        774        773        757        758        775        774        758        759        776        775        759        760        777        776        760        761        778        777        761        762        779        778        762        763        780        779        763        764        781        780        765        766        783        782        766        767        784        783        767        768        785        784        768        769        786        785        769        770        787        786        770        771        788        787        771        772        789        788        772        773        790        789        773        774        791        790        774        775        792        791        775        776        793        792        776        777        794        793        777        778        795        794        778        779        796        795        779        780        797        796        780        781        798        797        782        783        800        799        783        784        801        800        784        785        802        801        785        786        803        802        786        787        804        803        787        788        805        804        788        789        806        805        789        790        807        806        790        791        808        807        791        792        809        808        792        793        810        809        793        794        811        810        794        795        812        811        795        796        813        812        796        797        814        813        797        798        815        814        799        800        817        816        800        801        818        817        801        802        819        818        802        803        820        819        803        804        821        820        804        805        822        821        805        806        823        822        806        807        824        823        807        808        825        824        808        809        826        825        809        810        827        826        810        811        828        827        811        812        829        828        812        813        830        829        813        814        831        830        814        815        832        831        816        817        834        833        817        818        835        834        818        819        836        835        819        820        837        836        820        821        838        837        821        822        839        838        822        823        840        839        823        824        841        840        824        825        842        841        825        826        843        842        826        827        844        843        827        828        845        844        828        829        846        845        829        830        847        846        830        831        848        847        831        832        849        848        833        834        562        561        834        835        563        562        835        836        564        563        836        837        565        564        837        838        566        565        838        839        567        566        839        840        568        567        840        841        569        568        841        842        570        569        842        843        571        570        843        844        572        571        844        845        573        572        845        846        574        573        846        847        575        574        847        848        576        575        848        849        577        576        884        885        579        578        885        886        580        579        886        887        581        580        887        888        582        581        888        889        583        582        889        890        584        583        890        891        585        584        891        892        586        585        892        893        587        586        893        894        588        587        894        895        589        588        895        896        590        589        896        897        591        590        897        898        592        591        898        899        593        592        899        900        594        593        901        902        885        884        902        903        886        885        903        904        887        886        904        905        888        887        905        906        889        888        906        907        890        889        907        908        891        890        908        909        892        891        909        910        893        892        910        911        894        893        911        912        895        894        912        913        896        895        913        914        897        896        914        915        898        897        915        916        899        898        916        917        900        899        918        919        902        901        919        920        903        902        920        921        904        903        921        922        905        904        922        923        906        905        923        924        907        906        924        925        908        907        925        926        909        908        926        927        910        909        927        928        911        910        928        929        912        911        929        930        913        912        930        931        914        913        931        932        915        914        932        933        916        915        933        934        917        916        935        936        919        918        936        937        920        919        937        938        921        920        938        939        922        921        939        940        923        922        940        941        924        923        941        942        925        924        942        943        926        925        943        944        927        926        944        945        928        927        945        946        929        928        946        947        930        929        947        948        931        930        948        949        932        931        949        950        933        932        950        951        934        933        952        953        936        935        953        954        937        936        954        955        938        937        955        956        939        938        956        957        940        939        957        958        941        940        958        959        942        941        959        960        943        942        960        961        944        943        961        962        945        944        962        963        946        945        963        964        947        946        964        965        948        947        965        966        949        948        966        967        950        949        967        968        951        950        969        970        953        952        970        971        954        953        971        972        955        954        972        973        956        955        973        974        957        956        974        975        958        957        975        976        959        958        976        977        960        959        977        978        961        960        978        979        962        961        979        980        963        962        980        981        964        963        981        982        965        964        982        983        966        965        983        984        967        966        984        985        968        967        986        987        970        969        987        988        971        970        988        989        972        971        989        990        973        972        990        991        974        973        991        992        975        974        992        993        976        975        993        994        977        976        994        995        978        977        995        996        979        978        996        997        980        979        997        998        981        980        998        999        982        981        999       1000        983        982       1000       1001        984        983       1001       1002        985        984       1003       1004        987        986       1004       1005        988        987       1005       1006        989        988       1006       1007        990        989       1007       1008        991        990       1008       1009        992        991       1009       1010        993        992       1010       1011        994        993       1011       1012        995        994       1012       1013        996        995       1013       1014        997        996       1014       1015        998        997       1015       1016        999        998       1016       1017       1000        999       1017       1018       1001       1000       1018       1019       1002       1001       1020       1021       1004       1003       1021       1022       1005       1004       1022       1023       1006       1005       1023       1024       1007       1006       1024       1025       1008       1007       1025       1026       1009       1008       1026       1027       1010       1009       1027       1028       1011       1010       1028       1029       1012       1011       1029       1030       1013       1012       1030       1031       1014       1013       1031       1032       1015       1014       1032       1033       1016       1015       1033       1034       1017       1016       1034       1035       1018       1017       1035       1036       1019       1018       1037       1038       1021       1020       1038       1039       1022       1021       1039       1040       1023       1022       1040       1041       1024       1023       1041       1042       1025       1024       1042       1043       1026       1025       1043       1044       1027       1026       1044       1045       1028       1027       1045       1046       1029       1028       1046       1047       1030       1029       1047       1048       1031       1030       1048       1049       1032       1031       1049       1050       1033       1032       1050       1051       1034       1033       1051       1052       1035       1034       1052       1053       1036       1035       1054       1055       1038       1037       1055       1056       1039       1038       1056       1057       1040       1039       1057       1058       1041       1040       1058       1059       1042       1041       1059       1060       1043       1042       1060       1061       1044       1043       1061       1062       1045       1044       1062       1063       1046       1045       1063       1064       1047       1046       1064       1065       1048       1047       1065       1066       1049       1048       1066       1067       1050       1049       1067       1068       1051       1050       1068       1069       1052       1051       1069       1070       1053       1052       1071       1072       1055       1054       1072       1073       1056       1055       1073       1074       1057       1056       1074       1075       1058       1057       1075       1076       1059       1058       1076       1077       1060       1059       1077       1078       1061       1060       1078       1079       1062       1061       1079       1080       1063       1062       1080       1081       1064       1063       1081       1082       1065       1064       1082       1083       1066       1065       1083       1084       1067       1066       1084       1085       1068       1067       1085       1086       1069       1068       1086       1087       1070       1069       1088       1089       1072       1071       1089       1090       1073       1072       1090       1091       1074       1073       1091       1092       1075       1074       1092       1093       1076       1075       1093       1094       1077       1076       1094       1095       1078       1077       1095       1096       1079       1078       1096       1097       1080       1079       1097       1098       1081       1080       1098       1099       1082       1081       1099       1100       1083       1082       1100       1101       1084       1083       1101       1102       1085       1084       1102       1103       1086       1085       1103       1104       1087       1086       1105       1106       1089       1088       1106       1107       1090       1089       1107       1108       1091       1090       1108       1109       1092       1091       1109       1110       1093       1092       1110       1111       1094       1093       1111       1112       1095       1094       1112       1113       1096       1095       1113       1114       1097       1096       1114       1115       1098       1097       1115       1116       1099       1098       1116       1117       1100       1099       1117       1118       1101       1100       1118       1119       1102       1101       1119       1120       1103       1102       1120       1121       1104       1103       1122       1123       1106       1105       1123       1124       1107       1106       1124       1125       1108       1107       1125       1126       1109       1108       1126       1127       1110       1109       1127       1128       1111       1110       1128       1129       1112       1111       1129       1130       1113       1112       1130       1131       1114       1113       1131       1132       1115       1114       1132       1133       1116       1115       1133       1134       1117       1116       1134       1135       1118       1117       1135       1136       1119       1118       1136       1137       1120       1119       1137       1138       1121       1120        272        273       1123       1122        273        274       1124       1123        274        275       1125       1124        275        276       1126       1125        276        277       1127       1126        277        278       1128       1127        278        279       1129       1128        279        280       1130       1129        280        281       1131       1130        281        282       1132       1131        282        283       1133       1132        283        284       1134       1133        284        285       1135       1134        285        286       1136       1135        286        287       1137       1136        287        288       1138       1137 </DataArray>
<DataArray type="Int32"                                    Name="offsets"                                                      NumberOfComponents=" 1" format="ascii">
         4          8         12         16         20         24         28         32         36         40         44         48         52         56         60         64         68         72         76         80         84         88         92         96        100        104        108        112        116        120        124        128        132        136        140        144        148        152        156        160        164        168        172        176        180        184        188        192        196        200        204        208        212        216        220        224        228        232        236        240        244        248        252        256        260        264        268        272        276        280        284        288        292        296        300        304        308        312        316        320        324        328        332        336        340        344        348        352        356        360        364        368        372        376        380        384        388        392        396        400        404        408        412        416        420        424        428        432        436        440        444        448        452        456        460        464        468        472        476        480        484        488        492        496        500        504        508        512        516        520        524        528        532        536        540        544        548        552        556        560        564        568        572        576        580        584        588        592        596        600        604        608        612        616        620        624        628        632        636        640        644        648        652        656        660        664        668        672        676        680        684        688        692        696        700        704        708        712        716        720        724        728        732        736        740        744        748        752        756        760        764        768        772        776        780        784        788        792        796        800        804        808        812        816        820        824        828        832        836        840        844        848        852        856        860        864        868        872        876        880        884        888        892        896        900        904        908        912        916        920        924        928        932        936        940        944        948        952        956        960        964        968        972        976        980        984        988        992        996       1000       1004       1008       1012       1016       1020       1024       1028       1032       1036       1040       1044       1048       1052       1056       1060       1064       1068       1072       1076       1080       1084       1088       1092       1096       1100       1104       1108       1112       1116       1120       1124       1128       1132       1136       1140       1144       1148       1152       1156       1160       1164       1168       1172       1176       1180       1184       1188       1192       1196       1200       1204       1208       1212       1216       1220       1224       1228       1232       1236       1240       1244       1248       1252       1256       1260       1264       1268       1272       1276       1280       1284       1288       1292       1296       1300       1304       1308       1312       1316       1320       1324       1328       1332       1336       1340       1344       1348       1352       1356       1360       1364       1368       1372       1376       1380       1384       1388       1392       1396       1400       1404       1408       1412       1416       1420       1424       1428       1432       1436       1440       1444       1448       1452       1456       1460       1464       1468       1472       1476       1480       1484       1488       1492       1496       1500       1504       1508       1512       1516       1520       1524       1528       1532       1536       1540       1544       1548       1552       1556       1560       1564       1568       1572       1576       1580       1584       1588       1592       1596       1600       1604       1608       1612       1616       1620       1624       1628       1632       1636       1640       1644       1648       1652       1656       1660       1664       1668       1672       1676       1680       1684       1688       1692       1696       1700       1704       1708       1712       1716       1720       1724       1728       1732       1736       1740       1744       1748       1752       1756       1760       1764       1768       1772       1776       1780       1784       1788       1792       1796       1800       1804       1808       1812       1816       1820       1824       1828       1832       1836       1840       1844       1848       1852       1856       1860       1864       1868       1872       1876       1880       1884       1888       1892       1896       1900       1904       1908       1912       1916       1920       1924       1928       1932       1936       1940       1944       1948       1952       1956       1960       1964       1968       1972       1976       1980       1984       1988       1992       1996       2000       2004       2008       2012       2016       2020       2024       2028       2032       2036       2040       2044       2048       2052       2056       2060       2064       2068       2072       2076       2080       2084       2088       2092       2096       2100       2104       2108       2112       2116       2120       2124       2128       2132       2136       2140       2144       2148       2152       2156       2160       2164       2168       2172       2176       2180       2184       2188       2192       2196       2200       2204       2208       2212       2216       2220       2224       2228       2232       2236       2240       2244       2248       2252       2256       2260       2264       2268       2272       2276       2280       2284       2288       2292       2296       2300       2304       2308       2312       2316       2320       2324       2328       2332       2336       2340       2344       2348       2352       2356       2360       2364       2368       2372       2376       2380       2384       2388       2392       2396       2400       2404       2408       2412       2416       2420       2424       2428       2432       2436       2440       2444       2448       2452       2456       2460       2464       2468       2472       2476       2480       2484       2488       2492       2496       2500       2504       2508       2512       2516       2520       2524       2528       2532       2536       2540       2544       2548       2552       2556       2560       2564       2568       2572       2576       2580       2584       2588       2592       2596       2600       2604       2608       2612       2616       2620       2624       2628       2632       2636       2640       2644       2648       2652       2656       2660       2664       2668       2672       2676       2680       2684       2688       2692       2696       2700       2704       2708       2712       2716       2720       2724       2728       2732       2736       2740       2744       2748       2752       2756       2760       2764       2768       2772       2776       2780       2784       2788       2792       2796       2800       2804       2808       2812       2816       2820       2824       2828       2832       2836       2840       2844       2848       2852       2856       2860       2864       2868       2872       2876       2880       2884       2888       2892       2896       2900       2904       2908       2912       2916       2920       2924       2928       2932       2936       2940       2944       2948       2952       2956       2960       2964       2968       2972       2976       2980       2984       2988       2992       2996       3000       3004       3008       3012       3016       3020       3024       3028       3032       3036       3040       3044       3048       3052       3056       3060       3064       3068       3072       3076       3080       3084       3088       3092       3096       3100       3104       3108       3112       3116       3120       3124       3128       3132       3136       3140       3144       3148       3152       3156       3160       3164       3168       3172       3176       3180       3184       3188       3192       3196       3200       3204       3208       3212       3216       3220       3224       3228       3232       3236       3240       3244       3248       3252       3256       3260       3264       3268       3272       3276       3280       3284       3288       3292       3296       3300       3304       3308       3312       3316       3320       3324       3328       3332       3336       3340       3344       3348       3352       3356       3360       3364       3368       3372       3376       3380       3384       3388       3392       3396       3400       3404       3408       3412       3416       3420       3424       3428       3432       3436       3440       3444       3448       3452       3456       3460       3464       3468       3472       3476       3480       3484       3488       3492       3496       3500       3504       3508       3512       3516       3520       3524       3528       3532       3536       3540       3544       3548       3552       3556       3560       3564       3568       3572       3576       3580       3584       3588       3592       3596       3600       3604       3608       3612       3616       3620       3624       3628       3632       3636       3640       3644       3648       3652       3656       3660       3664       3668       3672       3676       3680       3684       3688       3692       3696       3700       3704       3708       3712       3716       3720       3724       3728       3732       3736       3740       3744       3748       3752       3756       3760       3764       3768       3772       3776       3780       3784       3788       3792       3796       3800       3804       3808       3812       3816       3820       3824       3828       3832       3836       3840       3844       3848       3852       3856       3860       3864       3868       3872       3876       3880       3884       3888       3892       3896       3900       3904       3908       3912       3916       3920       3924       3928       3932       3936       3940       3944       3948       3952       3956       3960       3964       3968       3972       3976       3980       3984       3988       3992       3996       4000       4004       4008       4012       4016       4020       4024       4028       4032       4036       4040       4044       4048       4052       4056       4060       4064       4068       4072       4076       4080       4084       4088       4092       4096 </DataArray>
<DataArray type="UInt8"                                    Name="types"                                                      NumberOfComponents=" 1" format="ascii">
         9          9          9          9          9          9          9          9          9          9          9          9          9          9          9          9          9          9          9          9          9          9          9          9          9          9          9          9          9          9          9          9          9          9          9          9          9          9          9          9          9          9          9          9          9          9          9          9          9          9          9          9          9          9          9          9          9          9          9          9          9          9          9          9          9          9          9          9          9          9          9          9          9          9          9          9          9          9          9          9          9          9          9          9          9          9          9          9          9          9          9          9          9          9          9          9          9          9          9          9          9          9          9          9          9          9          9          9          9          9          9          9          9          9          9          9          9          9          9          9          9          9          9          9          9          9          9          9          9          9          9          9          9          9          9          9          9          9          9          9          9          9          9          9          9          9          9          9          9          9          9          9          9          9          9          9          9          9          9          9          9          9          9          9          9          9          9          9          9          9          9          9          9          9          9          9          9          9          9          9          9          9          9          9          9          9          9          9          9          9          9          9          9          9          9          9          9          9          9          9          9          9          9          9          9          9          9          9          9          9          9          9          9          9          9          9          9          9          9          9          9          9          9          9          9          9          9          9          9          9          9          9          9          9          9          9          9          9          9          9          9          9          9          9          9          9          9          9          9          9          9          9          9          9          9          9          9          9          9          9          9          9          9          9          9          9          9          9          9          9          9          9          9          9          9          9          9          9          9          9          9          9          9          9          9          9          9          9          9          9          9          9          9          9          9          9          9          9          9          9          9          9          9          9          9          9          9          9          9          9          9          9          9          9          9          9          9          9          9          9          9          9          9          9          9          9          9          9          9          9          9          9          9          9          9          9          9          9          9          9          9          9          9          9          9          9          9          9          9          9          9          9          9          9          9          9          9          9          9          9          9          9          9          9          9          9          9          9          9          9          9          9          9          9          9          9          9          9          9          9          9          9          9          9          9          9          9          9          9          9          9          9          9          9          9          9          9          9          9          9          9          9          9          9          9          9          9          9          9          9          9          9          9          9          9          9          9          9          9          9          9          9          9          9          9          9          9          9          9          9          9          9          9          9          9          9          9          9          9          9          9          9          9          9          9          9          9          9          9          9          9          9          9          9          9          9          9          9          9          9          9          9          9          9          9          9          9          9          9          9          9          9          9          9          9          9          9          9          9          9          9          9          9          9          9          9          9          9          9          9          9          9          9          9          9          9          9          9          9          9          9          9          9          9          9          9          9          9          9          9          9          9          9          9          9          9          9          9          9          9          9          9          9          9          9          9          9          9          9          9          9          9          9          9          9          9          9          9          9          9          9          9          9          9          9          9          9          9          9          9          9          9          9          9          9          9          9          9          9          9          9          9          9          9          9          9          9          9          9          9          9          9          9          9          9          9          9          9          9          9          9          9          9          9          9          9          9          9          9          9          9          9          9          9          9          9          9          9          9          9          9          9          9          9          9          9          9          9          9          9          9          9          9          9          9          9          9          9          9          9          9          9          9          9          9          9          9          9          9          9          9          9          9          9          9          9          9          9          9          9          9          9          9          9          9          9          9          9          9          9          9          9          9          9          9          9          9          9          9          9          9          9          9          9          9          9          9          9          9          9          9          9          9          9          9          9          9          9          9          9          9          9          9          9          9          9          9          9          9          9          9          9          9          9          9          9          9          9          9          9          9          9          9          9          9          9          9          9          9          9          9          9          9          9          9          9          9          9          9          9          9          9          9          9          9          9          9          9          9          9          9          9          9          9          9          9          9          9          9          9          9          9          9          9          9          9          9          9          9          9          9          9          9          9          9          9          9          9          9          9          9          9          9          9          9          9          9          9          9          9          9          9          9          9          9          9          9          9          9          9          9          9          9          9          9          9          9          9          9          9          9          9          9          9          9          9          9          9          9          9          9          9          9          9          9          9          9          9          9          9          9          9          9          9          9          9          9          9          9          9          9          9          9          9          9          9          9          9          9          9          9          9          9          9          9          9          9          9          9          9          9          9          9          9          9          9          9          9          9          9          9          9          9          9          9          9          9          9          9          9          9          9          9          9          9          9          9          9          9          9          9          9          9          9          9          9          9          9          9          9          9          9          9          9          9          9          9          9          9          9          9          9          9          9          9          9          9          9          9          9          9          9          9          9          9          9          9          9          9          9          9          9          9          9          9          9          9          9          9          9          9          9          9          9          9          9          9          9          9          9          9          9          9          9          9          9          9          9          9          9          9          9          9          9          9          9          9          9          9          9          9          9          9          9          9          9          9          9          9          9          9          9          9          9          9          9          9          9          9          9          9          9          9          9          9          9          9          9          9          9          9          9          9          9          9          9          9          9          9          9          9          9          9          9          9          9          9          9          9          9          9          9          9          9          9          9          9          9          9          9          9          9          9          9          9          9          9          9          9          9          9          9          9          9 </DataArray>
</Cells>
<CellData>
<DataArray type="Int32"                                    Name="material"                                                      NumberOfComponents=" 1" format="ascii">
         1          1          1          1          1          1          1          1          1          1          1          1          1          1          1          1          1          1          1          1          1          1          1          1          1          1          1          1          1          1          1          1          1          1          1          1          1          1          1          1          1          1          1          1          1          1          1          1          1          1          1          1          1          1          1          1          1          1          1          1          1          1          1          1          1          1          1          1          1          1          1          1          1          1          1          1          1          1          1          1          1          1          1          1          1          1          1          1          1          1          1          1          1          1          1          1          1          1          1          1          1          1          1          1          1          1          1          1          1          1          1          1          1          1          1          1          1          1          1          1          1          1          1          1          1          1          1          1          1          1          1          1          1          1          1          1          1          1          1          1          1          1          1          1          1          1          1          1          1          1          1          1          1          1          1          1          1          1          1          1          1          1          1          1          1          1          1          1          1          1          1          1          1          1          1          1          1          1          1          1          1          1          1          1          1          1          1          1          1          1          1          1          1          1          1          1          1          1          1          1          1          1          1          1          1          1          1          1          1          1          1          1          1          1          1          1          1          1          1          1          1          1          1          1          1          1          1          1          1          1          1          1          1          1          1          1          1          1          1          1          1          1          1          1          1          1          1          1          1          1          1          1          1          1          1          1          1          1          1          1          1          1          1          1          1          1          1          1          1          1          1          1          1          1          1          1          1          1          1          1          1          1          1          1          1          1          1          1          1          1          1          1          1          1          1          1          1          1          1          1          1          1          1          1          1          1          1          1          1          1          1          1          1          1          1          1          1          1          1          1          1          1          1          1          1          1          1          1          1          1          1          1          1          1          1          1          1          1          1          1          1          1          1          1          1          1          1          1          1          1          1          1          1          1          1          1          1          1          1          1          1          1          1          1          1          1          1          1          1          1          1          1          1          1          1          1          1          1          1          1          1          1          1          1          1          1          1          1          1          1          1          1          1          1          1          1          1          1          1          1          1          1          1          1          1          1          1          1          1          1          1          1          1          1          1          1          1          1          1          1          1          1          1          1          1          1          1          1          1          1          1          1          1          1          1          1          1          1          1          1          1          1          1          1          1          1          1          1          1          1          1          1          1          1          1          1          1          1          1          1          1          1          1          1          1          1          1          1          1          1          1          1          1          1          1          1          1          1          1          1          1          1          1          1          1          1          1          1          1          1          1          1          1          1          1          1          1          1          1          1          1          1          1          1          1          1          1          1          1          1          1          1          1          1          1          1          1          1          1          1          1          1          1          1          1          1          1          1          1          1          1          1          1          1          1          1          1          1          1          1          1          1          1          1          1          1          1          1          1          1          1          1          1          1          1          1          1          1          1          1          1          1          1          1          1          1          1          1          1          1          1          1          1          1          1          1          1          1          1          1          1          1          1          1          1          1          1          1          1          1          1          1          1          1          1          1          1          1          1          1          1          1          1          1          1          1          1          1          1          1          1          1          1          1          1          1          1          1          1          1          1          1          1          1          1          1          1          1          1          1          1          1          1          1          1          1          1          1          1          1          1          1          1          1          1          1          1          1          1          1          1          1          1          1          1          1          1          1          1          1          1          1          1          1          1          1          1          1          1          1          1          1          1          1          1          1          1          1          1          1          1          1          1          1          1          1          1          1          1          1          1          1          1          1          1          1          1          1          1          1          1          1          1          1          1          1          1          1          1          1          1          1          1          1          1          1          1          1          1          1          1          1          1          1          1          1          1          1          1          1          1          1          1          1          1          1          1          1          1          1          1          1          1          1          1          1          1          1          1          1          1          1          1          1          1          1          1          1          1          1          1          1          1          1          1          1          1          1          1          1          1          1          1          1          1          1          1          1          1          1          1          1          1          1          1          1          1          1          1          1          1          1          1          1          1          1          1          1          1          1          1          1          1          1          1          1          1          1          1          1          1          1          1          1          1          1          1          1          1          1          1          1          1          1          1          1          1          1          1          1          1          1          1          1          1          1          1          1          1          1          1          1          1          1          1          1          1          1          1          1          1          1          1          1          1          1          1          1          1          1          1          1          1          1          1          1          1          1          1          1          1          1          1          1          1          1          1          1          1          1          1          1          1          1          1          1          1          1          1          1          1          1          1          1          1          1          1          1          1          1          1          1          1          1          1          1          1          1          1          1          1          1          1          1          1          1          1          1          1          1          1          1          1          1          1          1          1          1          1          1          1          1          1          1          1          1          1          1          1          1          1          1          1          1          1          1          1          1          1          1          1          1          1          1          1          1          1          1          1          1          1          1          1          1          1          1          1          1          1          1          1          1          1          1          1          1          1          1          1          1          1          1          1          1          1          1          1          1          1          1          1          1          1          1          1          1          1          1          1          1          1          1          1          1          1          1          1          1          1          1          1          1          1          1          1          1          1          1          1          1          1          1          1          1 </DataArray>
</CellData>
<PointData>
<DataArray type="Float64"                                    Name="u"                                                      NumberOfComponents=" 3" format="ascii">
             -0.000140133               0.000000000               0.999999991              -0.000167225               0.000000000               0.999999991              -0.000179781               0.000000000               0.999999991              -0.000186996               0.000000000               0.999999991              -0.000192501               0.000000000               0.999999991              -0.000197837               0.000000000               0.999999991              -0.000203661               0.000000000               0.999999991              -0.000210136               0.000000000               0.999999991              -0.000217479               0.000000000               0.999999991              -0.000225811              -0.000000000               0.999999991              -0.000235185               0.000000000               0.999999991              -0.000245481               0.000000000               0.999999991              -0.000256704               0.000000000               0.999999991              -0.000268950               0.000000000               0.999999991              -0.000282141               0.000000000               0.999999991              -0.000296134               0.000000000               0.999999991              -0.000310639               0.000000000               0.999999991              -0.000139216               0.000068306               0.999999991              -0.000164918               0.000058994               0.999999991              -0.000176710               0.000056008               0.999999991              -0.000183511               0.000056434               0.999999991              -0.000188840               0.000058891               0.999999991              -0.000194132               0.000062503               0.999999991              -0.000199933               0.000066842               0.999999991              -0.000206453               0.000071690               0.999999991              -0.000213856               0.000076960               0.999999991              -0.000222238               0.000082469               0.999999991              -0.000231603               0.000088105               0.999999991              -0.000241886               0.000093855               0.999999991              -0.000253101               0.000099735               0.999999991              -0.000265214               0.000105561               0.999999991              -0.000278148               0.000111115               0.999999991              -0.000291773               0.000115992               0.999999991              -0.000305900               0.000119698               0.999999991              -0.000136665               0.000135787               0.999999991              -0.000158303               0.000117420               0.999999991              -0.000167872               0.000111861               0.999999991              -0.000173626               0.000113026               0.999999991              -0.000178511               0.000118111               0.999999991              -0.000183659               0.000125421               0.999999991              -0.000189521               0.000134078               0.999999991              -0.000196234               0.000143728               0.999999991              -0.000203896               0.000154157               0.999999991              -0.000212572               0.000165124               0.999999991              -0.000222228               0.000176381               0.999999991              -0.000232774               0.000187822               0.999999991              -0.000244156               0.000199382               0.999999991              -0.000256253               0.000210774               0.999999991              -0.000268946               0.000221624               0.999999991              -0.000282042               0.000231447               0.999999991              -0.000295439               0.000239683               0.999999991              -0.000132713               0.000201692               0.999999991              -0.000147978               0.000174724               0.999999991              -0.000154333               0.000167274               0.999999991              -0.000158673               0.000169711               0.999999991              -0.000163131               0.000177644               0.999999991              -0.000168350               0.000188783               0.999999991              -0.000174571               0.000201823               0.999999991              -0.000181836               0.000216271               0.999999991              -0.000190143               0.000231905               0.999999991              -0.000199405               0.000248159               0.999999991              -0.000209526               0.000264827               0.999999991              -0.000220410               0.000281763               0.999999991              -0.000231950               0.000298796               0.999999991              -0.000243959               0.000315567               0.999999991              -0.000256289               0.000331619               0.999999991              -0.000268831               0.000346559               0.999999991              -0.000281534               0.000359926               0.999999991              -0.000127464               0.000265358               0.999999991              -0.000134443               0.000230509               0.999999991              -0.000137179               0.000222034               0.999999991              -0.000140256               0.000226342               0.999999991              -0.000144678               0.000237467               0.999999991              -0.000150463               0.000252452               0.999999991              -0.000157574               0.000269978               0.999999991              -0.000165781               0.000289275               0.999999991              -0.000174955               0.000309855               0.999999991              -0.000184997               0.000331226               0.999999991              -0.000195725               0.000353161               0.999999991              -0.000206985               0.000375354               0.999999991              -0.000218638               0.000397687               0.999999991              -0.000230519               0.000419680               0.999999991              -0.000242498               0.000440902               0.999999991              -0.000254563               0.000461219               0.999999991              -0.000266763               0.000480396               0.999999991              -0.000120855               0.000326233               0.999999991              -0.000118370               0.000284517               0.999999991              -0.000117814               0.000275875               0.999999991              -0.000120317               0.000282480               0.999999991              -0.000125392               0.000297002               0.999999991              -0.000132283               0.000315957               0.999999991              -0.000140606               0.000337964               0.999999991              -0.000150051               0.000361898               0.999999991              -0.000160355               0.000387180               0.999999991              -0.000171342               0.000413502               0.999999991              -0.000182815               0.000440398               0.999999991              -0.000194619               0.000467696               0.999999991              -0.000206534               0.000495031               0.999999991              -0.000218397               0.000521886               0.999999991              -0.000230281               0.000548137               0.999999992              -0.000242171               0.000573656               0.999999992              -0.000254011               0.000598490               0.999999992              -0.000113003               0.000383697               0.999999991              -0.000100757               0.000336569               0.999999991              -0.000097807               0.000328411               0.999999991              -0.000100634               0.000337585               0.999999991              -0.000106945               0.000355609               0.999999991              -0.000115314               0.000378616               0.999999991              -0.000125196               0.000404905               0.999999991              -0.000136114               0.000433281               0.999999991              -0.000147715               0.000463144               0.999999991              -0.000159779               0.000494042               0.999999991              -0.000172062               0.000525637               0.999999991              -0.000184400               0.000557554               0.999999992              -0.000196554               0.000589391               0.999999992              -0.000208538               0.000620745               0.999999992              -0.000220333               0.000651528               0.999999992              -0.000231896               0.000681814               0.999999992              -0.000243199               0.000711320               0.999999992              -0.000104214               0.000437000               0.999999991              -0.000082577               0.000386531               0.999999991              -0.000078374               0.000379362               0.999999991              -0.000082434               0.000391124               0.999999991              -0.000090471               0.000412589               0.999999991              -0.000100681               0.000439435               0.999999991              -0.000112301               0.000469837               0.999999991              -0.000124758               0.000502575               0.999999991              -0.000137636               0.000536726               0.999999992              -0.000150600               0.000571941               0.999999992              -0.000163454               0.000607952               0.999999992              -0.000176039               0.000644120               0.999999992              -0.000188224               0.000680029               0.999999992              -0.000200014               0.000715466               0.999999992              -0.000211449               0.000750413               0.999999992              -0.000222467               0.000784833               0.999999992              -0.000233070               0.000818394               0.999999992              -0.000094900               0.000485274               0.999999991              -0.000064539               0.000434312               0.999999991              -0.000060641               0.000428304               0.999999991              -0.000066566               0.000442442               0.999999991              -0.000076712               0.000467063               0.999999991              -0.000088861               0.000497633               0.999999991              -0.000102214               0.000532105               0.999999992              -0.000115972               0.000569026               0.999999992              -0.000129689               0.000607367               0.999999992              -0.000143213               0.000646830               0.999999992              -0.000156290               0.000686826               0.999999992              -0.000168780               0.000726790               0.999999992              -0.000180681               0.000766401               0.999999992              -0.000192092               0.000805569               0.999999992              -0.000203101               0.000844258               0.999999992              -0.000213859               0.000882339               0.999999992              -0.000224399               0.000919630               0.999999992              -0.000085828               0.000530240               0.999999991              -0.000050606               0.000484911               0.999999991              -0.000044164               0.000475165               0.999999991              -0.000048613               0.000484399               0.999999991              -0.000057674               0.000504289               0.999999991              -0.000068767               0.000530616               0.999999992              -0.000080823               0.000561328               0.999999992              -0.000093431               0.000594821               0.999999992              -0.000105836               0.000630108               0.999999992              -0.000118042               0.000666551               0.999999992              -0.000129853               0.000703799               0.999999992              -0.000141093               0.000741385               0.999999992              -0.000151654               0.000778923               0.999999992              -0.000161559               0.000816347               0.999999992              -0.000171035               0.000853581               0.999999992              -0.000180457               0.000890475               0.999999992              -0.000189961               0.000926908               0.999999992              -0.000075716               0.000570675               0.999999991              -0.000038648               0.000533119               0.999999991              -0.000029797               0.000522501               0.999999992              -0.000032312               0.000528097               0.999999992              -0.000039837               0.000543931               0.999999992              -0.000049450               0.000566399               0.999999992              -0.000060124               0.000593448               0.999999992              -0.000071318               0.000623698               0.999999992              -0.000082405               0.000656065               0.999999992              -0.000093198               0.000689680               0.999999992              -0.000103684               0.000724244               0.999999992              -0.000113640               0.000759306               0.999999992              -0.000122801               0.000794595               0.999999992              -0.000131115               0.000829889               0.999999992              -0.000138718               0.000865216               0.999999992              -0.000145907               0.000900512               0.999999992              -0.000153116               0.000935831               0.999999992              -0.000064682               0.000606038               0.999999992              -0.000028545               0.000577765               0.999999992              -0.000018111               0.000568303               0.999999992              -0.000018609               0.000571981               0.999999992              -0.000024237               0.000584821               0.999999992              -0.000032167               0.000604014               0.999999992              -0.000041124               0.000627896               0.999999992              -0.000050573               0.000655167               0.999999992              -0.000060195               0.000684857               0.999999992              -0.000069555               0.000716055               0.999999992              -0.000078630               0.000748225               0.999999992              -0.000087214               0.000781072               0.999999992              -0.000094851               0.000814326               0.999999992              -0.000101435               0.000847787               0.999999992              -0.000106815               0.000881333               0.999999992              -0.000111187               0.000914941               0.999999992              -0.000114907               0.000948713               0.999999992              -0.000052768               0.000635794               0.999999992              -0.000020292               0.000617300               0.999999992              -0.000009426               0.000610409               0.999999992              -0.000008330               0.000613634               0.999999992              -0.000012065               0.000624665               0.999999992              -0.000018033               0.000641559               0.999999992              -0.000025035               0.000662960               0.999999992              -0.000032549               0.000687818               0.999999992              -0.000040412               0.000715186               0.999999992              -0.000048212               0.000744378               0.999999992              -0.000055735               0.000774712               0.999999992              -0.000062801               0.000805904               0.999999992              -0.000068907               0.000837745               0.999999992              -0.000073719               0.000869893               0.999999992              -0.000077015               0.000902226               0.999999992              -0.000078513               0.000934630               0.999999992              -0.000078294               0.000967139               0.999999992              -0.000040168               0.000659344               0.999999992              -0.000013708               0.000650082               0.999999992              -0.000003796               0.000646552               0.999999992              -0.000001820               0.000650320               0.999999992              -0.000003877               0.000660599               0.999999992              -0.000007957               0.000676162               0.999999992              -0.000012937               0.000695910               0.999999992              -0.000018437               0.000719018               0.999999992              -0.000024390               0.000744751               0.999999992              -0.000030416               0.000772483               0.999999992              -0.000036169               0.000801645               0.999999992              -0.000041499               0.000831811               0.999999992              -0.000046053               0.000862756               0.999999992              -0.000049408               0.000894254               0.999999992              -0.000051058               0.000926003               0.999999992              -0.000050477               0.000957839               0.999999992              -0.000047201               0.000989777               0.999999992              -0.000027023               0.000676382               0.999999992              -0.000008466               0.000674584               0.999999992              -0.000000877               0.000674437               0.999999992               0.000001167               0.000679354               0.999999992               0.000000270               0.000689548               0.999999992              -0.000002124               0.000704411               0.999999992              -0.000005290               0.000723137               0.999999992              -0.000008851               0.000745142               0.999999992              -0.000012772               0.000769763               0.999999992              -0.000016881               0.000796518               0.999999992              -0.000020853               0.000824908               0.999999992              -0.000024498               0.000854537               0.999999992              -0.000027519               0.000885177               0.999999992              -0.000029524               0.000916601               0.999999992              -0.000030041               0.000948539               0.999999992              -0.000028558               0.000980702               0.999999992              -0.000024181               0.001012828               0.999999992              -0.000013574               0.000686553               0.999999992              -0.000004082               0.000689651               0.999999992               0.000000083               0.000692104               0.999999992               0.000001362               0.000698129               0.999999992               0.000001115               0.000708533               0.999999992               0.000000026               0.000723128               0.999999992              -0.000001474               0.000741326               0.999999992              -0.000003210               0.000762577               0.999999992              -0.000005185               0.000786482               0.999999992              -0.000007293               0.000812639               0.999999992              -0.000009380               0.000840634               0.999999992              -0.000011260               0.000870109               0.999999992              -0.000012707               0.000900754               0.999999992              -0.000013551               0.000932399               0.999999992              -0.000013554               0.000964731               0.999999992              -0.000012400               0.000997457               0.999999992              -0.000009528               0.001030136               0.999999992              -0.000000000               0.000689871               0.999999992               0.000000000               0.000694712               0.999999992              -0.000000000               0.000698170               0.999999992               0.000000000               0.000704635               0.999999992              -0.000000000               0.000715137               0.999999992               0.000000000               0.000729619               0.999999992               0.000000000               0.000747672               0.999999992              -0.000000000               0.000768716               0.999999992              -0.000000000               0.000792367               0.999999992              -0.000000000               0.000818299               0.999999992              -0.000000000               0.000846128               0.999999992              -0.000000000               0.000875579               0.999999992              -0.000000000               0.000906324               0.999999992              -0.000000000               0.000938000               0.999999992              -0.000000000               0.000970409               0.999999992              -0.000000000               0.001003289               0.999999992              -0.000000000               0.001036149               0.999999992              -0.000140133               0.000000000               0.999999991              -0.000167225               0.000000000               0.999999991              -0.000179781               0.000000000               0.999999991              -0.000186996               0.000000000               0.999999991              -0.000192501               0.000000000               0.999999991              -0.000197837               0.000000000               0.999999991              -0.000203661               0.000000000               0.999999991              -0.000210136               0.000000000               0.999999991              -0.000217479               0.000000000               0.999999991              -0.000225811              -0.000000000               0.999999991              -0.000235185               0.000000000               0.999999991              -0.000245481               0.000000000               0.999999991              -0.000256704               0.000000000               0.999999991              -0.000268950               0.000000000               0.999999991              -0.000282141               0.000000000               0.999999991              -0.000296134               0.000000000               0.999999991              -0.000310639               0.000000000               0.999999991              -0.000139216              -0.000068306               0.999999991              -0.000164918              -0.000058994               0.999999991              -0.000176710              -0.000056008               0.999999991              -0.000183511              -0.000056434               0.999999991              -0.000188840              -0.000058891               0.999999991              -0.000194132              -0.000062503               0.999999991              -0.000199933              -0.000066842               0.999999991              -0.000206453              -0.000071690               0.999999991              -0.000213856              -0.000076960               0.999999991              -0.000222238              -0.000082469               0.999999991              -0.000231603              -0.000088105               0.999999991              -0.000241886              -0.000093855               0.999999991              -0.000253101              -0.000099735               0.999999991              -0.000265214              -0.000105561               0.999999991              -0.000278148              -0.000111115               0.999999991              -0.000291773              -0.000115992               0.999999991              -0.000305900              -0.000119698               0.999999991              -0.000136665              -0.000135787               0.999999991              -0.000158303              -0.000117420               0.999999991              -0.000167872              -0.000111861               0.999999991              -0.000173626              -0.000113026               0.999999991              -0.000178511              -0.000118111               0.999999991              -0.000183659              -0.000125421               0.999999991              -0.000189521              -0.000134078               0.999999991              -0.000196234              -0.000143728               0.999999991              -0.000203896              -0.000154157               0.999999991              -0.000212572              -0.000165124               0.999999991              -0.000222228              -0.000176381               0.999999991              -0.000232774              -0.000187822               0.999999991              -0.000244156              -0.000199382               0.999999991              -0.000256253              -0.000210774               0.999999991              -0.000268946              -0.000221624               0.999999991              -0.000282042              -0.000231447               0.999999991              -0.000295439              -0.000239683               0.999999991              -0.000132713              -0.000201692               0.999999991              -0.000147978              -0.000174724               0.999999991              -0.000154333              -0.000167274               0.999999991              -0.000158673              -0.000169711               0.999999991              -0.000163131              -0.000177644               0.999999991              -0.000168350              -0.000188783               0.999999991              -0.000174571              -0.000201823               0.999999991              -0.000181836              -0.000216271               0.999999991              -0.000190143              -0.000231905               0.999999991              -0.000199405              -0.000248159               0.999999991              -0.000209526              -0.000264827               0.999999991              -0.000220410              -0.000281763               0.999999991              -0.000231950              -0.000298796               0.999999991              -0.000243959              -0.000315567               0.999999991              -0.000256289              -0.000331619               0.999999991              -0.000268831              -0.000346559               0.999999991              -0.000281534              -0.000359926               0.999999991              -0.000127464              -0.000265358               0.999999991              -0.000134443              -0.000230509               0.999999991              -0.000137179              -0.000222034               0.999999991              -0.000140256              -0.000226342               0.999999991              -0.000144678              -0.000237467               0.999999991              -0.000150463              -0.000252452               0.999999991              -0.000157574              -0.000269978               0.999999991              -0.000165781              -0.000289275               0.999999991              -0.000174955              -0.000309855               0.999999991              -0.000184997              -0.000331226               0.999999991              -0.000195725              -0.000353161               0.999999991              -0.000206985              -0.000375354               0.999999991              -0.000218638              -0.000397687               0.999999991              -0.000230519              -0.000419680               0.999999991              -0.000242498              -0.000440902               0.999999991              -0.000254563              -0.000461219               0.999999991              -0.000266763              -0.000480396               0.999999991              -0.000120855              -0.000326233               0.999999991              -0.000118370              -0.000284517               0.999999991              -0.000117814              -0.000275875               0.999999991              -0.000120317              -0.000282480               0.999999991              -0.000125392              -0.000297002               0.999999991              -0.000132283              -0.000315957               0.999999991              -0.000140606              -0.000337964               0.999999991              -0.000150051              -0.000361898               0.999999991              -0.000160355              -0.000387180               0.999999991              -0.000171342              -0.000413502               0.999999991              -0.000182815              -0.000440398               0.999999991              -0.000194619              -0.000467696               0.999999991              -0.000206534              -0.000495031               0.999999991              -0.000218397              -0.000521886               0.999999991              -0.000230281              -0.000548137               0.999999992              -0.000242171              -0.000573656               0.999999992              -0.000254011              -0.000598490               0.999999992              -0.000113003              -0.000383697               0.999999991              -0.000100757              -0.000336569               0.999999991              -0.000097807              -0.000328411               0.999999991              -0.000100634              -0.000337585               0.999999991              -0.000106945              -0.000355609               0.999999991              -0.000115314              -0.000378616               0.999999991              -0.000125196              -0.000404905               0.999999991              -0.000136114              -0.000433281               0.999999991              -0.000147715              -0.000463144               0.999999991              -0.000159779              -0.000494042               0.999999991              -0.000172062              -0.000525637               0.999999991              -0.000184400              -0.000557554               0.999999992              -0.000196554              -0.000589391               0.999999992              -0.000208538              -0.000620745               0.999999992              -0.000220333              -0.000651528               0.999999992              -0.000231896              -0.000681814               0.999999992              -0.000243199              -0.000711320               0.999999992              -0.000104214              -0.000437000               0.999999991              -0.000082577              -0.000386531               0.999999991              -0.000078374              -0.000379362               0.999999991              -0.000082434              -0.000391124               0.999999991              -0.000090471              -0.000412589               0.999999991              -0.000100681              -0.000439435               0.999999991              -0.000112301              -0.000469837               0.999999991              -0.000124758              -0.000502575               0.999999991              -0.000137636              -0.000536726               0.999999992              -0.000150600              -0.000571941               0.999999992              -0.000163454              -0.000607952               0.999999992              -0.000176039              -0.000644120               0.999999992              -0.000188224              -0.000680029               0.999999992              -0.000200014              -0.000715466               0.999999992              -0.000211449              -0.000750413               0.999999992              -0.000222467              -0.000784833               0.999999992              -0.000233070              -0.000818394               0.999999992              -0.000094900              -0.000485274               0.999999991              -0.000064539              -0.000434312               0.999999991              -0.000060641              -0.000428304               0.999999991              -0.000066566              -0.000442442               0.999999991              -0.000076712              -0.000467063               0.999999991              -0.000088861              -0.000497633               0.999999991              -0.000102214              -0.000532105               0.999999992              -0.000115972              -0.000569026               0.999999992              -0.000129689              -0.000607367               0.999999992              -0.000143213              -0.000646830               0.999999992              -0.000156290              -0.000686826               0.999999992              -0.000168780              -0.000726790               0.999999992              -0.000180681              -0.000766401               0.999999992              -0.000192092              -0.000805569               0.999999992              -0.000203101              -0.000844258               0.999999992              -0.000213859              -0.000882339               0.999999992              -0.000224399              -0.000919630               0.999999992              -0.000085828              -0.000530240               0.999999991              -0.000050606              -0.000484911               0.999999991              -0.000044164              -0.000475165               0.999999991              -0.000048613              -0.000484399               0.999999991              -0.000057674              -0.000504289               0.999999991              -0.000068767              -0.000530616               0.999999992              -0.000080823              -0.000561328               0.999999992              -0.000093431              -0.000594821               0.999999992              -0.000105836              -0.000630108               0.999999992              -0.000118042              -0.000666551               0.999999992              -0.000129853              -0.000703799               0.999999992              -0.000141093              -0.000741385               0.999999992              -0.000151654              -0.000778923               0.999999992              -0.000161559              -0.000816347               0.999999992              -0.000171035              -0.000853581               0.999999992              -0.000180457              -0.000890475               0.999999992              -0.000189961              -0.000926908               0.999999992              -0.000075716              -0.000570675               0.999999991              -0.000038648              -0.000533119               0.999999991              -0.000029797              -0.000522501               0.999999992              -0.000032312              -0.000528097               0.999999992              -0.000039837              -0.000543931               0.999999992              -0.000049450              -0.000566399               0.999999992              -0.000060124              -0.000593448               0.999999992              -0.000071318              -0.000623698               0.999999992              -0.000082405              -0.000656065               0.999999992              -0.000093198              -0.000689680               0.999999992              -0.000103684              -0.000724244               0.999999992              -0.000113640              -0.000759306               0.999999992              -0.000122801              -0.000794595               0.999999992              -0.000131115              -0.000829889               0.999999992              -0.000138718              -0.000865216               0.999999992              -0.000145907              -0.000900512               0.999999992              -0.000153116              -0.000935831               0.999999992              -0.000064682              -0.000606038               0.999999992              -0.000028545              -0.000577765               0.999999992              -0.000018111              -0.000568303               0.999999992              -0.000018609              -0.000571981               0.999999992              -0.000024237              -0.000584821               0.999999992              -0.000032167              -0.000604014               0.999999992              -0.000041124              -0.000627896               0.999999992              -0.000050573              -0.000655167               0.999999992              -0.000060195              -0.000684857               0.999999992              -0.000069555              -0.000716055               0.999999992              -0.000078630              -0.000748225               0.999999992              -0.000087214              -0.000781072               0.999999992              -0.000094851              -0.000814326               0.999999992              -0.000101435              -0.000847787               0.999999992              -0.000106815              -0.000881333               0.999999992              -0.000111187              -0.000914941               0.999999992              -0.000114907              -0.000948713               0.999999992              -0.000052768              -0.000635794               0.999999992              -0.000020292              -0.000617300               0.999999992              -0.000009426              -0.000610409               0.999999992              -0.000008330              -0.000613634               0.999999992              -0.000012065              -0.000624665               0.999999992              -0.000018033              -0.000641559               0.999999992              -0.000025035              -0.000662960               0.999999992              -0.000032549              -0.000687818               0.999999992              -0.000040412              -0.000715186               0.999999992              -0.000048212              -0.000744378               0.999999992              -0.000055735              -0.000774712               0.999999992              -0.000062801              -0.000805904               0.999999992              -0.000068907              -0.000837745               0.999999992              -0.000073719              -0.000869893               0.999999992              -0.000077015              -0.000902226               0.999999992              -0.000078513              -0.000934630               0.999999992              -0.000078294              -0.000967139               0.999999992              -0.000040168              -0.000659344               0.999999992              -0.000013708              -0.000650082               0.999999992              -0.000003796              -0.000646552               0.999999992              -0.000001820              -0.000650320               0.999999992              -0.000003877              -0.000660599               0.999999992              -0.000007957              -0.000676162               0.999999992              -0.000012937              -0.000695910               0.999999992              -0.000018437              -0.000719018               0.999999992              -0.000024390              -0.000744751               0.999999992              -0.000030416              -0.000772483               0.999999992              -0.000036169              -0.000801645               0.999999992              -0.000041499              -0.000831811               0.999999992              -0.000046053              -0.000862756               0.999999992              -0.000049408              -0.000894254               0.999999992              -0.000051058              -0.000926003               0.999999992              -0.000050477              -0.000957839               0.999999992              -0.000047201              -0.000989777               0.999999992              -0.000027023              -0.000676382               0.999999992              -0.000008466              -0.000674584               0.999999992              -0.000000877              -0.000674437               0.999999992               0.000001167              -0.000679354               0.999999992               0.000000270              -0.000689548               0.999999992              -0.000002124              -0.000704411               0.999999992              -0.000005290              -0.000723137               0.999999992              -0.000008851              -0.000745142               0.999999992              -0.000012772              -0.000769763               0.999999992              -0.000016881              -0.000796518               0.999999992              -0.000020853              -0.000824908               0.999999992              -0.000024498              -0.000854537               0.999999992              -0.000027519              -0.000885177               0.999999992              -0.000029524              -0.000916601               0.999999992              -0.000030041              -0.000948539               0.999999992              -0.000028558              -0.000980702               0.999999992              -0.000024181              -0.001012828               0.999999992              -0.000013574              -0.000686553               0.999999992              -0.000004082              -0.000689651               0.999999992               0.000000083              -0.000692104               0.999999992               0.000001362              -0.000698129               0.999999992               0.000001115              -0.000708533               0.999999992               0.000000026              -0.000723128               0.999999992              -0.000001474              -0.000741326               0.999999992              -0.000003210              -0.000762577               0.999999992              -0.000005185              -0.000786482               0.999999992              -0.000007293              -0.000812639               0.999999992              -0.000009380              -0.000840634               0.999999992              -0.000011260              -0.000870109               0.999999992              -0.000012707              -0.000900754               0.999999992              -0.000013551              -0.000932399               0.999999992              -0.000013554              -0.000964731               0.999999992              -0.000012400              -0.000997457               0.999999992              -0.000009528              -0.001030136               0.999999992               0.000000000              -0.000689871               0.999999992               0.000000000              -0.000694712               0.999999992              -0.000000000              -0.000698170               0.999999992              -0.000000000              -0.000704635               0.999999992              -0.000000000              -0.000715137               0.999999992              -0.000000000              -0.000729619               0.999999992              -0.000000000              -0.000747672               0.999999992               0.000000000              -0.000768716               0.999999992               0.000000000              -0.000792367               0.999999992              -0.000000000              -0.000818299               0.999999992               0.000000000              -0.000846128               0.999999992              -0.000000000              -0.000875579               0.999999992               0.000000000              -0.000906324               0.999999992               0.000000000              -0.000938000               0.999999992               0.000000000              -0.000970409               0.999999992              -0.000000000              -0.001003289               0.999999992               0.000000000              -0.001036149               0.999999992               0.000140133              -0.000000000               0.999999991               0.000167225               0.000000000               0.999999991               0.000179781               0.000000000               0.999999991               0.000186996              -0.000000000               0.999999991               0.000192501              -0.000000000               0.999999991               0.000197837               0.000000000               0.999999991               0.000203661              -0.000000000               0.999999991               0.000210136              -0.000000000               0.999999991               0.000217479               0.000000000               0.999999991               0.000225811               0.000000000               0.999999991               0.000235185               0.000000000               0.999999991               0.000245481               0.000000000               0.999999991               0.000256704               0.000000000               0.999999991               0.000268950               0.000000000               0.999999991               0.000282141               0.000000000               0.999999991               0.000296134               0.000000000               0.999999991               0.000310639               0.000000000               0.999999991               0.000139216              -0.000068306               0.999999991               0.000164918              -0.000058994               0.999999991               0.000176710              -0.000056008               0.999999991               0.000183511              -0.000056434               0.999999991               0.000188840              -0.000058891               0.999999991               0.000194132              -0.000062503               0.999999991               0.000199933              -0.000066842               0.999999991               0.000206453              -0.000071690               0.999999991               0.000213856              -0.000076960               0.999999991               0.000222238              -0.000082469               0.999999991               0.000231603              -0.000088105               0.999999991               0.000241886              -0.000093855               0.999999991               0.000253101              -0.000099735               0.999999991               0.000265214              -0.000105561               0.999999991               0.000278148              -0.000111115               0.999999991               0.000291773              -0.000115992               0.999999991               0.000305900              -0.000119698               0.999999991               0.000136665              -0.000135787               0.999999991               0.000158303              -0.000117420               0.999999991               0.000167872              -0.000111861               0.999999991               0.000173626              -0.000113026               0.999999991               0.000178511              -0.000118111               0.999999991               0.000183659              -0.000125421               0.999999991               0.000189521              -0.000134078               0.999999991               0.000196234              -0.000143728               0.999999991               0.000203896              -0.000154157               0.999999991               0.000212572              -0.000165124               0.999999991               0.000222228              -0.000176381               0.999999991               0.000232774              -0.000187822               0.999999991               0.000244156              -0.000199382               0.999999991               0.000256253              -0.000210774               0.999999991               0.000268946              -0.000221624               0.999999991               0.000282042              -0.000231447               0.999999991               0.000295439              -0.000239683               0.999999991               0.000132713              -0.000201692               0.999999991               0.000147978              -0.000174724               0.999999991               0.000154333              -0.000167274               0.999999991               0.000158673              -0.000169711               0.999999991               0.000163131              -0.000177644               0.999999991               0.000168350              -0.000188783               0.999999991               0.000174571              -0.000201823               0.999999991               0.000181836              -0.000216271               0.999999991               0.000190143              -0.000231905               0.999999991               0.000199405              -0.000248159               0.999999991               0.000209526              -0.000264827               0.999999991               0.000220410              -0.000281763               0.999999991               0.000231950              -0.000298796               0.999999991               0.000243959              -0.000315567               0.999999991               0.000256289              -0.000331619               0.999999991               0.000268831              -0.000346559               0.999999991               0.000281534              -0.000359926               0.999999991               0.000127464              -0.000265358               0.999999991               0.000134443              -0.000230509               0.999999991               0.000137179              -0.000222034               0.999999991               0.000140256              -0.000226342               0.999999991               0.000144678              -0.000237467               0.999999991               0.000150463              -0.000252452               0.999999991               0.000157574              -0.000269978               0.999999991               0.000165781              -0.000289275               0.999999991               0.000174955              -0.000309855               0.999999991               0.000184997              -0.000331226               0.999999991               0.000195725              -0.000353161               0.999999991               0.000206985              -0.000375354               0.999999991               0.000218638              -0.000397687               0.999999991               0.000230519              -0.000419680               0.999999991               0.000242498              -0.000440902               0.999999991               0.000254563              -0.000461219               0.999999991               0.000266763              -0.000480396               0.999999991               0.000120855              -0.000326233               0.999999991               0.000118370              -0.000284517               0.999999991               0.000117814              -0.000275875               0.999999991               0.000120317              -0.000282480               0.999999991               0.000125392              -0.000297002               0.999999991               0.000132283              -0.000315957               0.999999991               0.000140606              -0.000337964               0.999999991               0.000150051              -0.000361898               0.999999991               0.000160355              -0.000387180               0.999999991               0.000171342              -0.000413502               0.999999991               0.000182815              -0.000440398               0.999999991               0.000194619              -0.000467696               0.999999991               0.000206534              -0.000495031               0.999999991               0.000218397              -0.000521886               0.999999991               0.000230281              -0.000548137               0.999999992               0.000242171              -0.000573656               0.999999992               0.000254011              -0.000598490               0.999999992               0.000113003              -0.000383697               0.999999991               0.000100757              -0.000336569               0.999999991               0.000097807              -0.000328411               0.999999991               0.000100634              -0.000337585               0.999999991               0.000106945              -0.000355609               0.999999991               0.000115314              -0.000378616               0.999999991               0.000125196              -0.000404905               0.999999991               0.000136114              -0.000433281               0.999999991               0.000147715              -0.000463144               0.999999991               0.000159779              -0.000494042               0.999999991               0.000172062              -0.000525637               0.999999991               0.000184400              -0.000557554               0.999999992               0.000196554              -0.000589391               0.999999992               0.000208538              -0.000620745               0.999999992               0.000220333              -0.000651528               0.999999992               0.000231896              -0.000681814               0.999999992               0.000243199              -0.000711320               0.999999992               0.000104214              -0.000437000               0.999999991               0.000082577              -0.000386531               0.999999991               0.000078374              -0.000379362               0.999999991               0.000082434              -0.000391124               0.999999991               0.000090471              -0.000412589               0.999999991               0.000100681              -0.000439435               0.999999991               0.000112301              -0.000469837               0.999999991               0.000124758              -0.000502575               0.999999991               0.000137636              -0.000536726               0.999999992               0.000150600              -0.000571941               0.999999992               0.000163454              -0.000607952               0.999999992               0.000176039              -0.000644120               0.999999992               0.000188224              -0.000680029               0.999999992               0.000200014              -0.000715466               0.999999992               0.000211449              -0.000750413               0.999999992               0.000222467              -0.000784833               0.999999992               0.000233070              -0.000818394               0.999999992               0.000094900              -0.000485274               0.999999991               0.000064539              -0.000434312               0.999999991               0.000060641              -0.000428304               0.999999991               0.000066566              -0.000442442               0.999999991               0.000076712              -0.000467063               0.999999991               0.000088861              -0.000497633               0.999999991               0.000102214              -0.000532105               0.999999992               0.000115972              -0.000569026               0.999999992               0.000129689              -0.000607367               0.999999992               0.000143213              -0.000646830               0.999999992               0.000156290              -0.000686826               0.999999992               0.000168780              -0.000726790               0.999999992               0.000180681              -0.000766401               0.999999992               0.000192092              -0.000805569               0.999999992               0.000203101              -0.000844258               0.999999992               0.000213859              -0.000882339               0.999999992               0.000224399              -0.000919630               0.999999992               0.000085828              -0.000530240               0.999999991               0.000050606              -0.000484911               0.999999991               0.000044164              -0.000475165               0.999999991               0.000048613              -0.000484399               0.999999991               0.000057674              -0.000504289               0.999999991               0.000068767              -0.000530616               0.999999992               0.000080823              -0.000561328               0.999999992               0.000093431              -0.000594821               0.999999992               0.000105836              -0.000630108               0.999999992               0.000118042              -0.000666551               0.999999992               0.000129853              -0.000703799               0.999999992               0.000141093              -0.000741385               0.999999992               0.000151654              -0.000778923               0.999999992               0.000161559              -0.000816347               0.999999992               0.000171035              -0.000853581               0.999999992               0.000180457              -0.000890475               0.999999992               0.000189961              -0.000926908               0.999999992               0.000075716              -0.000570675               0.999999991               0.000038648              -0.000533119               0.999999991               0.000029797              -0.000522501               0.999999992               0.000032312              -0.000528097               0.999999992               0.000039837              -0.000543931               0.999999992               0.000049450              -0.000566399               0.999999992               0.000060124              -0.000593448               0.999999992               0.000071318              -0.000623698               0.999999992               0.000082405              -0.000656065               0.999999992               0.000093198              -0.000689680               0.999999992               0.000103684              -0.000724244               0.999999992               0.000113640              -0.000759306               0.999999992               0.000122801              -0.000794595               0.999999992               0.000131115              -0.000829889               0.999999992               0.000138718              -0.000865216               0.999999992               0.000145907              -0.000900512               0.999999992               0.000153116              -0.000935831               0.999999992               0.000064682              -0.000606038               0.999999992               0.000028545              -0.000577765               0.999999992               0.000018111              -0.000568303               0.999999992               0.000018609              -0.000571981               0.999999992               0.000024237              -0.000584821               0.999999992               0.000032167              -0.000604014               0.999999992               0.000041124              -0.000627896               0.999999992               0.000050573              -0.000655167               0.999999992               0.000060195              -0.000684857               0.999999992               0.000069555              -0.000716055               0.999999992               0.000078630              -0.000748225               0.999999992               0.000087214              -0.000781072               0.999999992               0.000094851              -0.000814326               0.999999992               0.000101435              -0.000847787               0.999999992               0.000106815              -0.000881333               0.999999992               0.000111187              -0.000914941               0.999999992               0.000114907              -0.000948713               0.999999992               0.000052768              -0.000635794               0.999999992               0.000020292              -0.000617300               0.999999992               0.000009426              -0.000610409               0.999999992               0.000008330              -0.000613634               0.999999992               0.000012065              -0.000624665               0.999999992               0.000018033              -0.000641559               0.999999992               0.000025035              -0.000662960               0.999999992               0.000032549              -0.000687818               0.999999992               0.000040412              -0.000715186               0.999999992               0.000048212              -0.000744378               0.999999992               0.000055735              -0.000774712               0.999999992               0.000062801              -0.000805904               0.999999992               0.000068907              -0.000837745               0.999999992               0.000073719              -0.000869893               0.999999992               0.000077015              -0.000902226               0.999999992               0.000078513              -0.000934630               0.999999992               0.000078294              -0.000967139               0.999999992               0.000040168              -0.000659344               0.999999992               0.000013708              -0.000650082               0.999999992               0.000003796              -0.000646552               0.999999992               0.000001820              -0.000650320               0.999999992               0.000003877              -0.000660599               0.999999992               0.000007957              -0.000676162               0.999999992               0.000012937              -0.000695910               0.999999992               0.000018437              -0.000719018               0.999999992               0.000024390              -0.000744751               0.999999992               0.000030416              -0.000772483               0.999999992               0.000036169              -0.000801645               0.999999992               0.000041499              -0.000831811               0.999999992               0.000046053              -0.000862756               0.999999992               0.000049408              -0.000894254               0.999999992               0.000051058              -0.000926003               0.999999992               0.000050477              -0.000957839               0.999999992               0.000047201              -0.000989777               0.999999992               0.000027023              -0.000676382               0.999999992               0.000008466              -0.000674584               0.999999992               0.000000877              -0.000674437               0.999999992              -0.000001167              -0.000679354               0.999999992              -0.000000270              -0.000689548               0.999999992               0.000002124              -0.000704411               0.999999992               0.000005290              -0.000723137               0.999999992               0.000008851              -0.000745142               0.999999992               0.000012772              -0.000769763               0.999999992               0.000016881              -0.000796518               0.999999992               0.000020853              -0.000824908               0.999999992               0.000024498              -0.000854537               0.999999992               0.000027519              -0.000885177               0.999999992               0.000029524              -0.000916601               0.999999992               0.000030041              -0.000948539               0.999999992               0.000028558              -0.000980702               0.999999992               0.000024181              -0.001012828               0.999999992               0.000013574              -0.000686553               0.999999992               0.000004082              -0.000689651               0.999999992              -0.000000083              -0.000692104               0.999999992              -0.000001362              -0.000698129               0.999999992              -0.000001115              -0.000708533               0.999999992              -0.000000026              -0.000723128               0.999999992               0.000001474              -0.000741326               0.999999992               0.000003210              -0.000762577               0.999999992               0.000005185              -0.000786482               0.999999992               0.000007293              -0.000812639               0.999999992               0.000009380              -0.000840634               0.999999992               0.000011260              -0.000870109               0.999999992               0.000012707              -0.000900754               0.999999992               0.000013551              -0.000932399               0.999999992               0.000013554              -0.000964731               0.999999992               0.000012400              -0.000997457               0.999999992               0.000009528              -0.001030136               0.999999992               0.000000000              -0.000689871               0.999999992               0.000000000              -0.000694712               0.999999992              -0.000000000              -0.000698170               0.999999992              -0.000000000              -0.000704635               0.999999992              -0.000000000              -0.000715137               0.999999992              -0.000000000              -0.000729619               0.999999992              -0.000000000              -0.000747672               0.999999992               0.000000000              -0.000768716               0.999999992               0.000000000              -0.000792367               0.999999992              -0.000000000              -0.000818299               0.999999992               0.000000000              -0.000846128               0.999999992              -0.000000000              -0.000875579               0.999999992               0.000000000              -0.000906324               0.999999992               0.000000000              -0.000938000               0.999999992               0.000000000              -0.000970409               0.999999992              -0.000000000              -0.001003289               0.999999992               0.000000000              -0.001036149               0.999999992               0.000140133              -0.000000000               0.999999991               0.000167225               0.000000000               0.999999991               0.000179781               0.000000000               0.999999991               0.000186996              -0.000000000               0.999999991               0.000192501              -0.000000000               0.999999991               0.000197837               0.000000000               0.999999991               0.000203661              -0.000000000               0.999999991               0.000210136              -0.000000000               0.999999991               0.000217479               0.000000000               0.999999991               0.000225811               0.000000000               0.999999991               0.000235185               0.000000000               0.999999991               0.000245481               0.000000000               0.999999991               0.000256704               0.000000000               0.999999991               0.000268950               0.000000000               0.999999991               0.000282141               0.000000000               0.999999991               0.000296134               0.000000000               0.999999991               0.000310639               0.000000000               0.999999991               0.000139216               0.000068306               0.999999991               0.000164918               0.000058994               0.999999991               0.000176710               0.000056008               0.999999991               0.000183511               0.000056434               0.999999991               0.000188840               0.000058891               0.999999991               0.000194132               0.000062503               0.999999991               0.000199933               0.000066842               0.999999991               0.000206453               0.000071690               0.999999991               0.000213856               0.000076960               0.999999991               0.000222238               0.000082469               0.999999991               0.000231603               0.000088105               0.999999991               0.000241886               0.000093855               0.999999991               0.000253101               0.000099735               0.999999991               0.000265214               0.000105561               0.999999991               0.000278148               0.000111115               0.999999991               0.000291773               0.000115992               0.999999991               0.000305900               0.000119698               0.999999991               0.000136665               0.000135787               0.999999991               0.000158303               0.000117420               0.999999991               0.000167872               0.000111861               0.999999991               0.000173626               0.000113026               0.999999991               0.000178511               0.000118111               0.999999991               0.000183659               0.000125421               0.999999991               0.000189521               0.000134078               0.999999991               0.000196234               0.000143728               0.999999991               0.000203896               0.000154157               0.999999991               0.000212572               0.000165124               0.999999991               0.000222228               0.000176381               0.999999991               0.000232774               0.000187822               0.999999991               0.000244156               0.000199382               0.999999991               0.000256253               0.000210774               0.999999991               0.000268946               0.000221624               0.999999991               0.000282042               0.000231447               0.999999991               0.000295439               0.000239683               0.999999991               0.000132713               0.000201692               0.999999991               0.000147978               0.000174724               0.999999991               0.000154333               0.000167274               0.999999991               0.000158673               0.000169711               0.999999991               0.000163131               0.000177644               0.999999991               0.000168350               0.000188783               0.999999991               0.000174571               0.000201823               0.999999991               0.000181836               0.000216271               0.999999991               0.000190143               0.000231905               0.999999991               0.000199405               0.000248159               0.999999991               0.000209526               0.000264827               0.999999991               0.000220410               0.000281763               0.999999991               0.000231950               0.000298796               0.999999991               0.000243959               0.000315567               0.999999991               0.000256289               0.000331619               0.999999991               0.000268831               0.000346559               0.999999991               0.000281534               0.000359926               0.999999991               0.000127464               0.000265358               0.999999991               0.000134443               0.000230509               0.999999991               0.000137179               0.000222034               0.999999991               0.000140256               0.000226342               0.999999991               0.000144678               0.000237467               0.999999991               0.000150463               0.000252452               0.999999991               0.000157574               0.000269978               0.999999991               0.000165781               0.000289275               0.999999991               0.000174955               0.000309855               0.999999991               0.000184997               0.000331226               0.999999991               0.000195725               0.000353161               0.999999991               0.000206985               0.000375354               0.999999991               0.000218638               0.000397687               0.999999991               0.000230519               0.000419680               0.999999991               0.000242498               0.000440902               0.999999991               0.000254563               0.000461219               0.999999991               0.000266763               0.000480396               0.999999991               0.000120855               0.000326233               0.999999991               0.000118370               0.000284517               0.999999991               0.000117814               0.000275875               0.999999991               0.000120317               0.000282480               0.999999991               0.000125392               0.000297002               0.999999991               0.000132283               0.000315957               0.999999991               0.000140606               0.000337964               0.999999991               0.000150051               0.000361898               0.999999991               0.000160355               0.000387180               0.999999991               0.000171342               0.000413502               0.999999991               0.000182815               0.000440398               0.999999991               0.000194619               0.000467696               0.999999991               0.000206534               0.000495031               0.999999991               0.000218397               0.000521886               0.999999991               0.000230281               0.000548137               0.999999992               0.000242171               0.000573656               0.999999992               0.000254011               0.000598490               0.999999992               0.000113003               0.000383697               0.999999991               0.000100757               0.000336569               0.999999991               0.000097807               0.000328411               0.999999991               0.000100634               0.000337585               0.999999991               0.000106945               0.000355609               0.999999991               0.000115314               0.000378616               0.999999991               0.000125196               0.000404905               0.999999991               0.000136114               0.000433281               0.999999991               0.000147715               0.000463144               0.999999991               0.000159779               0.000494042               0.999999991               0.000172062               0.000525637               0.999999991               0.000184400               0.000557554               0.999999992               0.000196554               0.000589391               0.999999992               0.000208538               0.000620745               0.999999992               0.000220333               0.000651528               0.999999992               0.000231896               0.000681814               0.999999992               0.000243199               0.000711320               0.999999992               0.000104214               0.000437000               0.999999991               0.000082577               0.000386531               0.999999991               0.000078374               0.000379362               0.999999991               0.000082434               0.000391124               0.999999991               0.000090471               0.000412589               0.999999991               0.000100681               0.000439435               0.999999991               0.000112301               0.000469837               0.999999991               0.000124758               0.000502575               0.999999991               0.000137636               0.000536726               0.999999992               0.000150600               0.000571941               0.999999992               0.000163454               0.000607952               0.999999992               0.000176039               0.000644120               0.999999992               0.000188224               0.000680029               0.999999992               0.000200014               0.000715466               0.999999992               0.000211449               0.000750413               0.999999992               0.000222467               0.000784833               0.999999992               0.000233070               0.000818394               0.999999992               0.000094900               0.000485274               0.999999991               0.000064539               0.000434312               0.999999991               0.000060641               0.000428304               0.999999991               0.000066566               0.000442442               0.999999991               0.000076712               0.000467063               0.999999991               0.000088861               0.000497633               0.999999991               0.000102214               0.000532105               0.999999992               0.000115972               0.000569026               0.999999992               0.000129689               0.000607367               0.999999992               0.000143213               0.000646830               0.999999992               0.000156290               0.000686826               0.999999992               0.000168780               0.000726790               0.999999992               0.000180681               0.000766401               0.999999992               0.000192092               0.000805569               0.999999992               0.000203101               0.000844258               0.999999992               0.000213859               0.000882339               0.999999992               0.000224399               0.000919630               0.999999992               0.000085828               0.000530240               0.999999991               0.000050606               0.000484911               0.999999991               0.000044164               0.000475165               0.999999991               0.000048613               0.000484399               0.999999991               0.000057674               0.000504289               0.999999991               0.000068767               0.000530616               0.999999992               0.000080823               0.000561328               0.999999992               0.000093431               0.000594821               0.999999992               0.000105836               0.000630108               0.999999992               0.000118042               0.000666551               0.999999992               0.000129853               0.000703799               0.999999992               0.000141093               0.000741385               0.999999992               0.000151654               0.000778923               0.999999992               0.000161559               0.000816347               0.999999992               0.000171035               0.000853581               0.999999992               0.000180457               0.000890475               0.999999992               0.000189961               0.000926908               0.999999992               0.000075716               0.000570675               0.999999991               0.000038648               0.000533119               0.999999991               0.000029797               0.000522501               0.999999992               0.000032312               0.000528097               0.999999992               0.000039837               0.000543931               0.999999992               0.000049450               0.000566399               0.999999992               0.000060124               0.000593448               0.999999992               0.000071318               0.000623698               0.999999992               0.000082405               0.000656065               0.999999992               0.000093198               0.000689680               0.999999992               0.000103684               0.000724244               0.999999992               0.000113640               0.000759306               0.999999992               0.000122801               0.000794595               0.999999992               0.000131115               0.000829889               0.999999992               0.000138718               0.000865216               0.999999992               0.000145907               0.000900512               0.999999992               0.000153116               0.000935831               0.999999992               0.000064682               0.000606038               0.999999992               0.000028545               0.000577765               0.999999992               0.000018111               0.000568303               0.999999992               0.000018609               0.000571981               0.999999992               0.000024237               0.000584821               0.999999992               0.000032167               0.000604014               0.999999992               0.000041124               0.000627896               0.999999992               0.000050573               0.000655167               0.999999992               0.000060195               0.000684857               0.999999992               0.000069555               0.000716055               0.999999992               0.000078630               0.000748225               0.999999992               0.000087214               0.000781072               0.999999992               0.000094851               0.000814326               0.999999992               0.000101435               0.000847787               0.999999992               0.000106815               0.000881333               0.999999992               0.000111187               0.000914941               0.999999992               0.000114907               0.000948713               0.999999992               0.000052768               0.000635794               0.999999992               0.000020292               0.000617300               0.999999992               0.000009426               0.000610409               0.999999992               0.000008330               0.000613634               0.999999992               0.000012065               0.000624665               0.999999992               0.000018033               0.000641559               0.999999992               0.000025035               0.000662960               0.999999992               0.000032549               0.000687818               0.999999992               0.000040412               0.000715186               0.999999992               0.000048212               0.000744378               0.999999992               0.000055735               0.000774712               0.999999992               0.000062801               0.000805904               0.999999992               0.000068907               0.000837745               0.999999992               0.000073719               0.000869893               0.999999992               0.000077015               0.000902226               0.999999992               0.000078513               0.000934630               0.999999992               0.000078294               0.000967139               0.999999992               0.000040168               0.000659344               0.999999992               0.000013708               0.000650082               0.999999992               0.000003796               0.000646552               0.999999992               0.000001820               0.000650320               0.999999992               0.000003877               0.000660599               0.999999992               0.000007957               0.000676162               0.999999992               0.000012937               0.000695910               0.999999992               0.000018437               0.000719018               0.999999992               0.000024390               0.000744751               0.999999992               0.000030416               0.000772483               0.999999992               0.000036169               0.000801645               0.999999992               0.000041499               0.000831811               0.999999992               0.000046053               0.000862756               0.999999992               0.000049408               0.000894254               0.999999992               0.000051058               0.000926003               0.999999992               0.000050477               0.000957839               0.999999992               0.000047201               0.000989777               0.999999992               0.000027023               0.000676382               0.999999992               0.000008466               0.000674584               0.999999992               0.000000877               0.000674437               0.999999992              -0.000001167               0.000679354               0.999999992              -0.000000270               0.000689548               0.999999992               0.000002124               0.000704411               0.999999992               0.000005290               0.000723137               0.999999992               0.000008851               0.000745142               0.999999992               0.000012772               0.000769763               0.999999992               0.000016881               0.000796518               0.999999992               0.000020853               0.000824908               0.999999992               0.000024498               0.000854537               0.999999992               0.000027519               0.000885177               0.999999992               0.000029524               0.000916601               0.999999992               0.000030041               0.000948539               0.999999992               0.000028558               0.000980702               0.999999992               0.000024181               0.001012828               0.999999992               0.000013574               0.000686553               0.999999992               0.000004082               0.000689651               0.999999992              -0.000000083               0.000692104               0.999999992              -0.000001362               0.000698129               0.999999992              -0.000001115               0.000708533               0.999999992              -0.000000026               0.000723128               0.999999992               0.000001474               0.000741326               0.999999992               0.000003210               0.000762577               0.999999992               0.000005185               0.000786482               0.999999992               0.000007293               0.000812639               0.999999992               0.000009380               0.000840634               0.999999992               0.000011260               0.000870109               0.999999992               0.000012707               0.000900754               0.999999992               0.000013551               0.000932399               0.999999992               0.000013554               0.000964731               0.999999992               0.000012400               0.000997457               0.999999992               0.000009528               0.001030136               0.999999992              -0.000000000               0.000689871               0.999999992               0.000000000               0.000694712               0.999999992              -0.000000000               0.000698170               0.999999992               0.000000000               0.000704635               0.999999992              -0.000000000               0.000715137               0.999999992               0.000000000               0.000729619               0.999999992               0.000000000               0.000747672               0.999999992              -0.000000000               0.000768716               0.999999992              -0.000000000               0.000792367               0.999999992              -0.000000000               0.000818299               0.999999992              -0.000000000               0.000846128               0.999999992              -0.000000000               0.000875579               0.999999992              -0.000000000               0.000906324               0.999999992              -0.000000000               0.000938000               0.999999992              -0.000000000               0.000970409               0.999999992              -0.000000000               0.001003289               0.999999992              -0.000000000               0.001036149               0.999999992 </DataArray>
<DataArray type="Float64"                                    Name="defo"                                                      NumberOfComponents=" 3" format="ascii">
             -0.000140133               0.000000000               0.999999991              -0.000167225               0.000000000               0.999999991              -0.000179781               0.000000000               0.999999991              -0.000186996               0.000000000               0.999999991              -0.000192501               0.000000000               0.999999991              -0.000197837               0.000000000               0.999999991              -0.000203661               0.000000000               0.999999991              -0.000210136               0.000000000               0.999999991              -0.000217479               0.000000000               0.999999991              -0.000225811              -0.000000000               0.999999991              -0.000235185               0.000000000               0.999999991              -0.000245481               0.000000000               0.999999991              -0.000256704               0.000000000               0.999999991              -0.000268950               0.000000000               0.999999991              -0.000282141               0.000000000               0.999999991              -0.000296134               0.000000000               0.999999991              -0.000310639               0.000000000               0.999999991              -0.000139216               0.000068306               0.999999991              -0.000164918               0.000058994               0.999999991              -0.000176710               0.000056008               0.999999991              -0.000183511               0.000056434               0.999999991              -0.000188840               0.000058891               0.999999991              -0.000194132               0.000062503               0.999999991              -0.000199933               0.000066842               0.999999991              -0.000206453               0.000071690               0.999999991              -0.000213856               0.000076960               0.999999991              -0.000222238               0.000082469               0.999999991              -0.000231603               0.000088105               0.999999991              -0.000241886               0.000093855               0.999999991              -0.000253101               0.000099735               0.999999991              -0.000265214               0.000105561               0.999999991              -0.000278148               0.000111115               0.999999991              -0.000291773               0.000115992               0.999999991              -0.000305900               0.000119698               0.999999991              -0.000136665               0.000135787               0.999999991              -0.000158303               0.000117420               0.999999991              -0.000167872               0.000111861               0.999999991              -0.000173626               0.000113026               0.999999991              -0.000178511               0.000118111               0.999999991              -0.000183659               0.000125421               0.999999991              -0.000189521               0.000134078               0.999999991              -0.000196234               0.000143728               0.999999991              -0.000203896               0.000154157               0.999999991              -0.000212572               0.000165124               0.999999991              -0.000222228               0.000176381               0.999999991              -0.000232774               0.000187822               0.999999991              -0.000244156               0.000199382               0.999999991              -0.000256253               0.000210774               0.999999991              -0.000268946               0.000221624               0.999999991              -0.000282042               0.000231447               0.999999991              -0.000295439               0.000239683               0.999999991              -0.000132713               0.000201692               0.999999991              -0.000147978               0.000174724               0.999999991              -0.000154333               0.000167274               0.999999991              -0.000158673               0.000169711               0.999999991              -0.000163131               0.000177644               0.999999991              -0.000168350               0.000188783               0.999999991              -0.000174571               0.000201823               0.999999991              -0.000181836               0.000216271               0.999999991              -0.000190143               0.000231905               0.999999991              -0.000199405               0.000248159               0.999999991              -0.000209526               0.000264827               0.999999991              -0.000220410               0.000281763               0.999999991              -0.000231950               0.000298796               0.999999991              -0.000243959               0.000315567               0.999999991              -0.000256289               0.000331619               0.999999991              -0.000268831               0.000346559               0.999999991              -0.000281534               0.000359926               0.999999991              -0.000127464               0.000265358               0.999999991              -0.000134443               0.000230509               0.999999991              -0.000137179               0.000222034               0.999999991              -0.000140256               0.000226342               0.999999991              -0.000144678               0.000237467               0.999999991              -0.000150463               0.000252452               0.999999991              -0.000157574               0.000269978               0.999999991              -0.000165781               0.000289275               0.999999991              -0.000174955               0.000309855               0.999999991              -0.000184997               0.000331226               0.999999991              -0.000195725               0.000353161               0.999999991              -0.000206985               0.000375354               0.999999991              -0.000218638               0.000397687               0.999999991              -0.000230519               0.000419680               0.999999991              -0.000242498               0.000440902               0.999999991              -0.000254563               0.000461219               0.999999991              -0.000266763               0.000480396               0.999999991              -0.000120855               0.000326233               0.999999991              -0.000118370               0.000284517               0.999999991              -0.000117814               0.000275875               0.999999991              -0.000120317               0.000282480               0.999999991              -0.000125392               0.000297002               0.999999991              -0.000132283               0.000315957               0.999999991              -0.000140606               0.000337964               0.999999991              -0.000150051               0.000361898               0.999999991              -0.000160355               0.000387180               0.999999991              -0.000171342               0.000413502               0.999999991              -0.000182815               0.000440398               0.999999991              -0.000194619               0.000467696               0.999999991              -0.000206534               0.000495031               0.999999991              -0.000218397               0.000521886               0.999999991              -0.000230281               0.000548137               0.999999992              -0.000242171               0.000573656               0.999999992              -0.000254011               0.000598490               0.999999992              -0.000113003               0.000383697               0.999999991              -0.000100757               0.000336569               0.999999991              -0.000097807               0.000328411               0.999999991              -0.000100634               0.000337585               0.999999991              -0.000106945               0.000355609               0.999999991              -0.000115314               0.000378616               0.999999991              -0.000125196               0.000404905               0.999999991              -0.000136114               0.000433281               0.999999991              -0.000147715               0.000463144               0.999999991              -0.000159779               0.000494042               0.999999991              -0.000172062               0.000525637               0.999999991              -0.000184400               0.000557554               0.999999992              -0.000196554               0.000589391               0.999999992              -0.000208538               0.000620745               0.999999992              -0.000220333               0.000651528               0.999999992              -0.000231896               0.000681814               0.999999992              -0.000243199               0.000711320               0.999999992              -0.000104214               0.000437000               0.999999991              -0.000082577               0.000386531               0.999999991              -0.000078374               0.000379362               0.999999991              -0.000082434               0.000391124               0.999999991              -0.000090471               0.000412589               0.999999991              -0.000100681               0.000439435               0.999999991              -0.000112301               0.000469837               0.999999991              -0.000124758               0.000502575               0.999999991              -0.000137636               0.000536726               0.999999992              -0.000150600               0.000571941               0.999999992              -0.000163454               0.000607952               0.999999992              -0.000176039               0.000644120               0.999999992              -0.000188224               0.000680029               0.999999992              -0.000200014               0.000715466               0.999999992              -0.000211449               0.000750413               0.999999992              -0.000222467               0.000784833               0.999999992              -0.000233070               0.000818394               0.999999992              -0.000094900               0.000485274               0.999999991              -0.000064539               0.000434312               0.999999991              -0.000060641               0.000428304               0.999999991              -0.000066566               0.000442442               0.999999991              -0.000076712               0.000467063               0.999999991              -0.000088861               0.000497633               0.999999991              -0.000102214               0.000532105               0.999999992              -0.000115972               0.000569026               0.999999992              -0.000129689               0.000607367               0.999999992              -0.000143213               0.000646830               0.999999992              -0.000156290               0.000686826               0.999999992              -0.000168780               0.000726790               0.999999992              -0.000180681               0.000766401               0.999999992              -0.000192092               0.000805569               0.999999992              -0.000203101               0.000844258               0.999999992              -0.000213859               0.000882339               0.999999992              -0.000224399               0.000919630               0.999999992              -0.000085828               0.000530240               0.999999991              -0.000050606               0.000484911               0.999999991              -0.000044164               0.000475165               0.999999991              -0.000048613               0.000484399               0.999999991              -0.000057674               0.000504289               0.999999991              -0.000068767               0.000530616               0.999999992              -0.000080823               0.000561328               0.999999992              -0.000093431               0.000594821               0.999999992              -0.000105836               0.000630108               0.999999992              -0.000118042               0.000666551               0.999999992              -0.000129853               0.000703799               0.999999992              -0.000141093               0.000741385               0.999999992              -0.000151654               0.000778923               0.999999992              -0.000161559               0.000816347               0.999999992              -0.000171035               0.000853581               0.999999992              -0.000180457               0.000890475               0.999999992              -0.000189961               0.000926908               0.999999992              -0.000075716               0.000570675               0.999999991              -0.000038648               0.000533119               0.999999991              -0.000029797               0.000522501               0.999999992              -0.000032312               0.000528097               0.999999992              -0.000039837               0.000543931               0.999999992              -0.000049450               0.000566399               0.999999992              -0.000060124               0.000593448               0.999999992              -0.000071318               0.000623698               0.999999992              -0.000082405               0.000656065               0.999999992              -0.000093198               0.000689680               0.999999992              -0.000103684               0.000724244               0.999999992              -0.000113640               0.000759306               0.999999992              -0.000122801               0.000794595               0.999999992              -0.000131115               0.000829889               0.999999992              -0.000138718               0.000865216               0.999999992              -0.000145907               0.000900512               0.999999992              -0.000153116               0.000935831               0.999999992              -0.000064682               0.000606038               0.999999992              -0.000028545               0.000577765               0.999999992              -0.000018111               0.000568303               0.999999992              -0.000018609               0.000571981               0.999999992              -0.000024237               0.000584821               0.999999992              -0.000032167               0.000604014               0.999999992              -0.000041124               0.000627896               0.999999992              -0.000050573               0.000655167               0.999999992              -0.000060195               0.000684857               0.999999992              -0.000069555               0.000716055               0.999999992              -0.000078630               0.000748225               0.999999992              -0.000087214               0.000781072               0.999999992              -0.000094851               0.000814326               0.999999992              -0.000101435               0.000847787               0.999999992              -0.000106815               0.000881333               0.999999992              -0.000111187               0.000914941               0.999999992              -0.000114907               0.000948713               0.999999992              -0.000052768               0.000635794               0.999999992              -0.000020292               0.000617300               0.999999992              -0.000009426               0.000610409               0.999999992              -0.000008330               0.000613634               0.999999992              -0.000012065               0.000624665               0.999999992              -0.000018033               0.000641559               0.999999992              -0.000025035               0.000662960               0.999999992              -0.000032549               0.000687818               0.999999992              -0.000040412               0.000715186               0.999999992              -0.000048212               0.000744378               0.999999992              -0.000055735               0.000774712               0.999999992              -0.000062801               0.000805904               0.999999992              -0.000068907               0.000837745               0.999999992              -0.000073719               0.000869893               0.999999992              -0.000077015               0.000902226               0.999999992              -0.000078513               0.000934630               0.999999992              -0.000078294               0.000967139               0.999999992              -0.000040168               0.000659344               0.999999992              -0.000013708               0.000650082               0.999999992              -0.000003796               0.000646552               0.999999992              -0.000001820               0.000650320               0.999999992              -0.000003877               0.000660599               0.999999992              -0.000007957               0.000676162               0.999999992              -0.000012937               0.000695910               0.999999992              -0.000018437               0.000719018               0.999999992              -0.000024390               0.000744751               0.999999992              -0.000030416               0.000772483               0.999999992              -0.000036169               0.000801645               0.999999992              -0.000041499               0.000831811               0.999999992              -0.000046053               0.000862756               0.999999992              -0.000049408               0.000894254               0.999999992              -0.000051058               0.000926003               0.999999992              -0.000050477               0.000957839               0.999999992              -0.000047201               0.000989777               0.999999992              -0.000027023               0.000676382               0.999999992              -0.000008466               0.000674584               0.999999992              -0.000000877               0.000674437               0.999999992               0.000001167               0.000679354               0.999999992               0.000000270               0.000689548               0.999999992              -0.000002124               0.000704411               0.999999992              -0.000005290               0.000723137               0.999999992              -0.000008851               0.000745142               0.999999992              -0.000012772               0.000769763               0.999999992              -0.000016881               0.000796518               0.999999992              -0.000020853               0.000824908               0.999999992              -0.000024498               0.000854537               0.999999992              -0.000027519               0.000885177               0.999999992              -0.000029524               0.000916601               0.999999992              -0.000030041               0.000948539               0.999999992              -0.000028558               0.000980702               0.999999992              -0.000024181               0.001012828               0.999999992              -0.000013574               0.000686553               0.999999992              -0.000004082               0.000689651               0.999999992               0.000000083               0.000692104               0.999999992               0.000001362               0.000698129               0.999999992               0.000001115               0.000708533               0.999999992               0.000000026               0.000723128               0.999999992              -0.000001474               0.000741326               0.999999992              -0.000003210               0.000762577               0.999999992              -0.000005185               0.000786482               0.999999992              -0.000007293               0.000812639               0.999999992              -0.000009380               0.000840634               0.999999992              -0.000011260               0.000870109               0.999999992              -0.000012707               0.000900754               0.999999992              -0.000013551               0.000932399               0.999999992              -0.000013554               0.000964731               0.999999992              -0.000012400               0.000997457               0.999999992              -0.000009528               0.001030136               0.999999992              -0.000000000               0.000689871               0.999999992               0.000000000               0.000694712               0.999999992              -0.000000000               0.000698170               0.999999992               0.000000000               0.000704635               0.999999992              -0.000000000               0.000715137               0.999999992               0.000000000               0.000729619               0.999999992               0.000000000               0.000747672               0.999999992              -0.000000000               0.000768716               0.999999992              -0.000000000               0.000792367               0.999999992              -0.000000000               0.000818299               0.999999992              -0.000000000               0.000846128               0.999999992              -0.000000000               0.000875579               0.999999992              -0.000000000               0.000906324               0.999999992              -0.000000000               0.000938000               0.999999992              -0.000000000               0.000970409               0.999999992              -0.000000000               0.001003289               0.999999992              -0.000000000               0.001036149               0.999999992              -0.000140133               0.000000000               0.999999991              -0.000167225               0.000000000               0.999999991              -0.000179781               0.000000000               0.999999991              -0.000186996               0.000000000               0.999999991              -0.000192501               0.000000000               0.999999991              -0.000197837               0.000000000               0.999999991              -0.000203661               0.000000000               0.999999991              -0.000210136               0.000000000               0.999999991              -0.000217479               0.000000000               0.999999991              -0.000225811              -0.000000000               0.999999991              -0.000235185               0.000000000               0.999999991              -0.000245481               0.000000000               0.999999991              -0.000256704               0.000000000               0.999999991              -0.000268950               0.000000000               0.999999991              -0.000282141               0.000000000               0.999999991              -0.000296134               0.000000000               0.999999991              -0.000310639               0.000000000               0.999999991              -0.000139216              -0.000068306               0.999999991              -0.000164918              -0.000058994               0.999999991              -0.000176710              -0.000056008               0.999999991              -0.000183511              -0.000056434               0.999999991              -0.000188840              -0.000058891               0.999999991              -0.000194132              -0.000062503               0.999999991              -0.000199933              -0.000066842               0.999999991              -0.000206453              -0.000071690               0.999999991              -0.000213856              -0.000076960               0.999999991              -0.000222238              -0.000082469               0.999999991              -0.000231603              -0.000088105               0.999999991              -0.000241886              -0.000093855               0.999999991              -0.000253101              -0.000099735               0.999999991              -0.000265214              -0.000105561               0.999999991              -0.000278148              -0.000111115               0.999999991              -0.000291773              -0.000115992               0.999999991              -0.000305900              -0.000119698               0.999999991              -0.000136665              -0.000135787               0.999999991              -0.000158303              -0.000117420               0.999999991              -0.000167872              -0.000111861               0.999999991              -0.000173626              -0.000113026               0.999999991              -0.000178511              -0.000118111               0.999999991              -0.000183659              -0.000125421               0.999999991              -0.000189521              -0.000134078               0.999999991              -0.000196234              -0.000143728               0.999999991              -0.000203896              -0.000154157               0.999999991              -0.000212572              -0.000165124               0.999999991              -0.000222228              -0.000176381               0.999999991              -0.000232774              -0.000187822               0.999999991              -0.000244156              -0.000199382               0.999999991              -0.000256253              -0.000210774               0.999999991              -0.000268946              -0.000221624               0.999999991              -0.000282042              -0.000231447               0.999999991              -0.000295439              -0.000239683               0.999999991              -0.000132713              -0.000201692               0.999999991              -0.000147978              -0.000174724               0.999999991              -0.000154333              -0.000167274               0.999999991              -0.000158673              -0.000169711               0.999999991              -0.000163131              -0.000177644               0.999999991              -0.000168350              -0.000188783               0.999999991              -0.000174571              -0.000201823               0.999999991              -0.000181836              -0.000216271               0.999999991              -0.000190143              -0.000231905               0.999999991              -0.000199405              -0.000248159               0.999999991              -0.000209526              -0.000264827               0.999999991              -0.000220410              -0.000281763               0.999999991              -0.000231950              -0.000298796               0.999999991              -0.000243959              -0.000315567               0.999999991              -0.000256289              -0.000331619               0.999999991              -0.000268831              -0.000346559               0.999999991              -0.000281534              -0.000359926               0.999999991              -0.000127464              -0.000265358               0.999999991              -0.000134443              -0.000230509               0.999999991              -0.000137179              -0.000222034               0.999999991              -0.000140256              -0.000226342               0.999999991              -0.000144678              -0.000237467               0.999999991              -0.000150463              -0.000252452               0.999999991              -0.000157574              -0.000269978               0.999999991              -0.000165781              -0.000289275               0.999999991              -0.000174955              -0.000309855               0.999999991              -0.000184997              -0.000331226               0.999999991              -0.000195725              -0.000353161               0.999999991              -0.000206985              -0.000375354               0.999999991              -0.000218638              -0.000397687               0.999999991              -0.000230519              -0.000419680               0.999999991              -0.000242498              -0.000440902               0.999999991              -0.000254563              -0.000461219               0.999999991              -0.000266763              -0.000480396               0.999999991              -0.000120855              -0.000326233               0.999999991              -0.000118370              -0.000284517               0.999999991              -0.000117814              -0.000275875               0.999999991              -0.000120317              -0.000282480               0.999999991              -0.000125392              -0.000297002               0.999999991              -0.000132283              -0.000315957               0.999999991              -0.000140606              -0.000337964               0.999999991              -0.000150051              -0.000361898               0.999999991              -0.000160355              -0.000387180               0.999999991              -0.000171342              -0.000413502               0.999999991              -0.000182815              -0.000440398               0.999999991              -0.000194619              -0.000467696               0.999999991              -0.000206534              -0.000495031               0.999999991              -0.000218397              -0.000521886               0.999999991              -0.000230281              -0.000548137               0.999999992              -0.000242171              -0.000573656               0.999999992              -0.000254011              -0.000598490               0.999999992              -0.000113003              -0.000383697               0.999999991              -0.000100757              -0.000336569               0.999999991              -0.000097807              -0.000328411               0.999999991              -0.000100634              -0.000337585               0.999999991              -0.000106945              -0.000355609               0.999999991              -0.000115314              -0.000378616               0.999999991              -0.000125196              -0.000404905               0.999999991              -0.000136114              -0.000433281               0.999999991              -0.000147715              -0.000463144               0.999999991              -0.000159779              -0.000494042               0.999999991              -0.000172062              -0.000525637               0.999999991              -0.000184400              -0.000557554               0.999999992              -0.000196554              -0.000589391               0.999999992              -0.000208538              -0.000620745               0.999999992              -0.000220333              -0.000651528               0.999999992              -0.000231896              -0.000681814               0.999999992              -0.000243199              -0.000711320               0.999999992              -0.000104214              -0.000437000               0.999999991              -0.000082577              -0.000386531               0.999999991              -0.000078374              -0.000379362               0.999999991              -0.000082434              -0.000391124               0.999999991              -0.000090471              -0.000412589               0.999999991              -0.000100681              -0.000439435               0.999999991              -0.000112301              -0.000469837               0.999999991              -0.000124758              -0.000502575               0.999999991              -0.000137636              -0.000536726               0.999999992              -0.000150600              -0.000571941               0.999999992              -0.000163454              -0.000607952               0.999999992              -0.000176039              -0.000644120               0.999999992              -0.000188224              -0.000680029               0.999999992              -0.000200014              -0.000715466               0.999999992              -0.000211449              -0.000750413               0.999999992              -0.000222467              -0.000784833               0.999999992              -0.000233070              -0.000818394               0.999999992              -0.000094900              -0.000485274               0.999999991              -0.000064539              -0.000434312               0.999999991              -0.000060641              -0.000428304               0.999999991              -0.000066566              -0.000442442               0.999999991              -0.000076712              -0.000467063               0.999999991              -0.000088861              -0.000497633               0.999999991              -0.000102214              -0.000532105               0.999999992              -0.000115972              -0.000569026               0.999999992              -0.000129689              -0.000607367               0.999999992              -0.000143213              -0.000646830               0.999999992              -0.000156290              -0.000686826               0.999999992              -0.000168780              -0.000726790               0.999999992              -0.000180681              -0.000766401               0.999999992              -0.000192092              -0.000805569               0.999999992              -0.000203101              -0.000844258               0.999999992              -0.000213859              -0.000882339               0.999999992              -0.000224399              -0.000919630               0.999999992              -0.000085828              -0.000530240               0.999999991              -0.000050606              -0.000484911               0.999999991              -0.000044164              -0.000475165               0.999999991              -0.000048613              -0.000484399               0.999999991              -0.000057674              -0.000504289               0.999999991              -0.000068767              -0.000530616               0.999999992              -0.000080823              -0.000561328               0.999999992              -0.000093431              -0.000594821               0.999999992              -0.000105836              -0.000630108               0.999999992              -0.000118042              -0.000666551               0.999999992              -0.000129853              -0.000703799               0.999999992              -0.000141093              -0.000741385               0.999999992              -0.000151654              -0.000778923               0.999999992              -0.000161559              -0.000816347               0.999999992              -0.000171035              -0.000853581               0.999999992              -0.000180457              -0.000890475               0.999999992              -0.000189961              -0.000926908               0.999999992              -0.000075716              -0.000570675               0.999999991              -0.000038648              -0.000533119               0.999999991              -0.000029797              -0.000522501               0.999999992              -0.000032312              -0.000528097               0.999999992              -0.000039837              -0.000543931               0.999999992              -0.000049450              -0.000566399               0.999999992              -0.000060124              -0.000593448               0.999999992              -0.000071318              -0.000623698               0.999999992              -0.000082405              -0.000656065               0.999999992              -0.000093198              -0.000689680               0.999999992              -0.000103684              -0.000724244               0.999999992              -0.000113640              -0.000759306               0.999999992              -0.000122801              -0.000794595               0.999999992              -0.000131115              -0.000829889               0.999999992              -0.000138718              -0.000865216               0.999999992              -0.000145907              -0.000900512               0.999999992              -0.000153116              -0.000935831               0.999999992              -0.000064682              -0.000606038               0.999999992              -0.000028545              -0.000577765               0.999999992              -0.000018111              -0.000568303               0.999999992              -0.000018609              -0.000571981               0.999999992              -0.000024237              -0.000584821               0.999999992              -0.000032167              -0.000604014               0.999999992              -0.000041124              -0.000627896               0.999999992              -0.000050573              -0.000655167               0.999999992              -0.000060195              -0.000684857               0.999999992              -0.000069555              -0.000716055               0.999999992              -0.000078630              -0.000748225               0.999999992              -0.000087214              -0.000781072               0.999999992              -0.000094851              -0.000814326               0.999999992              -0.000101435              -0.000847787               0.999999992              -0.000106815              -0.000881333               0.999999992              -0.000111187              -0.000914941               0.999999992              -0.000114907              -0.000948713               0.999999992              -0.000052768              -0.000635794               0.999999992              -0.000020292              -0.000617300               0.999999992              -0.000009426              -0.000610409               0.999999992              -0.000008330              -0.000613634               0.999999992              -0.000012065              -0.000624665               0.999999992              -0.000018033              -0.000641559               0.999999992              -0.000025035              -0.000662960               0.999999992              -0.000032549              -0.000687818               0.999999992              -0.000040412              -0.000715186               0.999999992              -0.000048212              -0.000744378               0.999999992              -0.000055735              -0.000774712               0.999999992              -0.000062801              -0.000805904               0.999999992              -0.000068907              -0.000837745               0.999999992              -0.000073719              -0.000869893               0.999999992              -0.000077015              -0.000902226               0.999999992              -0.000078513              -0.000934630               0.999999992              -0.000078294              -0.000967139               0.999999992              -0.000040168              -0.000659344               0.999999992              -0.000013708              -0.000650082               0.999999992              -0.000003796              -0.000646552               0.999999992              -0.000001820              -0.000650320               0.999999992              -0.000003877              -0.000660599               0.999999992              -0.000007957              -0.000676162               0.999999992              -0.000012937              -0.000695910               0.999999992              -0.000018437              -0.000719018               0.999999992              -0.000024390              -0.000744751               0.999999992              -0.000030416              -0.000772483               0.999999992              -0.000036169              -0.000801645               0.999999992              -0.000041499              -0.000831811               0.999999992              -0.000046053              -0.000862756               0.999999992              -0.000049408              -0.000894254               0.999999992              -0.000051058              -0.000926003               0.999999992              -0.000050477              -0.000957839               0.999999992              -0.000047201              -0.000989777               0.999999992              -0.000027023              -0.000676382               0.999999992              -0.000008466              -0.000674584               0.999999992              -0.000000877              -0.000674437               0.999999992               0.000001167              -0.000679354               0.999999992               0.000000270              -0.000689548               0.999999992              -0.000002124              -0.000704411               0.999999992              -0.000005290              -0.000723137               0.999999992              -0.000008851              -0.000745142               0.999999992              -0.000012772              -0.000769763               0.999999992              -0.000016881              -0.000796518               0.999999992              -0.000020853              -0.000824908               0.999999992              -0.000024498              -0.000854537               0.999999992              -0.000027519              -0.000885177               0.999999992              -0.000029524              -0.000916601               0.999999992              -0.000030041              -0.000948539               0.999999992              -0.000028558              -0.000980702               0.999999992              -0.000024181              -0.001012828               0.999999992              -0.000013574              -0.000686553               0.999999992              -0.000004082              -0.000689651               0.999999992               0.000000083              -0.000692104               0.999999992               0.000001362              -0.000698129               0.999999992               0.000001115              -0.000708533               0.999999992               0.000000026              -0.000723128               0.999999992              -0.000001474              -0.000741326               0.999999992              -0.000003210              -0.000762577               0.999999992              -0.000005185              -0.000786482               0.999999992              -0.000007293              -0.000812639               0.999999992              -0.000009380              -0.000840634               0.999999992              -0.000011260              -0.000870109               0.999999992              -0.000012707              -0.000900754               0.999999992              -0.000013551              -0.000932399               0.999999992              -0.000013554              -0.000964731               0.999999992              -0.000012400              -0.000997457               0.999999992              -0.000009528              -0.001030136               0.999999992               0.000000000              -0.000689871               0.999999992               0.000000000              -0.000694712               0.999999992              -0.000000000              -0.000698170               0.999999992              -0.000000000              -0.000704635               0.999999992              -0.000000000              -0.000715137               0.999999992              -0.000000000              -0.000729619               0.999999992              -0.000000000              -0.000747672               0.999999992               0.000000000              -0.000768716               0.999999992               0.000000000              -0.000792367               0.999999992              -0.000000000              -0.000818299               0.999999992               0.000000000              -0.000846128               0.999999992              -0.000000000              -0.000875579               0.999999992               0.000000000              -0.000906324               0.999999992               0.000000000              -0.000938000               0.999999992               0.000000000              -0.000970409               0.999999992              -0.000000000              -0.001003289               0.999999992               0.000000000              -0.001036149               0.999999992               0.000140133              -0.000000000               0.999999991               0.000167225               0.000000000               0.999999991               0.000179781               0.000000000               0.999999991               0.000186996              -0.000000000               0.999999991               0.000192501              -0.000000000               0.999999991               0.000197837               0.000000000               0.999999991               0.000203661              -0.000000000               0.999999991               0.000210136              -0.000000000               0.999999991               0.000217479               0.000000000               0.999999991               0.000225811               0.000000000               0.999999991               0.000235185               0.000000000               0.999999991               0.000245481               0.000000000               0.999999991               0.000256704               0.000000000               0.999999991               0.000268950               0.000000000               0.999999991               0.000282141               0.000000000               0.999999991               0.000296134               0.000000000               0.999999991               0.000310639               0.000000000               0.999999991               0.000139216              -0.000068306               0.999999991               0.000164918              -0.000058994               0.999999991               0.000176710              -0.000056008               0.999999991               0.000183511              -0.000056434               0.999999991               0.000188840              -0.000058891               0.999999991               0.000194132              -0.000062503               0.999999991               0.000199933              -0.000066842               0.999999991               0.000206453              -0.000071690               0.999999991               0.000213856              -0.000076960               0.999999991               0.000222238              -0.000082469               0.999999991               0.000231603              -0.000088105               0.999999991               0.000241886              -0.000093855               0.999999991               0.000253101              -0.000099735               0.999999991               0.000265214              -0.000105561               0.999999991               0.000278148              -0.000111115               0.999999991               0.000291773              -0.000115992               0.999999991               0.000305900              -0.000119698               0.999999991               0.000136665              -0.000135787               0.999999991               0.000158303              -0.000117420               0.999999991               0.000167872              -0.000111861               0.999999991               0.000173626              -0.000113026               0.999999991               0.000178511              -0.000118111               0.999999991               0.000183659              -0.000125421               0.999999991               0.000189521              -0.000134078               0.999999991               0.000196234              -0.000143728               0.999999991               0.000203896              -0.000154157               0.999999991               0.000212572              -0.000165124               0.999999991               0.000222228              -0.000176381               0.999999991               0.000232774              -0.000187822               0.999999991               0.000244156              -0.000199382               0.999999991               0.000256253              -0.000210774               0.999999991               0.000268946              -0.000221624               0.999999991               0.000282042              -0.000231447               0.999999991               0.000295439              -0.000239683               0.999999991               0.000132713              -0.000201692               0.999999991               0.000147978              -0.000174724               0.999999991               0.000154333              -0.000167274               0.999999991               0.000158673              -0.000169711               0.999999991               0.000163131              -0.000177644               0.999999991               0.000168350              -0.000188783               0.999999991               0.000174571              -0.000201823               0.999999991               0.000181836              -0.000216271               0.999999991               0.000190143              -0.000231905               0.999999991               0.000199405              -0.000248159               0.999999991               0.000209526              -0.000264827               0.999999991               0.000220410              -0.000281763               0.999999991               0.000231950              -0.000298796               0.999999991               0.000243959              -0.000315567               0.999999991               0.000256289              -0.000331619               0.999999991               0.000268831              -0.000346559               0.999999991               0.000281534              -0.000359926               0.999999991               0.000127464              -0.000265358               0.999999991               0.000134443              -0.000230509               0.999999991               0.000137179              -0.000222034               0.999999991               0.000140256              -0.000226342               0.999999991               0.000144678              -0.000237467               0.999999991               0.000150463              -0.000252452               0.999999991               0.000157574              -0.000269978               0.999999991               0.000165781              -0.000289275               0.999999991               0.000174955              -0.000309855               0.999999991               0.000184997              -0.000331226               0.999999991               0.000195725              -0.000353161               0.999999991               0.000206985              -0.000375354               0.999999991               0.000218638              -0.000397687               0.999999991               0.000230519              -0.000419680               0.999999991               0.000242498              -0.000440902               0.999999991               0.000254563              -0.000461219               0.999999991               0.000266763              -0.000480396               0.999999991               0.000120855              -0.000326233               0.999999991               0.000118370              -0.000284517               0.999999991               0.000117814              -0.000275875               0.999999991               0.000120317              -0.000282480               0.999999991               0.000125392              -0.000297002               0.999999991               0.000132283              -0.000315957               0.999999991               0.000140606              -0.000337964               0.999999991               0.000150051              -0.000361898               0.999999991               0.000160355              -0.000387180               0.999999991               0.000171342              -0.000413502               0.999999991               0.000182815              -0.000440398               0.999999991               0.000194619              -0.000467696               0.999999991               0.000206534              -0.000495031               0.999999991               0.000218397              -0.000521886               0.999999991               0.000230281              -0.000548137               0.999999992               0.000242171              -0.000573656               0.999999992               0.000254011              -0.000598490               0.999999992               0.000113003              -0.000383697               0.999999991               0.000100757              -0.000336569               0.999999991               0.000097807              -0.000328411               0.999999991               0.000100634              -0.000337585               0.999999991               0.000106945              -0.000355609               0.999999991               0.000115314              -0.000378616               0.999999991               0.000125196              -0.000404905               0.999999991               0.000136114              -0.000433281               0.999999991               0.000147715              -0.000463144               0.999999991               0.000159779              -0.000494042               0.999999991               0.000172062              -0.000525637               0.999999991               0.000184400              -0.000557554               0.999999992               0.000196554              -0.000589391               0.999999992               0.000208538              -0.000620745               0.999999992               0.000220333              -0.000651528               0.999999992               0.000231896              -0.000681814               0.999999992               0.000243199              -0.000711320               0.999999992               0.000104214              -0.000437000               0.999999991               0.000082577              -0.000386531               0.999999991               0.000078374              -0.000379362               0.999999991               0.000082434              -0.000391124               0.999999991               0.000090471              -0.000412589               0.999999991               0.000100681              -0.000439435               0.999999991               0.000112301              -0.000469837               0.999999991               0.000124758              -0.000502575               0.999999991               0.000137636              -0.000536726               0.999999992               0.000150600              -0.000571941               0.999999992               0.000163454              -0.000607952               0.999999992               0.000176039              -0.000644120               0.999999992               0.000188224              -0.000680029               0.999999992               0.000200014              -0.000715466               0.999999992               0.000211449              -0.000750413               0.999999992               0.000222467              -0.000784833               0.999999992               0.000233070              -0.000818394               0.999999992               0.000094900              -0.000485274               0.999999991               0.000064539              -0.000434312               0.999999991               0.000060641              -0.000428304               0.999999991               0.000066566              -0.000442442               0.999999991               0.000076712              -0.000467063               0.999999991               0.000088861              -0.000497633               0.999999991               0.000102214              -0.000532105               0.999999992               0.000115972              -0.000569026               0.999999992               0.000129689              -0.000607367               0.999999992               0.000143213              -0.000646830               0.999999992               0.000156290              -0.000686826               0.999999992               0.000168780              -0.000726790               0.999999992               0.000180681              -0.000766401               0.999999992               0.000192092              -0.000805569               0.999999992               0.000203101              -0.000844258               0.999999992               0.000213859              -0.000882339               0.999999992               0.000224399              -0.000919630               0.999999992               0.000085828              -0.000530240               0.999999991               0.000050606              -0.000484911               0.999999991               0.000044164              -0.000475165               0.999999991               0.000048613              -0.000484399               0.999999991               0.000057674              -0.000504289               0.999999991               0.000068767              -0.000530616               0.999999992               0.000080823              -0.000561328               0.999999992               0.000093431              -0.000594821               0.999999992               0.000105836              -0.000630108               0.999999992               0.000118042              -0.000666551               0.999999992               0.000129853              -0.000703799               0.999999992               0.000141093              -0.000741385               0.999999992               0.000151654              -0.000778923               0.999999992               0.000161559              -0.000816347               0.999999992               0.000171035              -0.000853581               0.999999992               0.000180457              -0.000890475               0.999999992               0.000189961              -0.000926908               0.999999992               0.000075716              -0.000570675               0.999999991               0.000038648              -0.000533119               0.999999991               0.000029797              -0.000522501               0.999999992               0.000032312              -0.000528097               0.999999992               0.000039837              -0.000543931               0.999999992               0.000049450              -0.000566399               0.999999992               0.000060124              -0.000593448               0.999999992               0.000071318              -0.000623698               0.999999992               0.000082405              -0.000656065               0.999999992               0.000093198              -0.000689680               0.999999992               0.000103684              -0.000724244               0.999999992               0.000113640              -0.000759306               0.999999992               0.000122801              -0.000794595               0.999999992               0.000131115              -0.000829889               0.999999992               0.000138718              -0.000865216               0.999999992               0.000145907              -0.000900512               0.999999992               0.000153116              -0.000935831               0.999999992               0.000064682              -0.000606038               0.999999992               0.000028545              -0.000577765               0.999999992               0.000018111              -0.000568303               0.999999992               0.000018609              -0.000571981               0.999999992               0.000024237              -0.000584821               0.999999992               0.000032167              -0.000604014               0.999999992               0.000041124              -0.000627896               0.999999992               0.000050573              -0.000655167               0.999999992               0.000060195              -0.000684857               0.999999992               0.000069555              -0.000716055               0.999999992               0.000078630              -0.000748225               0.999999992               0.000087214              -0.000781072               0.999999992               0.000094851              -0.000814326               0.999999992               0.000101435              -0.000847787               0.999999992               0.000106815              -0.000881333               0.999999992               0.000111187              -0.000914941               0.999999992               0.000114907              -0.000948713               0.999999992               0.000052768              -0.000635794               0.999999992               0.000020292              -0.000617300               0.999999992               0.000009426              -0.000610409               0.999999992               0.000008330              -0.000613634               0.999999992               0.000012065              -0.000624665               0.999999992               0.000018033              -0.000641559               0.999999992               0.000025035              -0.000662960               0.999999992               0.000032549              -0.000687818               0.999999992               0.000040412              -0.000715186               0.999999992               0.000048212              -0.000744378               0.999999992               0.000055735              -0.000774712               0.999999992               0.000062801              -0.000805904               0.999999992               0.000068907              -0.000837745               0.999999992               0.000073719              -0.000869893               0.999999992               0.000077015              -0.000902226               0.999999992               0.000078513              -0.000934630               0.999999992               0.000078294              -0.000967139               0.999999992               0.000040168              -0.000659344               0.999999992               0.000013708              -0.000650082               0.999999992               0.000003796              -0.000646552               0.999999992               0.000001820              -0.000650320               0.999999992               0.000003877              -0.000660599               0.999999992               0.000007957              -0.000676162               0.999999992               0.000012937              -0.000695910               0.999999992               0.000018437              -0.000719018               0.999999992               0.000024390              -0.000744751               0.999999992               0.000030416              -0.000772483               0.999999992               0.000036169              -0.000801645               0.999999992               0.000041499              -0.000831811               0.999999992               0.000046053              -0.000862756               0.999999992               0.000049408              -0.000894254               0.999999992               0.000051058              -0.000926003               0.999999992               0.000050477              -0.000957839               0.999999992               0.000047201              -0.000989777               0.999999992               0.000027023              -0.000676382               0.999999992               0.000008466              -0.000674584               0.999999992               0.000000877              -0.000674437               0.999999992              -0.000001167              -0.000679354               0.999999992              -0.000000270              -0.000689548               0.999999992               0.000002124              -0.000704411               0.999999992               0.000005290              -0.000723137               0.999999992               0.000008851              -0.000745142               0.999999992               0.000012772              -0.000769763               0.999999992               0.000016881              -0.000796518               0.999999992               0.000020853              -0.000824908               0.999999992               0.000024498              -0.000854537               0.999999992               0.000027519              -0.000885177               0.999999992               0.000029524              -0.000916601               0.999999992               0.000030041              -0.000948539               0.999999992               0.000028558              -0.000980702               0.999999992               0.000024181              -0.001012828               0.999999992               0.000013574              -0.000686553               0.999999992               0.000004082              -0.000689651               0.999999992              -0.000000083              -0.000692104               0.999999992              -0.000001362              -0.000698129               0.999999992              -0.000001115              -0.000708533               0.999999992              -0.000000026              -0.000723128               0.999999992               0.000001474              -0.000741326               0.999999992               0.000003210              -0.000762577               0.999999992               0.000005185              -0.000786482               0.999999992               0.000007293              -0.000812639               0.999999992               0.000009380              -0.000840634               0.999999992               0.000011260              -0.000870109               0.999999992               0.000012707              -0.000900754               0.999999992               0.000013551              -0.000932399               0.999999992               0.000013554              -0.000964731               0.999999992               0.000012400              -0.000997457               0.999999992               0.000009528              -0.001030136               0.999999992               0.000000000              -0.000689871               0.999999992               0.000000000              -0.000694712               0.999999992              -0.000000000              -0.000698170               0.999999992              -0.000000000              -0.000704635               0.999999992              -0.000000000              -0.000715137               0.999999992              -0.000000000              -0.000729619               0.999999992              -0.000000000              -0.000747672               0.999999992               0.000000000              -0.000768716               0.999999992               0.000000000              -0.000792367               0.999999992              -0.000000000              -0.000818299               0.999999992               0.000000000              -0.000846128               0.999999992              -0.000000000              -0.000875579               0.999999992               0.000000000              -0.000906324               0.999999992               0.000000000              -0.000938000               0.999999992               0.000000000              -0.000970409               0.999999992              -0.000000000              -0.001003289               0.999999992               0.000000000              -0.001036149               0.999999992               0.000140133              -0.000000000               0.999999991               0.000167225               0.000000000               0.999999991               0.000179781               0.000000000               0.999999991               0.000186996              -0.000000000               0.999999991               0.000192501              -0.000000000               0.999999991               0.000197837               0.000000000               0.999999991               0.000203661              -0.000000000               0.999999991               0.000210136              -0.000000000               0.999999991               0.000217479               0.000000000               0.999999991               0.000225811               0.000000000               0.999999991               0.000235185               0.000000000               0.999999991               0.000245481               0.000000000               0.999999991               0.000256704               0.000000000               0.999999991               0.000268950               0.000000000               0.999999991               0.000282141               0.000000000               0.999999991               0.000296134               0.000000000               0.999999991               0.000310639               0.000000000               0.999999991               0.000139216               0.000068306               0.999999991               0.000164918               0.000058994               0.999999991               0.000176710               0.000056008               0.999999991               0.000183511               0.000056434               0.999999991               0.000188840               0.000058891               0.999999991               0.000194132               0.000062503               0.999999991               0.000199933               0.000066842               0.999999991               0.000206453               0.000071690               0.999999991               0.000213856               0.000076960               0.999999991               0.000222238               0.000082469               0.999999991               0.000231603               0.000088105               0.999999991               0.000241886               0.000093855               0.999999991               0.000253101               0.000099735               0.999999991               0.000265214               0.000105561               0.999999991               0.000278148               0.000111115               0.999999991               0.000291773               0.000115992               0.999999991               0.000305900               0.000119698               0.999999991               0.000136665               0.000135787               0.999999991               0.000158303               0.000117420               0.999999991               0.000167872               0.000111861               0.999999991               0.000173626               0.000113026               0.999999991               0.000178511               0.000118111               0.999999991               0.000183659               0.000125421               0.999999991               0.000189521               0.000134078               0.999999991               0.000196234               0.000143728               0.999999991               0.000203896               0.000154157               0.999999991               0.000212572               0.000165124               0.999999991               0.000222228               0.000176381               0.999999991               0.000232774               0.000187822               0.999999991               0.000244156               0.000199382               0.999999991               0.000256253               0.000210774               0.999999991               0.000268946               0.000221624               0.999999991               0.000282042               0.000231447               0.999999991               0.000295439               0.000239683               0.999999991               0.000132713               0.000201692               0.999999991               0.000147978               0.000174724               0.999999991               0.000154333               0.000167274               0.999999991               0.000158673               0.000169711               0.999999991               0.000163131               0.000177644               0.999999991               0.000168350               0.000188783               0.999999991               0.000174571               0.000201823               0.999999991               0.000181836               0.000216271               0.999999991               0.000190143               0.000231905               0.999999991               0.000199405               0.000248159               0.999999991               0.000209526               0.000264827               0.999999991               0.000220410               0.000281763               0.999999991               0.000231950               0.000298796               0.999999991               0.000243959               0.000315567               0.999999991               0.000256289               0.000331619               0.999999991               0.000268831               0.000346559               0.999999991               0.000281534               0.000359926               0.999999991               0.000127464               0.000265358               0.999999991               0.000134443               0.000230509               0.999999991               0.000137179               0.000222034               0.999999991               0.000140256               0.000226342               0.999999991               0.000144678               0.000237467               0.999999991               0.000150463               0.000252452               0.999999991               0.000157574               0.000269978               0.999999991               0.000165781               0.000289275               0.999999991               0.000174955               0.000309855               0.999999991               0.000184997               0.000331226               0.999999991               0.000195725               0.000353161               0.999999991               0.000206985               0.000375354               0.999999991               0.000218638               0.000397687               0.999999991               0.000230519               0.000419680               0.999999991               0.000242498               0.000440902               0.999999991               0.000254563               0.000461219               0.999999991               0.000266763               0.000480396               0.999999991               0.000120855               0.000326233               0.999999991               0.000118370               0.000284517               0.999999991               0.000117814               0.000275875               0.999999991               0.000120317               0.000282480               0.999999991               0.000125392               0.000297002               0.999999991               0.000132283               0.000315957               0.999999991               0.000140606               0.000337964               0.999999991               0.000150051               0.000361898               0.999999991               0.000160355               0.000387180               0.999999991               0.000171342               0.000413502               0.999999991               0.000182815               0.000440398               0.999999991               0.000194619               0.000467696               0.999999991               0.000206534               0.000495031               0.999999991               0.000218397               0.000521886               0.999999991               0.000230281               0.000548137               0.999999992               0.000242171               0.000573656               0.999999992               0.000254011               0.000598490               0.999999992               0.000113003               0.000383697               0.999999991               0.000100757               0.000336569               0.999999991               0.000097807               0.000328411               0.999999991               0.000100634               0.000337585               0.999999991               0.000106945               0.000355609               0.999999991               0.000115314               0.000378616               0.999999991               0.000125196               0.000404905               0.999999991               0.000136114               0.000433281               0.999999991               0.000147715               0.000463144               0.999999991               0.000159779               0.000494042               0.999999991               0.000172062               0.000525637               0.999999991               0.000184400               0.000557554               0.999999992               0.000196554               0.000589391               0.999999992               0.000208538               0.000620745               0.999999992               0.000220333               0.000651528               0.999999992               0.000231896               0.000681814               0.999999992               0.000243199               0.000711320               0.999999992               0.000104214               0.000437000               0.999999991               0.000082577               0.000386531               0.999999991               0.000078374               0.000379362               0.999999991               0.000082434               0.000391124               0.999999991               0.000090471               0.000412589               0.999999991               0.000100681               0.000439435               0.999999991               0.000112301               0.000469837               0.999999991               0.000124758               0.000502575               0.999999991               0.000137636               0.000536726               0.999999992               0.000150600               0.000571941               0.999999992               0.000163454               0.000607952               0.999999992               0.000176039               0.000644120               0.999999992               0.000188224               0.000680029               0.999999992               0.000200014               0.000715466               0.999999992               0.000211449               0.000750413               0.999999992               0.000222467               0.000784833               0.999999992               0.000233070               0.000818394               0.999999992               0.000094900               0.000485274               0.999999991               0.000064539               0.000434312               0.999999991               0.000060641               0.000428304               0.999999991               0.000066566               0.000442442               0.999999991               0.000076712               0.000467063               0.999999991               0.000088861               0.000497633               0.999999991               0.000102214               0.000532105               0.999999992               0.000115972               0.000569026               0.999999992               0.000129689               0.000607367               0.999999992               0.000143213               0.000646830               0.999999992               0.000156290               0.000686826               0.999999992               0.000168780               0.000726790               0.999999992               0.000180681               0.000766401               0.999999992               0.000192092               0.000805569               0.999999992               0.000203101               0.000844258               0.999999992               0.000213859               0.000882339               0.999999992               0.000224399               0.000919630               0.999999992               0.000085828               0.000530240               0.999999991               0.000050606               0.000484911               0.999999991               0.000044164               0.000475165               0.999999991               0.000048613               0.000484399               0.999999991               0.000057674               0.000504289               0.999999991               0.000068767               0.000530616               0.999999992               0.000080823               0.000561328               0.999999992               0.000093431               0.000594821               0.999999992               0.000105836               0.000630108               0.999999992               0.000118042               0.000666551               0.999999992               0.000129853               0.000703799               0.999999992               0.000141093               0.000741385               0.999999992               0.000151654               0.000778923               0.999999992               0.000161559               0.000816347               0.999999992               0.000171035               0.000853581               0.999999992               0.000180457               0.000890475               0.999999992               0.000189961               0.000926908               0.999999992               0.000075716               0.000570675               0.999999991               0.000038648               0.000533119               0.999999991               0.000029797               0.000522501               0.999999992               0.000032312               0.000528097               0.999999992               0.000039837               0.000543931               0.999999992               0.000049450               0.000566399               0.999999992               0.000060124               0.000593448               0.999999992               0.000071318               0.000623698               0.999999992               0.000082405               0.000656065               0.999999992               0.000093198               0.000689680               0.999999992               0.000103684               0.000724244               0.999999992               0.000113640               0.000759306               0.999999992               0.000122801               0.000794595               0.999999992               0.000131115               0.000829889               0.999999992               0.000138718               0.000865216               0.999999992               0.000145907               0.000900512               0.999999992               0.000153116               0.000935831               0.999999992               0.000064682               0.000606038               0.999999992               0.000028545               0.000577765               0.999999992               0.000018111               0.000568303               0.999999992               0.000018609               0.000571981               0.999999992               0.000024237               0.000584821               0.999999992               0.000032167               0.000604014               0.999999992               0.000041124               0.000627896               0.999999992               0.000050573               0.000655167               0.999999992               0.000060195               0.000684857               0.999999992               0.000069555               0.000716055               0.999999992               0.000078630               0.000748225               0.999999992               0.000087214               0.000781072               0.999999992               0.000094851               0.000814326               0.999999992               0.000101435               0.000847787               0.999999992               0.000106815               0.000881333               0.999999992               0.000111187               0.000914941               0.999999992               0.000114907               0.000948713               0.999999992               0.000052768               0.000635794               0.999999992               0.000020292               0.000617300               0.999999992               0.000009426               0.000610409               0.999999992               0.000008330               0.000613634               0.999999992               0.000012065               0.000624665               0.999999992               0.000018033               0.000641559               0.999999992               0.000025035               0.000662960               0.999999992               0.000032549               0.000687818               0.999999992               0.000040412               0.000715186               0.999999992               0.000048212               0.000744378               0.999999992               0.000055735               0.000774712               0.999999992               0.000062801               0.000805904               0.999999992               0.000068907               0.000837745               0.999999992               0.000073719               0.000869893               0.999999992               0.000077015               0.000902226               0.999999992               0.000078513               0.000934630               0.999999992               0.000078294               0.000967139               0.999999992               0.000040168               0.000659344               0.999999992               0.000013708               0.000650082               0.999999992               0.000003796               0.000646552               0.999999992               0.000001820               0.000650320               0.999999992               0.000003877               0.000660599               0.999999992               0.000007957               0.000676162               0.999999992               0.000012937               0.000695910               0.999999992               0.000018437               0.000719018               0.999999992               0.000024390               0.000744751               0.999999992               0.000030416               0.000772483               0.999999992               0.000036169               0.000801645               0.999999992               0.000041499               0.000831811               0.999999992               0.000046053               0.000862756               0.999999992               0.000049408               0.000894254               0.999999992               0.000051058               0.000926003               0.999999992               0.000050477               0.000957839               0.999999992               0.000047201               0.000989777               0.999999992               0.000027023               0.000676382               0.999999992               0.000008466               0.000674584               0.999999992               0.000000877               0.000674437               0.999999992              -0.000001167               0.000679354               0.999999992              -0.000000270               0.000689548               0.999999992               0.000002124               0.000704411               0.999999992               0.000005290               0.000723137               0.999999992               0.000008851               0.000745142               0.999999992               0.000012772               0.000769763               0.999999992               0.000016881               0.000796518               0.999999992               0.000020853               0.000824908               0.999999992               0.000024498               0.000854537               0.999999992               0.000027519               0.000885177               0.999999992               0.000029524               0.000916601               0.999999992               0.000030041               0.000948539               0.999999992               0.000028558               0.000980702               0.999999992               0.000024181               0.001012828               0.999999992               0.000013574               0.000686553               0.999999992               0.000004082               0.000689651               0.999999992              -0.000000083               0.000692104               0.999999992              -0.000001362               0.000698129               0.999999992              -0.000001115               0.000708533               0.999999992              -0.000000026               0.000723128               0.999999992               0.000001474               0.000741326               0.999999992               0.000003210               0.000762577               0.999999992               0.000005185               0.000786482               0.999999992               0.000007293               0.000812639               0.999999992               0.000009380               0.000840634               0.999999992               0.000011260               0.000870109               0.999999992               0.000012707               0.000900754               0.999999992               0.000013551               0.000932399               0.999999992               0.000013554               0.000964731               0.999999992               0.000012400               0.000997457               0.999999992               0.000009528               0.001030136               0.999999992              -0.000000000               0.000689871               0.999999992               0.000000000               0.000694712               0.999999992              -0.000000000               0.000698170               0.999999992               0.000000000               0.000704635               0.999999992              -0.000000000               0.000715137               0.999999992               0.000000000               0.000729619               0.999999992               0.000000000               0.000747672               0.999999992              -0.000000000               0.000768716               0.999999992              -0.000000000               0.000792367               0.999999992              -0.000000000               0.000818299               0.999999992              -0.000000000               0.000846128               0.999999992              -0.000000000               0.000875579               0.999999992              -0.000000000               0.000906324               0.999999992              -0.000000000               0.000938000               0.999999992              -0.000000000               0.000970409               0.999999992              -0.000000000               0.001003289               0.999999992              -0.000000000               0.001036149               0.999999992 </DataArray>
<DataArray type="Float64"                                    Name="stress"                                                      NumberOfComponents="10" format="ascii">
              0.001133022               0.012697600              -0.000000000              -0.001162314               0.004619929               0.003457615               0.000000000               0.000000000               0.000000000               0.000000000               0.001215010               0.010308373              -0.000000000              -0.000832916               0.003713729               0.002880813               0.000000000               0.000000000               0.000000000               0.000000000               0.001671667               0.008395521               0.000000000              -0.000422564               0.002939333               0.002516770               0.000000000               0.000000000               0.000000000               0.000000000               0.001708987               0.007349559               0.000000000              -0.000277824               0.002542437               0.002264613               0.000000000               0.000000000               0.000000000               0.000000000               0.001602737               0.006733679               0.000000000              -0.000240683               0.002324765               0.002084082               0.000000000               0.000000000               0.000000000               0.000000000               0.001451146               0.006342970               0.000000000              -0.000248691               0.002197199               0.001948508               0.000000000               0.000000000               0.000000000               0.000000000               0.001297471               0.006082089               0.000000000              -0.000273709               0.002118579               0.001844870               0.000000000               0.000000000               0.000000000               0.000000000               0.001148259               0.005900710               0.000000000              -0.000306991               0.002069214               0.001762223               0.000000000               0.000000000               0.000000000               0.000000000               0.000997465               0.005768904              -0.000000000              -0.000347063               0.002038637               0.001691574               0.000000000               0.000000000               0.000000000               0.000000000               0.000847580               0.005666066              -0.000000000              -0.000390415               0.002018808               0.001628393               0.000000000               0.000000000               0.000000000               0.000000000               0.000707853               0.005582708               0.000000000              -0.000432393               0.002005015               0.001572622               0.000000000               0.000000000               0.000000000               0.000000000               0.000578263               0.005514276              -0.000000000              -0.000472435               0.001995552               0.001523117               0.000000000               0.000000000               0.000000000               0.000000000               0.000447565               0.005453703              -0.000000000              -0.000513875               0.001989174               0.001475300               0.000000000               0.000000000               0.000000000               0.000000000               0.000317939               0.005392464              -0.000000000              -0.000554829               0.001982413               0.001427584               0.000000000               0.000000000               0.000000000               0.000000000               0.000197582               0.005321913              -0.000000000              -0.000591144               0.001971001               0.001379857               0.000000000               0.000000000               0.000000000               0.000000000               0.000092494               0.005228597               0.000000000              -0.000618888               0.001949144               0.001330256               0.000000000               0.000000000               0.000000000               0.000000000               0.000037618               0.005151715              -0.000000000              -0.000629856               0.001927173               0.001297317               0.000000000               0.000000000               0.000000000               0.000000000               0.001186201               0.012458899              -0.000918834              -0.001112534               0.004523769               0.003411235               0.000000000               0.000000000               0.000000000               0.000000000               0.001214343               0.010149062              -0.000543240              -0.000813252               0.003654071               0.002840819               0.000000000               0.000000000               0.000000000               0.000000000               0.001613348               0.008317399              -0.000162455              -0.000434668               0.002917328               0.002482660               0.000000000               0.000000000               0.000000000               0.000000000               0.001628565               0.007311938               0.000008056              -0.000303279               0.002538381               0.002235102               0.000000000               0.000000000               0.000000000               0.000000000               0.001516049               0.006714736               0.000084746              -0.000270823               0.002328497               0.002057674               0.000000000               0.000000000               0.000000000               0.000000000               0.001366727               0.006332172               0.000116920              -0.000278998               0.002203702               0.001924704               0.000000000               0.000000000               0.000000000               0.000000000               0.001216391               0.006072699               0.000129710              -0.000302940               0.002125193               0.001822253               0.000000000               0.000000000               0.000000000               0.000000000               0.001070758               0.005890154               0.000133941              -0.000334734               0.002074943               0.001740209               0.000000000               0.000000000               0.000000000               0.000000000               0.000925535               0.005756330               0.000132662              -0.000372465               0.002042912               0.001670448               0.000000000               0.000000000               0.000000000               0.000000000               0.000783853               0.005653611               0.000126724              -0.000412756               0.002022103               0.001609348               0.000000000               0.000000000               0.000000000               0.000000000               0.000652054               0.005571250               0.000119891              -0.000451885               0.002007693               0.001555808               0.000000000               0.000000000               0.000000000               0.000000000               0.000527808               0.005501774               0.000114491              -0.000489793               0.001997171               0.001507378               0.000000000               0.000000000               0.000000000               0.000000000               0.000406038               0.005438654               0.000107782              -0.000527566               0.001988722               0.001461156               0.000000000               0.000000000               0.000000000               0.000000000               0.000289044               0.005375029               0.000096720              -0.000563486               0.001979487               0.001416001               0.000000000               0.000000000               0.000000000               0.000000000               0.000181294               0.005303878               0.000077747              -0.000594998               0.001966274               0.001371276               0.000000000               0.000000000               0.000000000               0.000000000               0.000086478               0.005217476               0.000046058              -0.000619754               0.001945726               0.001325972               0.000000000               0.000000000               0.000000000               0.000000000               0.000036867               0.005151726               0.000028335              -0.000630139               0.001927271               0.001297132               0.000000000               0.000000000               0.000000000               0.000000000               0.001335156               0.011779520              -0.001737878              -0.000971755               0.004250385               0.003278630               0.000000000               0.000000000               0.000000000               0.000000000               0.001215112               0.009693894              -0.001035535              -0.000756068               0.003483288               0.002727220               0.000000000               0.000000000               0.000000000               0.000000000               0.001451300               0.008089039              -0.000325408              -0.000466891               0.002851950               0.002385059               0.000000000               0.000000000               0.000000000               0.000000000               0.001405199               0.007195387              -0.000013170              -0.000372473               0.002522596               0.002150123               0.000000000               0.000000000               0.000000000               0.000000000               0.001280156               0.006649648               0.000126400              -0.000351147               0.002333576               0.001982430               0.000000000               0.000000000               0.000000000               0.000000000               0.001137425               0.006290924               0.000184232              -0.000359830               0.002216897               0.001857067               0.000000000               0.000000000               0.000000000               0.000000000               0.000998089               0.006040630               0.000206324              -0.000380794               0.002140455               0.001759660               0.000000000               0.000000000               0.000000000               0.000000000               0.000866505               0.005861241               0.000213806              -0.000407715               0.002089632               0.001681917               0.000000000               0.000000000               0.000000000               0.000000000               0.000738639               0.005728442               0.000211644              -0.000439065               0.002055816               0.001616752               0.000000000               0.000000000               0.000000000               0.000000000               0.000614829               0.005622946               0.000202382              -0.000472306               0.002031732               0.001559426               0.000000000               0.000000000               0.000000000               0.000000000               0.000500145               0.005537139               0.000190891              -0.000504587               0.002013890               0.001509303               0.000000000               0.000000000               0.000000000               0.000000000               0.000393346               0.005463870               0.000180408              -0.000535478               0.001999764               0.001464287               0.000000000               0.000000000               0.000000000               0.000000000               0.000294162               0.005396552               0.000167500              -0.000564257               0.001986918               0.001422661               0.000000000               0.000000000               0.000000000               0.000000000               0.000204607               0.005330592               0.000146683              -0.000589595               0.001973378               0.001383783               0.000000000               0.000000000               0.000000000               0.000000000               0.000127021               0.005262938               0.000114198              -0.000610233               0.001957706               0.001347473               0.000000000               0.000000000               0.000000000               0.000000000               0.000061975               0.005194436               0.000065092              -0.000626062               0.001940149               0.001314087               0.000000000               0.000000000               0.000000000               0.000000000               0.000028449               0.005150533               0.000037888              -0.000633147               0.001927876               0.001294730               0.000000000               0.000000000               0.000000000               0.000000000               0.001535410               0.010753087              -0.002366258              -0.000768357               0.003840445               0.003072088               0.000000000               0.000000000               0.000000000               0.000000000               0.001203365               0.009006541              -0.001425015              -0.000674555               0.003227002               0.002552447               0.000000000               0.000000000               0.000000000               0.000000000               0.001210467               0.007741088              -0.000479217              -0.000513710               0.002751573               0.002237864               0.000000000               0.000000000               0.000000000               0.000000000               0.001085599               0.007010066              -0.000075568              -0.000469158               0.002493051               0.002023894               0.000000000               0.000000000               0.000000000               0.000000000               0.000948319               0.006539915               0.000101536              -0.000461869               0.002333906               0.001872038               0.000000000               0.000000000               0.000000000               0.000000000               0.000820183               0.006215432               0.000175302              -0.000469359               0.002228243               0.001758884               0.000000000               0.000000000               0.000000000               0.000000000               0.000705032               0.005986082               0.000203321              -0.000483872               0.002156631               0.001672759               0.000000000               0.000000000               0.000000000               0.000000000               0.000599823               0.005817822               0.000215267              -0.000502293               0.002106685               0.001604393               0.000000000               0.000000000               0.000000000               0.000000000               0.000499750               0.005686079               0.000215743              -0.000523353               0.002069792               0.001546439               0.000000000               0.000000000               0.000000000               0.000000000               0.000406035               0.005577671               0.000207850              -0.000544944               0.002040853               0.001495909               0.000000000               0.000000000               0.000000000               0.000000000               0.000320103               0.005488186               0.000198790              -0.000565983               0.002018038               0.001452055               0.000000000               0.000000000               0.000000000               0.000000000               0.000240869               0.005410633               0.000190102              -0.000586002               0.001998860               0.001412859               0.000000000               0.000000000               0.000000000               0.000000000               0.000172170               0.005341952               0.000177145              -0.000603179               0.001981692               0.001378514               0.000000000               0.000000000               0.000000000               0.000000000               0.000115866               0.005278341               0.000153371              -0.000616341               0.001964876               0.001348535               0.000000000               0.000000000               0.000000000               0.000000000               0.000069397               0.005219115               0.000117570              -0.000626364               0.001948476               0.001322112               0.000000000               0.000000000               0.000000000               0.000000000               0.000031609               0.005170536               0.000066468              -0.000634462               0.001934982               0.001300520               0.000000000               0.000000000               0.000000000               0.000000000               0.000013732               0.005147142               0.000037340              -0.000638242               0.001928444               0.001290202               0.000000000               0.000000000               0.000000000               0.000000000               0.001718764               0.009501752              -0.002751430              -0.000543184               0.003348280               0.002805096               0.000000000               0.000000000               0.000000000               0.000000000               0.001156184               0.008173925              -0.001684448              -0.000588171               0.002920671               0.002332500               0.000000000               0.000000000               0.000000000               0.000000000               0.000915790               0.007315366              -0.000620517              -0.000570998               0.002628763               0.002057765               0.000000000               0.000000000               0.000000000               0.000000000               0.000723046               0.006768227              -0.000182304              -0.000574885               0.002447681               0.001872797               0.000000000               0.000000000               0.000000000               0.000000000               0.000587344               0.006386279               0.000006024              -0.000578030               0.002321415               0.001743385               0.000000000               0.000000000               0.000000000               0.000000000               0.000485700               0.006106007               0.000089816              -0.000581112               0.002229019               0.001647907               0.000000000               0.000000000               0.000000000               0.000000000               0.000405953               0.005902849               0.000128149              -0.000585622               0.002162804               0.001577182               0.000000000               0.000000000               0.000000000               0.000000000               0.000338739               0.005744736               0.000147110              -0.000591063               0.002111914               0.001520850               0.000000000               0.000000000               0.000000000               0.000000000               0.000273113               0.005611109               0.000155736              -0.000598970               0.002070008               0.001471038               0.000000000               0.000000000               0.000000000               0.000000000               0.000214041               0.005502422               0.000156782              -0.000607536               0.002036634               0.001429098               0.000000000               0.000000000               0.000000000               0.000000000               0.000163473               0.005412108               0.000154642              -0.000615209               0.002009088               0.001393878               0.000000000               0.000000000               0.000000000               0.000000000               0.000120439               0.005335115               0.000150845              -0.000621723               0.001985595               0.001363872               0.000000000               0.000000000               0.000000000               0.000000000               0.000085812               0.005265736               0.000141035              -0.000626036               0.001963907               0.001337871               0.000000000               0.000000000               0.000000000               0.000000000               0.000058486               0.005201154               0.000119390              -0.000628210               0.001943104               0.001314894               0.000000000               0.000000000               0.000000000               0.000000000               0.000036264               0.005146923               0.000088172              -0.000629765               0.001925545               0.001295781               0.000000000               0.000000000               0.000000000               0.000000000               0.000016547               0.005108498               0.000047916              -0.000632356               0.001913601               0.001281245               0.000000000               0.000000000               0.000000000               0.000000000               0.000007480               0.005094911               0.000025267              -0.000634057               0.001909639               0.001275582               0.000000000               0.000000000               0.000000000               0.000000000               0.001816515               0.008138818              -0.002895835              -0.000336161               0.002824965               0.002488804               0.000000000               0.000000000               0.000000000               0.000000000               0.001060023               0.007276645              -0.001826260              -0.000512072               0.002596214               0.002084142               0.000000000               0.000000000               0.000000000               0.000000000               0.000601920               0.006844252              -0.000761680              -0.000629810               0.002491331               0.001861521               0.000000000               0.000000000               0.000000000               0.000000000               0.000372915               0.006478921              -0.000332022              -0.000670020               0.002382959               0.001712938               0.000000000               0.000000000               0.000000000               0.000000000               0.000259900               0.006187767              -0.000142820              -0.000676007               0.002287904               0.001611897               0.000000000               0.000000000               0.000000000               0.000000000               0.000199178               0.005960516              -0.000048679              -0.000670371               0.002210276               0.001539905               0.000000000               0.000000000               0.000000000               0.000000000               0.000157690               0.005779881               0.000003310              -0.000663350               0.002147724               0.001484375               0.000000000               0.000000000               0.000000000               0.000000000               0.000126670               0.005628674               0.000032960              -0.000656081               0.002094900               0.001438818               0.000000000               0.000000000               0.000000000               0.000000000               0.000098685               0.005499762               0.000054080              -0.000650462               0.002050056               0.001399595               0.000000000               0.000000000               0.000000000               0.000000000               0.000073974               0.005390489               0.000068501              -0.000646069               0.002012168               0.001366099               0.000000000               0.000000000               0.000000000               0.000000000               0.000054105               0.005296827               0.000077964              -0.000641812               0.001979529               0.001337717               0.000000000               0.000000000               0.000000000               0.000000000               0.000041757               0.005215016               0.000083124              -0.000636216               0.001950393               0.001314177               0.000000000               0.000000000               0.000000000               0.000000000               0.000036058               0.005138499               0.000078430              -0.000628789               0.001922412               0.001293623               0.000000000               0.000000000               0.000000000               0.000000000               0.000028497               0.005066605               0.000064173              -0.000622638               0.001896397               0.001273760               0.000000000               0.000000000               0.000000000               0.000000000               0.000018055               0.005005728               0.000045142              -0.000618944               0.001874874               0.001255930               0.000000000               0.000000000               0.000000000               0.000000000               0.000009981               0.004960359               0.000022622              -0.000616300               0.001858870               0.001242569               0.000000000               0.000000000               0.000000000               0.000000000               0.000004079               0.004936707               0.000012545              -0.000615557               0.001850738               0.001235181               0.000000000               0.000000000               0.000000000               0.000000000               0.001793976               0.006760810              -0.002833485              -0.000172363               0.002311034               0.002138671               0.000000000               0.000000000               0.000000000               0.000000000               0.000919121               0.006383703              -0.001875583              -0.000453293               0.002278977               0.001825684               0.000000000               0.000000000               0.000000000               0.000000000               0.000307213               0.006361911              -0.000907690              -0.000680033               0.002347293               0.001667261               0.000000000               0.000000000               0.000000000               0.000000000               0.000084068               0.006164408              -0.000507947              -0.000739024               0.002301123               0.001562100               0.000000000               0.000000000               0.000000000               0.000000000               0.000011938               0.005957349              -0.000316493              -0.000740190               0.002232493               0.001492303               0.000000000               0.000000000               0.000000000               0.000000000              -0.000008231               0.005773558              -0.000209843              -0.000724779               0.002166093               0.001441314               0.000000000               0.000000000               0.000000000               0.000000000              -0.000014912               0.005613408              -0.000142787              -0.000707266               0.002106873               0.001399607               0.000000000               0.000000000               0.000000000               0.000000000              -0.000012813               0.005475719              -0.000097985              -0.000689268               0.002054977               0.001365709               0.000000000               0.000000000               0.000000000               0.000000000              -0.000010360               0.005352323              -0.000061450              -0.000672924               0.002008398               0.001335474               0.000000000               0.000000000               0.000000000               0.000000000              -0.000009220               0.005241337              -0.000029368              -0.000658623               0.001966636               0.001308013               0.000000000               0.000000000               0.000000000               0.000000000              -0.000006905               0.005143876              -0.000004258              -0.000645572               0.001929799               0.001284227               0.000000000               0.000000000               0.000000000               0.000000000              -0.000001473               0.005051261               0.000013095              -0.000631959               0.001894390               0.001262431               0.000000000               0.000000000               0.000000000               0.000000000               0.000003867               0.004961331               0.000020142              -0.000618715               0.001859999               0.001241284               0.000000000               0.000000000               0.000000000               0.000000000               0.000003407               0.004878486               0.000019193              -0.000608532               0.001828990               0.001220458               0.000000000               0.000000000               0.000000000               0.000000000               0.000001451               0.004806994               0.000017182              -0.000600329               0.001802425               0.001202096               0.000000000               0.000000000               0.000000000               0.000000000               0.000000155               0.004746234               0.000010945              -0.000593220               0.001779802               0.001186582               0.000000000               0.000000000               0.000000000               0.000000000              -0.000006998               0.004706272               0.000009706              -0.000590907               0.001765711               0.001174804               0.000000000               0.000000000               0.000000000               0.000000000               0.001659149               0.005458122              -0.002600757              -0.000060088               0.001839384               0.001779296               0.000000000               0.000000000               0.000000000               0.000000000               0.000746935               0.005551086              -0.001850839              -0.000413786               0.001988272               0.001574486               0.000000000               0.000000000               0.000000000               0.000000000               0.000063896               0.005889265              -0.001056847              -0.000712196               0.002200467               0.001488271               0.000000000               0.000000000               0.000000000               0.000000000              -0.000118883               0.005832464              -0.000690825              -0.000773637               0.002202014               0.001428377               0.000000000               0.000000000               0.000000000               0.000000000              -0.000143119               0.005694311              -0.000491672              -0.000765457               0.002153237               0.001387780               0.000000000               0.000000000               0.000000000               0.000000000              -0.000128061               0.005548900              -0.000368218              -0.000741634               0.002096826               0.001355192               0.000000000               0.000000000               0.000000000               0.000000000              -0.000105265               0.005415624              -0.000281468              -0.000716426               0.002043999               0.001327573               0.000000000               0.000000000               0.000000000               0.000000000              -0.000081555               0.005292659              -0.000217234              -0.000692164               0.001994923               0.001302760               0.000000000               0.000000000               0.000000000               0.000000000              -0.000062702               0.005175274              -0.000161707              -0.000670421               0.001948548               0.001278127               0.000000000               0.000000000               0.000000000               0.000000000              -0.000046058               0.005067614              -0.000109914              -0.000650722               0.001906095               0.001255373               0.000000000               0.000000000               0.000000000               0.000000000              -0.000033535               0.004962518              -0.000067374              -0.000632889               0.001865119               0.001232230               0.000000000               0.000000000               0.000000000               0.000000000              -0.000024364               0.004856655              -0.000036824              -0.000616217               0.001824275               0.001208058               0.000000000               0.000000000               0.000000000               0.000000000              -0.000018956               0.004754152              -0.000015868              -0.000601376               0.001785160               0.001183784               0.000000000               0.000000000               0.000000000               0.000000000              -0.000019685               0.004660685              -0.000001170              -0.000589966               0.001750202               0.001160236               0.000000000               0.000000000               0.000000000               0.000000000              -0.000019943               0.004578647               0.000009611              -0.000579808               0.001719470               0.001139662               0.000000000               0.000000000               0.000000000               0.000000000              -0.000015076               0.004505552               0.000010883              -0.000568846               0.001691451               0.001122605               0.000000000               0.000000000               0.000000000               0.000000000              -0.000016584               0.004459240               0.000011839              -0.000563622               0.001674273               0.001110650               0.000000000               0.000000000               0.000000000               0.000000000               0.001456095               0.004333070              -0.002260679               0.000004399               0.001442875               0.001447274               0.000000000               0.000000000               0.000000000               0.000000000               0.000594078               0.004807705              -0.001789730              -0.000378185               0.001728613               0.001350428               0.000000000               0.000000000               0.000000000               0.000000000              -0.000089927               0.005447997              -0.001226462              -0.000714721               0.002054221               0.001339500               0.000000000               0.000000000               0.000000000               0.000000000              -0.000229867               0.005527806              -0.000889214              -0.000777174               0.002101642               0.001324467               0.000000000               0.000000000               0.000000000               0.000000000              -0.000219319               0.005460495              -0.000674260              -0.000764805               0.002075081               0.001310277               0.000000000               0.000000000               0.000000000               0.000000000              -0.000177984               0.005362662              -0.000527297              -0.000737075               0.002033228               0.001296153               0.000000000               0.000000000               0.000000000               0.000000000              -0.000136762               0.005262662              -0.000418116              -0.000709117               0.001990575               0.001281459               0.000000000               0.000000000               0.000000000               0.000000000              -0.000097828               0.005155863              -0.000331714              -0.000681167               0.001945660               0.001264493               0.000000000               0.000000000               0.000000000               0.000000000              -0.000070534               0.005050470              -0.000257103              -0.000657757               0.001902726               0.001244968               0.000000000               0.000000000               0.000000000               0.000000000              -0.000049663               0.004946415              -0.000190637              -0.000636924               0.001861097               0.001224173               0.000000000               0.000000000               0.000000000               0.000000000              -0.000035448               0.004832720              -0.000133698              -0.000617382               0.001816685               0.001199303               0.000000000               0.000000000               0.000000000               0.000000000              -0.000029757               0.004712621              -0.000087416              -0.000600235               0.001770936               0.001170701               0.000000000               0.000000000               0.000000000               0.000000000              -0.000032497               0.004596968              -0.000049872              -0.000586806               0.001727909               0.001141103               0.000000000               0.000000000               0.000000000               0.000000000              -0.000041617               0.004493668              -0.000020288              -0.000577314               0.001690312               0.001112999               0.000000000               0.000000000               0.000000000               0.000000000              -0.000052992               0.004399312              -0.000000699              -0.000569785               0.001656351               0.001086566               0.000000000               0.000000000               0.000000000               0.000000000              -0.000058567               0.004310418               0.000005839              -0.000560764               0.001623713               0.001062949               0.000000000               0.000000000               0.000000000               0.000000000              -0.000056747               0.004262974               0.000006473              -0.000554151               0.001605694               0.001051543               0.000000000               0.000000000               0.000000000               0.000000000               0.001175323               0.003269462              -0.001876440               0.000032061               0.001079122               0.001111182               0.000000000               0.000000000               0.000000000               0.000000000               0.000490665               0.003960184              -0.001709924              -0.000311025               0.001423722               0.001112698               0.000000000               0.000000000               0.000000000               0.000000000              -0.000125588               0.004814469              -0.001416455              -0.000648903               0.001821108               0.001172204               0.000000000               0.000000000               0.000000000               0.000000000              -0.000253435               0.005068077              -0.001122772              -0.000728546               0.001932191               0.001203644               0.000000000               0.000000000               0.000000000               0.000000000              -0.000238662               0.005116537              -0.000893624              -0.000729064               0.001948516               0.001219453               0.000000000               0.000000000               0.000000000               0.000000000              -0.000191007               0.005101551              -0.000718289              -0.000709320               0.001936940               0.001227620               0.000000000               0.000000000               0.000000000               0.000000000              -0.000146454               0.005058587              -0.000583966              -0.000687242               0.001915260               0.001228018               0.000000000               0.000000000               0.000000000               0.000000000              -0.000106805               0.004992648              -0.000475089              -0.000664131               0.001885576               0.001221445               0.000000000               0.000000000               0.000000000               0.000000000              -0.000076683               0.004914233              -0.000382541              -0.000643034               0.001852406               0.001209372               0.000000000               0.000000000               0.000000000               0.000000000              -0.000058447               0.004825840              -0.000302423              -0.000625146               0.001816979               0.001191833               0.000000000               0.000000000               0.000000000               0.000000000              -0.000045933               0.004728760              -0.000230934              -0.000608318               0.001779010               0.001170692               0.000000000               0.000000000               0.000000000               0.000000000              -0.000042509               0.004618610              -0.000166527              -0.000593266               0.001737276               0.001144011               0.000000000               0.000000000               0.000000000               0.000000000              -0.000049432               0.004508674              -0.000108448              -0.000582120               0.001696916               0.001114796               0.000000000               0.000000000               0.000000000               0.000000000              -0.000065839               0.004408506              -0.000059194              -0.000575751               0.001661404               0.001085653               0.000000000               0.000000000               0.000000000               0.000000000              -0.000090556               0.004313657              -0.000024674              -0.000573164               0.001628926               0.001055762               0.000000000               0.000000000               0.000000000               0.000000000              -0.000118150               0.004222419              -0.000006039              -0.000572107               0.001598161               0.001026054               0.000000000               0.000000000               0.000000000               0.000000000              -0.000129855               0.004177479              -0.000000039              -0.000570879               0.001582772               0.001011893               0.000000000               0.000000000               0.000000000               0.000000000               0.000756833               0.002301746              -0.001462365              -0.000003908               0.000768543               0.000764635               0.000000000               0.000000000               0.000000000               0.000000000               0.000366067               0.003123321              -0.001579665              -0.000253141               0.001125476               0.000872335               0.000000000               0.000000000               0.000000000               0.000000000              -0.000096612               0.004103710              -0.001557883              -0.000549193               0.001550953               0.001001760               0.000000000               0.000000000               0.000000000               0.000000000              -0.000211187               0.004520568              -0.001343568              -0.000644266               0.001721596               0.001077330               0.000000000               0.000000000               0.000000000               0.000000000              -0.000206219               0.004703103              -0.001120802              -0.000665219               0.001789425               0.001124206               0.000000000               0.000000000               0.000000000               0.000000000              -0.000166347               0.004783856              -0.000928860              -0.000660361               0.001814723               0.001154362               0.000000000               0.000000000               0.000000000               0.000000000              -0.000126103               0.004813668              -0.000773906              -0.000648996               0.001820872               0.001171876               0.000000000               0.000000000               0.000000000               0.000000000              -0.000092589               0.004807204              -0.000645589              -0.000635620               0.001814258               0.001178638               0.000000000               0.000000000               0.000000000               0.000000000              -0.000062526               0.004768917              -0.000538085              -0.000619561               0.001796143               0.001176583               0.000000000               0.000000000               0.000000000               0.000000000              -0.000043292               0.004710230              -0.000447430              -0.000605012               0.001771732               0.001166720               0.000000000               0.000000000               0.000000000               0.000000000              -0.000030553               0.004639511              -0.000366491              -0.000591395               0.001743620               0.001152225               0.000000000               0.000000000               0.000000000               0.000000000              -0.000025630               0.004555132              -0.000288208              -0.000579001               0.001711363               0.001132361               0.000000000               0.000000000               0.000000000               0.000000000              -0.000033389               0.004463990              -0.000211957              -0.000570518               0.001678155               0.001107636               0.000000000               0.000000000               0.000000000               0.000000000              -0.000055417               0.004374533              -0.000141112              -0.000567597               0.001647362               0.001079765               0.000000000               0.000000000               0.000000000               0.000000000              -0.000096326               0.004288186              -0.000079574              -0.000572144               0.001620096               0.001047952               0.000000000               0.000000000               0.000000000               0.000000000              -0.000155037               0.004208063              -0.000032794              -0.000584145               0.001597389               0.001013244               0.000000000               0.000000000               0.000000000               0.000000000              -0.000198493               0.004162882              -0.000008923              -0.000594793               0.001585878               0.000991084               0.000000000               0.000000000               0.000000000               0.000000000               0.000213967               0.001474828              -0.001042145              -0.000104117               0.000526309               0.000422193               0.000000000               0.000000000               0.000000000               0.000000000               0.000179532               0.002328612              -0.001381698              -0.000223753               0.000850780               0.000627027               0.000000000               0.000000000               0.000000000               0.000000000              -0.000042533               0.003318888              -0.001584565              -0.000430811               0.001249888               0.000819077               0.000000000               0.000000000               0.000000000               0.000000000              -0.000102218               0.003854701              -0.001468426              -0.000520169               0.001458277               0.000938108               0.000000000               0.000000000               0.000000000               0.000000000              -0.000098832               0.004158895              -0.001281382              -0.000556923               0.001571925               0.001015002               0.000000000               0.000000000               0.000000000               0.000000000              -0.000071397               0.004343279              -0.001094670              -0.000569683               0.001637639               0.001067956               0.000000000               0.000000000               0.000000000               0.000000000              -0.000044662               0.004459720              -0.000931393              -0.000574212               0.001677962               0.001103750               0.000000000               0.000000000               0.000000000               0.000000000              -0.000024452               0.004523611              -0.000795106              -0.000574620               0.001699395               0.001124775               0.000000000               0.000000000               0.000000000               0.000000000              -0.000003245               0.004543197              -0.000680432              -0.000569115               0.001704089               0.001134973               0.000000000               0.000000000               0.000000000               0.000000000               0.000013620               0.004528992              -0.000583741              -0.000561015               0.001696654               0.001135639               0.000000000               0.000000000               0.000000000               0.000000000               0.000023444               0.004495280              -0.000498355              -0.000553117               0.001682784               0.001129667               0.000000000               0.000000000               0.000000000               0.000000000               0.000028908               0.004451984              -0.000413009              -0.000545656               0.001665865               0.001120209               0.000000000               0.000000000               0.000000000               0.000000000               0.000023813               0.004398132              -0.000325707              -0.000540835               0.001646308               0.001105472               0.000000000               0.000000000               0.000000000               0.000000000               0.000001655               0.004335477              -0.000238156              -0.000541312               0.001625582               0.001084269               0.000000000               0.000000000               0.000000000               0.000000000              -0.000043642               0.004267452              -0.000151651              -0.000549796               0.001605735               0.001055939               0.000000000               0.000000000               0.000000000               0.000000000              -0.000118517               0.004199498              -0.000071946              -0.000569380               0.001589612               0.001020232               0.000000000               0.000000000               0.000000000               0.000000000              -0.000184747               0.004152776              -0.000026615              -0.000588376               0.001580370               0.000991994               0.000000000               0.000000000               0.000000000               0.000000000              -0.000400019               0.000817359              -0.000658816              -0.000252177               0.000356509               0.000104332               0.000000000               0.000000000               0.000000000               0.000000000              -0.000049023               0.001607990              -0.001132890              -0.000219383               0.000609118               0.000389735               0.000000000               0.000000000               0.000000000               0.000000000               0.000023540               0.002516116              -0.001485516              -0.000305688               0.000940592               0.000634904               0.000000000               0.000000000               0.000000000               0.000000000               0.000054880               0.003117121              -0.001459217              -0.000369060               0.001162050               0.000792989               0.000000000               0.000000000               0.000000000               0.000000000               0.000073795               0.003520911              -0.001322126              -0.000412441               0.001311105               0.000898664               0.000000000               0.000000000               0.000000000               0.000000000               0.000091412               0.003803856              -0.001161019              -0.000441202               0.001415006               0.000973804               0.000000000               0.000000000               0.000000000               0.000000000               0.000104264               0.004007292              -0.001009153              -0.000461812               0.001489688               0.001027876               0.000000000               0.000000000               0.000000000               0.000000000               0.000111377               0.004147059              -0.000880666              -0.000476615               0.001541211               0.001064595               0.000000000               0.000000000               0.000000000               0.000000000               0.000119088               0.004236019              -0.000771723              -0.000484844               0.001573606               0.001088763               0.000000000               0.000000000               0.000000000               0.000000000               0.000126705               0.004282854              -0.000676605              -0.000487842               0.001590218               0.001102376               0.000000000               0.000000000               0.000000000               0.000000000               0.000128458               0.004300352              -0.000592385              -0.000489371               0.001596560               0.001107189               0.000000000               0.000000000               0.000000000               0.000000000               0.000129718               0.004306586              -0.000508110              -0.000489678               0.001598740               0.001109062               0.000000000               0.000000000               0.000000000               0.000000000               0.000128879               0.004297853              -0.000418506              -0.000488901               0.001595570               0.001106669               0.000000000               0.000000000               0.000000000               0.000000000               0.000117357               0.004271872              -0.000324091              -0.000489974               0.001587268               0.001097294               0.000000000               0.000000000               0.000000000               0.000000000               0.000087141               0.004232900              -0.000221677              -0.000496434               0.001576430               0.001079997               0.000000000               0.000000000               0.000000000               0.000000000               0.000026029               0.004184886              -0.000112762              -0.000513349               0.001566064               0.001052715               0.000000000               0.000000000               0.000000000               0.000000000              -0.000035384               0.004147070              -0.000050820              -0.000531651               0.001559560               0.001027909               0.000000000               0.000000000               0.000000000               0.000000000              -0.001008733               0.000348076              -0.000354009              -0.000421784               0.000256618              -0.000165166               0.000000000               0.000000000               0.000000000               0.000000000              -0.000291940               0.001007034              -0.000852209              -0.000235357               0.000414127               0.000178769               0.000000000               0.000000000               0.000000000               0.000000000               0.000086015               0.001770151              -0.001257956              -0.000189014               0.000653048               0.000464034               0.000000000               0.000000000               0.000000000               0.000000000               0.000227155               0.002389021              -0.001295260              -0.000213445               0.000867480               0.000654035               0.000000000               0.000000000               0.000000000               0.000000000               0.000278746               0.002863695              -0.001208674              -0.000253433               0.001039032               0.000785600               0.000000000               0.000000000               0.000000000               0.000000000               0.000297447               0.003224531              -0.001084878              -0.000291524               0.001172007               0.000880483               0.000000000               0.000000000               0.000000000               0.000000000               0.000303442               0.003502893              -0.000960127              -0.000324071               0.001275643               0.000951572               0.000000000               0.000000000               0.000000000               0.000000000               0.000301046               0.003716333              -0.000853007              -0.000351649               0.001355981               0.001004332               0.000000000               0.000000000               0.000000000               0.000000000               0.000295032               0.003875254              -0.000761432              -0.000373769               0.001416328               0.001042559               0.000000000               0.000000000               0.000000000               0.000000000               0.000290408               0.003988136              -0.000677559              -0.000389613               0.001459236               0.001069623               0.000000000               0.000000000               0.000000000               0.000000000               0.000284420               0.004063047              -0.000601599              -0.000401223               0.001488076               0.001086854               0.000000000               0.000000000               0.000000000               0.000000000               0.000280294               0.004116622              -0.000527859              -0.000409467               0.001508682               0.001099216               0.000000000               0.000000000               0.000000000               0.000000000               0.000281895               0.004155746              -0.000448868              -0.000413757               0.001523154               0.001109397               0.000000000               0.000000000               0.000000000               0.000000000               0.000283860               0.004174709              -0.000360921              -0.000415390               0.001530019               0.001114629               0.000000000               0.000000000               0.000000000               0.000000000               0.000279035               0.004172520              -0.000258773              -0.000416926               0.001529801               0.001112875               0.000000000               0.000000000               0.000000000               0.000000000               0.000261662               0.004158068              -0.000138550              -0.000421634               0.001526554               0.001104919               0.000000000               0.000000000               0.000000000               0.000000000               0.000237310               0.004142298              -0.000070320              -0.000428795               0.001523684               0.001094889               0.000000000               0.000000000               0.000000000               0.000000000              -0.001528943               0.000050752              -0.000151071              -0.000579697               0.000210148              -0.000369549               0.000000000               0.000000000               0.000000000               0.000000000              -0.000514530               0.000562090              -0.000559824              -0.000263210               0.000275098               0.000011888               0.000000000               0.000000000               0.000000000               0.000000000               0.000131789               0.001168009              -0.000912281              -0.000096581               0.000421526               0.000324945               0.000000000               0.000000000               0.000000000               0.000000000               0.000382396               0.001768077              -0.000976512              -0.000077612               0.000615223               0.000537611               0.000000000               0.000000000               0.000000000               0.000000000               0.000474704               0.002277527              -0.000931839              -0.000106678               0.000794727               0.000688049               0.000000000               0.000000000               0.000000000               0.000000000               0.000502577               0.002690433              -0.000849833              -0.000147838               0.000946081               0.000798243               0.000000000               0.000000000               0.000000000               0.000000000               0.000506399               0.003025711              -0.000761456              -0.000188314               0.001071331               0.000883017               0.000000000               0.000000000               0.000000000               0.000000000               0.000497715               0.003297173              -0.000682179              -0.000225503               0.001174215               0.000948711               0.000000000               0.000000000               0.000000000               0.000000000               0.000481135               0.003513369              -0.000614719              -0.000258745               0.001257359               0.000998614               0.000000000               0.000000000               0.000000000               0.000000000               0.000465022               0.003683669              -0.000552872              -0.000286075               0.001323236               0.001037161               0.000000000               0.000000000               0.000000000               0.000000000               0.000452671               0.003813641              -0.000495476              -0.000306953               0.001373519               0.001066566               0.000000000               0.000000000               0.000000000               0.000000000               0.000445801               0.003916960              -0.000439986              -0.000322444               0.001413122               0.001090678               0.000000000               0.000000000               0.000000000               0.000000000               0.000448019               0.004003058              -0.000380098              -0.000332375               0.001445131               0.001112756               0.000000000               0.000000000               0.000000000               0.000000000               0.000461448               0.004069224              -0.000311612              -0.000335609               0.001468264               0.001132655               0.000000000               0.000000000               0.000000000               0.000000000               0.000487729               0.004112080              -0.000230734              -0.000331111               0.001481050               0.001149939               0.000000000               0.000000000               0.000000000               0.000000000               0.000527169               0.004132016              -0.000127853              -0.000318813               0.001483596               0.001164783               0.000000000               0.000000000               0.000000000               0.000000000               0.000559555               0.004138494              -0.000069428              -0.000307478               0.001481977               0.001174499               0.000000000               0.000000000               0.000000000               0.000000000              -0.001877463              -0.000099414              -0.000043160              -0.000691622               0.000197401              -0.000494220               0.000000000               0.000000000               0.000000000               0.000000000              -0.000677469               0.000298354              -0.000272874              -0.000291345               0.000196565              -0.000094780               0.000000000               0.000000000               0.000000000               0.000000000               0.000156850               0.000781880              -0.000478688              -0.000038917               0.000273596               0.000234679               0.000000000               0.000000000               0.000000000               0.000000000               0.000492016               0.001347436              -0.000526330               0.000016076               0.000443782               0.000459858               0.000000000               0.000000000               0.000000000               0.000000000               0.000619322               0.001866144              -0.000509489              -0.000001023               0.000622383               0.000621360               0.000000000               0.000000000               0.000000000               0.000000000               0.000658761               0.002308406              -0.000469026              -0.000041516               0.000783299               0.000741784               0.000000000               0.000000000               0.000000000               0.000000000               0.000660365               0.002674671              -0.000423179              -0.000086697               0.000920447               0.000833750               0.000000000               0.000000000               0.000000000               0.000000000               0.000646540               0.002981168              -0.000380879              -0.000130193               0.001037110               0.000906917               0.000000000               0.000000000               0.000000000               0.000000000               0.000623962               0.003239613              -0.000344688              -0.000170966               0.001136849               0.000965883               0.000000000               0.000000000               0.000000000               0.000000000               0.000597613               0.003452473              -0.000311624              -0.000207454               0.001219964               0.001012510               0.000000000               0.000000000               0.000000000               0.000000000               0.000575201               0.003625152              -0.000280355              -0.000237443               0.001287519               0.001050077               0.000000000               0.000000000               0.000000000               0.000000000               0.000562693               0.003766391              -0.000249284              -0.000259788               0.001342047               0.001082259               0.000000000               0.000000000               0.000000000               0.000000000               0.000567293               0.003885862              -0.000216016              -0.000272997               0.001386274               0.001113276               0.000000000               0.000000000               0.000000000               0.000000000               0.000595105               0.003985643              -0.000178184              -0.000275040               0.001420215               0.001145174               0.000000000               0.000000000               0.000000000               0.000000000               0.000651169               0.004062769              -0.000133304              -0.000263657               0.001442129               0.001178472               0.000000000               0.000000000               0.000000000               0.000000000               0.000740389               0.004110716              -0.000074852              -0.000236193               0.001448956               0.001212763               0.000000000               0.000000000               0.000000000               0.000000000               0.000822321               0.004135242              -0.000042426              -0.000208534               0.001447912               0.001239377               0.000000000               0.000000000               0.000000000               0.000000000              -0.001999688              -0.000139494              -0.000000000              -0.000732446               0.000197649              -0.000534796               0.000000000               0.000000000               0.000000000               0.000000000              -0.000739086               0.000214254              -0.000000000              -0.000303939               0.000172730              -0.000131209               0.000000000               0.000000000               0.000000000               0.000000000               0.000164520               0.000649735              -0.000000000              -0.000019522               0.000223083               0.000203561               0.000000000               0.000000000               0.000000000               0.000000000               0.000531820               0.001197220               0.000000000               0.000049779               0.000382476               0.000432255               0.000000000               0.000000000               0.000000000               0.000000000               0.000673618               0.001715542               0.000000000               0.000038163               0.000559121               0.000597284               0.000000000               0.000000000               0.000000000               0.000000000               0.000717881               0.002167898               0.000000000              -0.000001782               0.000723219               0.000721437               0.000000000               0.000000000               0.000000000               0.000000000               0.000720411               0.002546729              -0.000000000              -0.000048187               0.000864964               0.000816777               0.000000000               0.000000000               0.000000000               0.000000000               0.000704387               0.002864742              -0.000000000              -0.000093948               0.000986220               0.000892273               0.000000000               0.000000000               0.000000000               0.000000000               0.000677402               0.003136799              -0.000000000              -0.000138074               0.001091614               0.000953540               0.000000000               0.000000000               0.000000000               0.000000000               0.000645274               0.003364363               0.000000000              -0.000178567               0.001180966               0.001002398               0.000000000               0.000000000               0.000000000               0.000000000               0.000617170               0.003553491               0.000000000              -0.000212747               0.001255401               0.001042654               0.000000000               0.000000000               0.000000000               0.000000000               0.000602817               0.003711490               0.000000000              -0.000237879               0.001316444               0.001078565               0.000000000               0.000000000               0.000000000               0.000000000               0.000609710               0.003840961              -0.000000000              -0.000251478               0.001364134               0.001112655               0.000000000               0.000000000               0.000000000               0.000000000               0.000644400               0.003948833              -0.000000000              -0.000251954               0.001400249               0.001148295               0.000000000               0.000000000               0.000000000               0.000000000               0.000713673               0.004038791              -0.000000000              -0.000237221               0.001425324               0.001188103               0.000000000               0.000000000               0.000000000               0.000000000               0.000822484               0.004098476              -0.000000000              -0.000203877               0.001434104               0.001230227               0.000000000               0.000000000               0.000000000               0.000000000               0.000921758               0.004129784              -0.000000000              -0.000170563               0.001433435               0.001262872               0.000000000               0.000000000               0.000000000               0.000000000               0.000000000               0.000000000               0.000000000               0.000000000               0.000000000               0.000000000               0.000000000               0.000000000               0.000000000               0.000000000               0.000000000               0.000000000               0.000000000               0.000000000               0.000000000               0.000000000               0.000000000               0.000000000               0.000000000               0.000000000               0.000000000               0.000000000               0.000000000               0.000000000               0.000000000               0.000000000               0.000000000               0.000000000               0.000000000               0.000000000               0.000000000               0.000000000               0.000000000               0.000000000               0.000000000               0.000000000               0.000000000               0.000000000               0.000000000               0.000000000               0.000000000               0.000000000               0.000000000               0.000000000               0.000000000               0.000000000               0.000000000               0.000000000               0.000000000               0.000000000               0.000000000               0.000000000               0.000000000               0.000000000               0.000000000               0.000000000               0.000000000               0.000000000               0.000000000               0.000000000               0.000000000               0.000000000               0.000000000               0.000000000               0.000000000               0.000000000               0.000000000               0.000000000               0.000000000               0.000000000               0.000000000               0.000000000               0.000000000               0.000000000               0.000000000               0.000000000               0.000000000               0.000000000               0.000000000               0.000000000               0.000000000               0.000000000               0.000000000               0.000000000               0.000000000               0.000000000               0.000000000               0.000000000               0.000000000               0.000000000               0.000000000               0.000000000               0.000000000               0.000000000               0.000000000               0.000000000               0.000000000               0.000000000               0.000000000               0.000000000               0.000000000               0.000000000               0.000000000               0.000000000               0.000000000               0.000000000               0.000000000               0.000000000               0.000000000               0.000000000               0.000000000               0.000000000               0.000000000               0.000000000               0.000000000               0.000000000               0.000000000               0.000000000               0.000000000               0.000000000               0.000000000               0.000000000               0.000000000               0.000000000               0.000000000               0.000000000               0.000000000               0.000000000               0.000000000               0.000000000               0.000000000               0.000000000               0.000000000               0.000000000               0.000000000               0.000000000               0.000000000               0.000000000               0.000000000               0.000000000               0.000000000               0.000000000               0.000000000               0.000000000               0.000000000               0.000000000               0.000000000               0.000000000               0.000000000               0.000000000               0.000000000               0.000000000               0.000000000               0.000000000               0.000000000               0.000000000               0.000000000               0.000000000               0.000000000               0.000000000               0.000000000               0.000000000               0.000000000               0.000000000               0.000000000               0.000000000               0.000000000               0.000000000               0.000000000               0.000000000               0.001186201               0.012458899               0.000918834              -0.001112534               0.004523769               0.003411235               0.000000000               0.000000000               0.000000000               0.000000000               0.001214343               0.010149062               0.000543240              -0.000813252               0.003654071               0.002840819               0.000000000               0.000000000               0.000000000               0.000000000               0.001613348               0.008317399               0.000162455              -0.000434668               0.002917328               0.002482660               0.000000000               0.000000000               0.000000000               0.000000000               0.001628565               0.007311938              -0.000008056              -0.000303279               0.002538381               0.002235102               0.000000000               0.000000000               0.000000000               0.000000000               0.001516049               0.006714736              -0.000084746              -0.000270823               0.002328497               0.002057674               0.000000000               0.000000000               0.000000000               0.000000000               0.001366727               0.006332172              -0.000116920              -0.000278998               0.002203702               0.001924704               0.000000000               0.000000000               0.000000000               0.000000000               0.001216391               0.006072699              -0.000129710              -0.000302940               0.002125193               0.001822253               0.000000000               0.000000000               0.000000000               0.000000000               0.001070758               0.005890154              -0.000133941              -0.000334734               0.002074943               0.001740209               0.000000000               0.000000000               0.000000000               0.000000000               0.000925535               0.005756330              -0.000132662              -0.000372465               0.002042912               0.001670448               0.000000000               0.000000000               0.000000000               0.000000000               0.000783853               0.005653611              -0.000126724              -0.000412756               0.002022103               0.001609348               0.000000000               0.000000000               0.000000000               0.000000000               0.000652054               0.005571250              -0.000119891              -0.000451885               0.002007693               0.001555808               0.000000000               0.000000000               0.000000000               0.000000000               0.000527808               0.005501774              -0.000114491              -0.000489793               0.001997171               0.001507378               0.000000000               0.000000000               0.000000000               0.000000000               0.000406038               0.005438654              -0.000107782              -0.000527566               0.001988722               0.001461156               0.000000000               0.000000000               0.000000000               0.000000000               0.000289044               0.005375029              -0.000096720              -0.000563486               0.001979487               0.001416001               0.000000000               0.000000000               0.000000000               0.000000000               0.000181294               0.005303878              -0.000077747              -0.000594998               0.001966274               0.001371276               0.000000000               0.000000000               0.000000000               0.000000000               0.000086478               0.005217476              -0.000046058              -0.000619754               0.001945726               0.001325972               0.000000000               0.000000000               0.000000000               0.000000000               0.000036867               0.005151726              -0.000028335              -0.000630139               0.001927271               0.001297132               0.000000000               0.000000000               0.000000000               0.000000000               0.001335156               0.011779520               0.001737878              -0.000971755               0.004250385               0.003278630               0.000000000               0.000000000               0.000000000               0.000000000               0.001215112               0.009693894               0.001035535              -0.000756068               0.003483288               0.002727220               0.000000000               0.000000000               0.000000000               0.000000000               0.001451300               0.008089039               0.000325408              -0.000466891               0.002851950               0.002385059               0.000000000               0.000000000               0.000000000               0.000000000               0.001405199               0.007195387               0.000013170              -0.000372473               0.002522596               0.002150123               0.000000000               0.000000000               0.000000000               0.000000000               0.001280156               0.006649648              -0.000126400              -0.000351147               0.002333576               0.001982430               0.000000000               0.000000000               0.000000000               0.000000000               0.001137425               0.006290924              -0.000184232              -0.000359830               0.002216897               0.001857067               0.000000000               0.000000000               0.000000000               0.000000000               0.000998089               0.006040630              -0.000206324              -0.000380794               0.002140455               0.001759660               0.000000000               0.000000000               0.000000000               0.000000000               0.000866505               0.005861241              -0.000213806              -0.000407715               0.002089632               0.001681917               0.000000000               0.000000000               0.000000000               0.000000000               0.000738639               0.005728442              -0.000211644              -0.000439065               0.002055816               0.001616752               0.000000000               0.000000000               0.000000000               0.000000000               0.000614829               0.005622946              -0.000202382              -0.000472306               0.002031732               0.001559426               0.000000000               0.000000000               0.000000000               0.000000000               0.000500145               0.005537139              -0.000190891              -0.000504587               0.002013890               0.001509303               0.000000000               0.000000000               0.000000000               0.000000000               0.000393346               0.005463870              -0.000180408              -0.000535478               0.001999764               0.001464287               0.000000000               0.000000000               0.000000000               0.000000000               0.000294162               0.005396552              -0.000167500              -0.000564257               0.001986918               0.001422661               0.000000000               0.000000000               0.000000000               0.000000000               0.000204607               0.005330592              -0.000146683              -0.000589595               0.001973378               0.001383783               0.000000000               0.000000000               0.000000000               0.000000000               0.000127021               0.005262938              -0.000114198              -0.000610233               0.001957706               0.001347473               0.000000000               0.000000000               0.000000000               0.000000000               0.000061975               0.005194436              -0.000065092              -0.000626062               0.001940149               0.001314087               0.000000000               0.000000000               0.000000000               0.000000000               0.000028449               0.005150533              -0.000037888              -0.000633147               0.001927876               0.001294730               0.000000000               0.000000000               0.000000000               0.000000000               0.001535410               0.010753087               0.002366258              -0.000768357               0.003840445               0.003072088               0.000000000               0.000000000               0.000000000               0.000000000               0.001203365               0.009006541               0.001425015              -0.000674555               0.003227002               0.002552447               0.000000000               0.000000000               0.000000000               0.000000000               0.001210467               0.007741088               0.000479217              -0.000513710               0.002751573               0.002237864               0.000000000               0.000000000               0.000000000               0.000000000               0.001085599               0.007010066               0.000075568              -0.000469158               0.002493051               0.002023894               0.000000000               0.000000000               0.000000000               0.000000000               0.000948319               0.006539915              -0.000101536              -0.000461869               0.002333906               0.001872038               0.000000000               0.000000000               0.000000000               0.000000000               0.000820183               0.006215432              -0.000175302              -0.000469359               0.002228243               0.001758884               0.000000000               0.000000000               0.000000000               0.000000000               0.000705032               0.005986082              -0.000203321              -0.000483872               0.002156631               0.001672759               0.000000000               0.000000000               0.000000000               0.000000000               0.000599823               0.005817822              -0.000215267              -0.000502293               0.002106685               0.001604393               0.000000000               0.000000000               0.000000000               0.000000000               0.000499750               0.005686079              -0.000215743              -0.000523353               0.002069792               0.001546439               0.000000000               0.000000000               0.000000000               0.000000000               0.000406035               0.005577671              -0.000207850              -0.000544944               0.002040853               0.001495909               0.000000000               0.000000000               0.000000000               0.000000000               0.000320103               0.005488186              -0.000198790              -0.000565983               0.002018038               0.001452055               0.000000000               0.000000000               0.000000000               0.000000000               0.000240869               0.005410633              -0.000190102              -0.000586002               0.001998860               0.001412859               0.000000000               0.000000000               0.000000000               0.000000000               0.000172170               0.005341952              -0.000177145              -0.000603179               0.001981692               0.001378514               0.000000000               0.000000000               0.000000000               0.000000000               0.000115866               0.005278341              -0.000153371              -0.000616341               0.001964876               0.001348535               0.000000000               0.000000000               0.000000000               0.000000000               0.000069397               0.005219115              -0.000117570              -0.000626364               0.001948476               0.001322112               0.000000000               0.000000000               0.000000000               0.000000000               0.000031609               0.005170536              -0.000066468              -0.000634462               0.001934982               0.001300520               0.000000000               0.000000000               0.000000000               0.000000000               0.000013732               0.005147142              -0.000037340              -0.000638242               0.001928444               0.001290202               0.000000000               0.000000000               0.000000000               0.000000000               0.001718764               0.009501752               0.002751430              -0.000543184               0.003348280               0.002805096               0.000000000               0.000000000               0.000000000               0.000000000               0.001156184               0.008173925               0.001684448              -0.000588171               0.002920671               0.002332500               0.000000000               0.000000000               0.000000000               0.000000000               0.000915790               0.007315366               0.000620517              -0.000570998               0.002628763               0.002057765               0.000000000               0.000000000               0.000000000               0.000000000               0.000723046               0.006768227               0.000182304              -0.000574885               0.002447681               0.001872797               0.000000000               0.000000000               0.000000000               0.000000000               0.000587344               0.006386279              -0.000006024              -0.000578030               0.002321415               0.001743385               0.000000000               0.000000000               0.000000000               0.000000000               0.000485700               0.006106007              -0.000089816              -0.000581112               0.002229019               0.001647907               0.000000000               0.000000000               0.000000000               0.000000000               0.000405953               0.005902849              -0.000128149              -0.000585622               0.002162804               0.001577182               0.000000000               0.000000000               0.000000000               0.000000000               0.000338739               0.005744736              -0.000147110              -0.000591063               0.002111914               0.001520850               0.000000000               0.000000000               0.000000000               0.000000000               0.000273113               0.005611109              -0.000155736              -0.000598970               0.002070008               0.001471038               0.000000000               0.000000000               0.000000000               0.000000000               0.000214041               0.005502422              -0.000156782              -0.000607536               0.002036634               0.001429098               0.000000000               0.000000000               0.000000000               0.000000000               0.000163473               0.005412108              -0.000154642              -0.000615209               0.002009088               0.001393878               0.000000000               0.000000000               0.000000000               0.000000000               0.000120439               0.005335115              -0.000150845              -0.000621723               0.001985595               0.001363872               0.000000000               0.000000000               0.000000000               0.000000000               0.000085812               0.005265736              -0.000141035              -0.000626036               0.001963907               0.001337871               0.000000000               0.000000000               0.000000000               0.000000000               0.000058486               0.005201154              -0.000119390              -0.000628210               0.001943104               0.001314894               0.000000000               0.000000000               0.000000000               0.000000000               0.000036264               0.005146923              -0.000088172              -0.000629765               0.001925545               0.001295781               0.000000000               0.000000000               0.000000000               0.000000000               0.000016547               0.005108498              -0.000047916              -0.000632356               0.001913601               0.001281245               0.000000000               0.000000000               0.000000000               0.000000000               0.000007480               0.005094911              -0.000025267              -0.000634057               0.001909639               0.001275582               0.000000000               0.000000000               0.000000000               0.000000000               0.001816515               0.008138818               0.002895835              -0.000336161               0.002824965               0.002488804               0.000000000               0.000000000               0.000000000               0.000000000               0.001060023               0.007276645               0.001826260              -0.000512072               0.002596214               0.002084142               0.000000000               0.000000000               0.000000000               0.000000000               0.000601920               0.006844252               0.000761680              -0.000629810               0.002491331               0.001861521               0.000000000               0.000000000               0.000000000               0.000000000               0.000372915               0.006478921               0.000332022              -0.000670020               0.002382959               0.001712938               0.000000000               0.000000000               0.000000000               0.000000000               0.000259900               0.006187767               0.000142820              -0.000676007               0.002287904               0.001611897               0.000000000               0.000000000               0.000000000               0.000000000               0.000199178               0.005960516               0.000048679              -0.000670371               0.002210276               0.001539905               0.000000000               0.000000000               0.000000000               0.000000000               0.000157690               0.005779881              -0.000003310              -0.000663350               0.002147724               0.001484375               0.000000000               0.000000000               0.000000000               0.000000000               0.000126670               0.005628674              -0.000032960              -0.000656081               0.002094900               0.001438818               0.000000000               0.000000000               0.000000000               0.000000000               0.000098685               0.005499762              -0.000054080              -0.000650462               0.002050056               0.001399595               0.000000000               0.000000000               0.000000000               0.000000000               0.000073974               0.005390489              -0.000068501              -0.000646069               0.002012168               0.001366099               0.000000000               0.000000000               0.000000000               0.000000000               0.000054105               0.005296827              -0.000077964              -0.000641812               0.001979529               0.001337717               0.000000000               0.000000000               0.000000000               0.000000000               0.000041757               0.005215016              -0.000083124              -0.000636216               0.001950393               0.001314177               0.000000000               0.000000000               0.000000000               0.000000000               0.000036058               0.005138499              -0.000078430              -0.000628789               0.001922412               0.001293623               0.000000000               0.000000000               0.000000000               0.000000000               0.000028497               0.005066605              -0.000064173              -0.000622638               0.001896397               0.001273760               0.000000000               0.000000000               0.000000000               0.000000000               0.000018055               0.005005728              -0.000045142              -0.000618944               0.001874874               0.001255930               0.000000000               0.000000000               0.000000000               0.000000000               0.000009981               0.004960359              -0.000022622              -0.000616300               0.001858870               0.001242569               0.000000000               0.000000000               0.000000000               0.000000000               0.000004079               0.004936707              -0.000012545              -0.000615557               0.001850738               0.001235181               0.000000000               0.000000000               0.000000000               0.000000000               0.001793976               0.006760810               0.002833485              -0.000172363               0.002311034               0.002138671               0.000000000               0.000000000               0.000000000               0.000000000               0.000919121               0.006383703               0.001875583              -0.000453293               0.002278977               0.001825684               0.000000000               0.000000000               0.000000000               0.000000000               0.000307213               0.006361911               0.000907690              -0.000680033               0.002347293               0.001667261               0.000000000               0.000000000               0.000000000               0.000000000               0.000084068               0.006164408               0.000507947              -0.000739024               0.002301123               0.001562100               0.000000000               0.000000000               0.000000000               0.000000000               0.000011938               0.005957349               0.000316493              -0.000740190               0.002232493               0.001492303               0.000000000               0.000000000               0.000000000               0.000000000              -0.000008231               0.005773558               0.000209843              -0.000724779               0.002166093               0.001441314               0.000000000               0.000000000               0.000000000               0.000000000              -0.000014912               0.005613408               0.000142787              -0.000707266               0.002106873               0.001399607               0.000000000               0.000000000               0.000000000               0.000000000              -0.000012813               0.005475719               0.000097985              -0.000689268               0.002054977               0.001365709               0.000000000               0.000000000               0.000000000               0.000000000              -0.000010360               0.005352323               0.000061450              -0.000672924               0.002008398               0.001335474               0.000000000               0.000000000               0.000000000               0.000000000              -0.000009220               0.005241337               0.000029368              -0.000658623               0.001966636               0.001308013               0.000000000               0.000000000               0.000000000               0.000000000              -0.000006905               0.005143876               0.000004258              -0.000645572               0.001929799               0.001284227               0.000000000               0.000000000               0.000000000               0.000000000              -0.000001473               0.005051261              -0.000013095              -0.000631959               0.001894390               0.001262431               0.000000000               0.000000000               0.000000000               0.000000000               0.000003867               0.004961331              -0.000020142              -0.000618715               0.001859999               0.001241284               0.000000000               0.000000000               0.000000000               0.000000000               0.000003407               0.004878486              -0.000019193              -0.000608532               0.001828990               0.001220458               0.000000000               0.000000000               0.000000000               0.000000000               0.000001451               0.004806994              -0.000017182              -0.000600329               0.001802425               0.001202096               0.000000000               0.000000000               0.000000000               0.000000000               0.000000155               0.004746234              -0.000010945              -0.000593220               0.001779802               0.001186582               0.000000000               0.000000000               0.000000000               0.000000000              -0.000006998               0.004706272              -0.000009706              -0.000590907               0.001765711               0.001174804               0.000000000               0.000000000               0.000000000               0.000000000               0.001659149               0.005458122               0.002600757              -0.000060088               0.001839384               0.001779296               0.000000000               0.000000000               0.000000000               0.000000000               0.000746935               0.005551086               0.001850839              -0.000413786               0.001988272               0.001574486               0.000000000               0.000000000               0.000000000               0.000000000               0.000063896               0.005889265               0.001056847              -0.000712196               0.002200467               0.001488271               0.000000000               0.000000000               0.000000000               0.000000000              -0.000118883               0.005832464               0.000690825              -0.000773637               0.002202014               0.001428377               0.000000000               0.000000000               0.000000000               0.000000000              -0.000143119               0.005694311               0.000491672              -0.000765457               0.002153237               0.001387780               0.000000000               0.000000000               0.000000000               0.000000000              -0.000128061               0.005548900               0.000368218              -0.000741634               0.002096826               0.001355192               0.000000000               0.000000000               0.000000000               0.000000000              -0.000105265               0.005415624               0.000281468              -0.000716426               0.002043999               0.001327573               0.000000000               0.000000000               0.000000000               0.000000000              -0.000081555               0.005292659               0.000217234              -0.000692164               0.001994923               0.001302760               0.000000000               0.000000000               0.000000000               0.000000000              -0.000062702               0.005175274               0.000161707              -0.000670421               0.001948548               0.001278127               0.000000000               0.000000000               0.000000000               0.000000000              -0.000046058               0.005067614               0.000109914              -0.000650722               0.001906095               0.001255373               0.000000000               0.000000000               0.000000000               0.000000000              -0.000033535               0.004962518               0.000067374              -0.000632889               0.001865119               0.001232230               0.000000000               0.000000000               0.000000000               0.000000000              -0.000024364               0.004856655               0.000036824              -0.000616217               0.001824275               0.001208058               0.000000000               0.000000000               0.000000000               0.000000000              -0.000018956               0.004754152               0.000015868              -0.000601376               0.001785160               0.001183784               0.000000000               0.000000000               0.000000000               0.000000000              -0.000019685               0.004660685               0.000001170              -0.000589966               0.001750202               0.001160236               0.000000000               0.000000000               0.000000000               0.000000000              -0.000019943               0.004578647              -0.000009611              -0.000579808               0.001719470               0.001139662               0.000000000               0.000000000               0.000000000               0.000000000              -0.000015076               0.004505552              -0.000010883              -0.000568846               0.001691451               0.001122605               0.000000000               0.000000000               0.000000000               0.000000000              -0.000016584               0.004459240              -0.000011839              -0.000563622               0.001674273               0.001110650               0.000000000               0.000000000               0.000000000               0.000000000               0.001456095               0.004333070               0.002260679               0.000004399               0.001442875               0.001447274               0.000000000               0.000000000               0.000000000               0.000000000               0.000594078               0.004807705               0.001789730              -0.000378185               0.001728613               0.001350428               0.000000000               0.000000000               0.000000000               0.000000000              -0.000089927               0.005447997               0.001226462              -0.000714721               0.002054221               0.001339500               0.000000000               0.000000000               0.000000000               0.000000000              -0.000229867               0.005527806               0.000889214              -0.000777174               0.002101642               0.001324467               0.000000000               0.000000000               0.000000000               0.000000000              -0.000219319               0.005460495               0.000674260              -0.000764805               0.002075081               0.001310277               0.000000000               0.000000000               0.000000000               0.000000000              -0.000177984               0.005362662               0.000527297              -0.000737075               0.002033228               0.001296153               0.000000000               0.000000000               0.000000000               0.000000000              -0.000136762               0.005262662               0.000418116              -0.000709117               0.001990575               0.001281459               0.000000000               0.000000000               0.000000000               0.000000000              -0.000097828               0.005155863               0.000331714              -0.000681167               0.001945660               0.001264493               0.000000000               0.000000000               0.000000000               0.000000000              -0.000070534               0.005050470               0.000257103              -0.000657757               0.001902726               0.001244968               0.000000000               0.000000000               0.000000000               0.000000000              -0.000049663               0.004946415               0.000190637              -0.000636924               0.001861097               0.001224173               0.000000000               0.000000000               0.000000000               0.000000000              -0.000035448               0.004832720               0.000133698              -0.000617382               0.001816685               0.001199303               0.000000000               0.000000000               0.000000000               0.000000000              -0.000029757               0.004712621               0.000087416              -0.000600235               0.001770936               0.001170701               0.000000000               0.000000000               0.000000000               0.000000000              -0.000032497               0.004596968               0.000049872              -0.000586806               0.001727909               0.001141103               0.000000000               0.000000000               0.000000000               0.000000000              -0.000041617               0.004493668               0.000020288              -0.000577314               0.001690312               0.001112999               0.000000000               0.000000000               0.000000000               0.000000000              -0.000052992               0.004399312               0.000000699              -0.000569785               0.001656351               0.001086566               0.000000000               0.000000000               0.000000000               0.000000000              -0.000058567               0.004310418              -0.000005839              -0.000560764               0.001623713               0.001062949               0.000000000               0.000000000               0.000000000               0.000000000              -0.000056747               0.004262974              -0.000006473              -0.000554151               0.001605694               0.001051543               0.000000000               0.000000000               0.000000000               0.000000000               0.001175323               0.003269462               0.001876440               0.000032061               0.001079122               0.001111182               0.000000000               0.000000000               0.000000000               0.000000000               0.000490665               0.003960184               0.001709924              -0.000311025               0.001423722               0.001112698               0.000000000               0.000000000               0.000000000               0.000000000              -0.000125588               0.004814469               0.001416455              -0.000648903               0.001821108               0.001172204               0.000000000               0.000000000               0.000000000               0.000000000              -0.000253435               0.005068077               0.001122772              -0.000728546               0.001932191               0.001203644               0.000000000               0.000000000               0.000000000               0.000000000              -0.000238662               0.005116537               0.000893624              -0.000729064               0.001948516               0.001219453               0.000000000               0.000000000               0.000000000               0.000000000              -0.000191007               0.005101551               0.000718289              -0.000709320               0.001936940               0.001227620               0.000000000               0.000000000               0.000000000               0.000000000              -0.000146454               0.005058587               0.000583966              -0.000687242               0.001915260               0.001228018               0.000000000               0.000000000               0.000000000               0.000000000              -0.000106805               0.004992648               0.000475089              -0.000664131               0.001885576               0.001221445               0.000000000               0.000000000               0.000000000               0.000000000              -0.000076683               0.004914233               0.000382541              -0.000643034               0.001852406               0.001209372               0.000000000               0.000000000               0.000000000               0.000000000              -0.000058447               0.004825840               0.000302423              -0.000625146               0.001816979               0.001191833               0.000000000               0.000000000               0.000000000               0.000000000              -0.000045933               0.004728760               0.000230934              -0.000608318               0.001779010               0.001170692               0.000000000               0.000000000               0.000000000               0.000000000              -0.000042509               0.004618610               0.000166527              -0.000593266               0.001737276               0.001144011               0.000000000               0.000000000               0.000000000               0.000000000              -0.000049432               0.004508674               0.000108448              -0.000582120               0.001696916               0.001114796               0.000000000               0.000000000               0.000000000               0.000000000              -0.000065839               0.004408506               0.000059194              -0.000575751               0.001661404               0.001085653               0.000000000               0.000000000               0.000000000               0.000000000              -0.000090556               0.004313657               0.000024674              -0.000573164               0.001628926               0.001055762               0.000000000               0.000000000               0.000000000               0.000000000              -0.000118150               0.004222419               0.000006039              -0.000572107               0.001598161               0.001026054               0.000000000               0.000000000               0.000000000               0.000000000              -0.000129855               0.004177479               0.000000039              -0.000570879               0.001582772               0.001011893               0.000000000               0.000000000               0.000000000               0.000000000               0.000756833               0.002301746               0.001462365              -0.000003908               0.000768543               0.000764635               0.000000000               0.000000000               0.000000000               0.000000000               0.000366067               0.003123321               0.001579665              -0.000253141               0.001125476               0.000872335               0.000000000               0.000000000               0.000000000               0.000000000              -0.000096612               0.004103710               0.001557883              -0.000549193               0.001550953               0.001001760               0.000000000               0.000000000               0.000000000               0.000000000              -0.000211187               0.004520568               0.001343568              -0.000644266               0.001721596               0.001077330               0.000000000               0.000000000               0.000000000               0.000000000              -0.000206219               0.004703103               0.001120802              -0.000665219               0.001789425               0.001124206               0.000000000               0.000000000               0.000000000               0.000000000              -0.000166347               0.004783856               0.000928860              -0.000660361               0.001814723               0.001154362               0.000000000               0.000000000               0.000000000               0.000000000              -0.000126103               0.004813668               0.000773906              -0.000648996               0.001820872               0.001171876               0.000000000               0.000000000               0.000000000               0.000000000              -0.000092589               0.004807204               0.000645589              -0.000635620               0.001814258               0.001178638               0.000000000               0.000000000               0.000000000               0.000000000              -0.000062526               0.004768917               0.000538085              -0.000619561               0.001796143               0.001176583               0.000000000               0.000000000               0.000000000               0.000000000              -0.000043292               0.004710230               0.000447430              -0.000605012               0.001771732               0.001166720               0.000000000               0.000000000               0.000000000               0.000000000              -0.000030553               0.004639511               0.000366491              -0.000591395               0.001743620               0.001152225               0.000000000               0.000000000               0.000000000               0.000000000              -0.000025630               0.004555132               0.000288208              -0.000579001               0.001711363               0.001132361               0.000000000               0.000000000               0.000000000               0.000000000              -0.000033389               0.004463990               0.000211957              -0.000570518               0.001678155               0.001107636               0.000000000               0.000000000               0.000000000               0.000000000              -0.000055417               0.004374533               0.000141112              -0.000567597               0.001647362               0.001079765               0.000000000               0.000000000               0.000000000               0.000000000              -0.000096326               0.004288186               0.000079574              -0.000572144               0.001620096               0.001047952               0.000000000               0.000000000               0.000000000               0.000000000              -0.000155037               0.004208063               0.000032794              -0.000584145               0.001597389               0.001013244               0.000000000               0.000000000               0.000000000               0.000000000              -0.000198493               0.004162882               0.000008923              -0.000594793               0.001585878               0.000991084               0.000000000               0.000000000               0.000000000               0.000000000               0.000213967               0.001474828               0.001042145              -0.000104117               0.000526309               0.000422193               0.000000000               0.000000000               0.000000000               0.000000000               0.000179532               0.002328612               0.001381698              -0.000223753               0.000850780               0.000627027               0.000000000               0.000000000               0.000000000               0.000000000              -0.000042533               0.003318888               0.001584565              -0.000430811               0.001249888               0.000819077               0.000000000               0.000000000               0.000000000               0.000000000              -0.000102218               0.003854701               0.001468426              -0.000520169               0.001458277               0.000938108               0.000000000               0.000000000               0.000000000               0.000000000              -0.000098832               0.004158895               0.001281382              -0.000556923               0.001571925               0.001015002               0.000000000               0.000000000               0.000000000               0.000000000              -0.000071397               0.004343279               0.001094670              -0.000569683               0.001637639               0.001067956               0.000000000               0.000000000               0.000000000               0.000000000              -0.000044662               0.004459720               0.000931393              -0.000574212               0.001677962               0.001103750               0.000000000               0.000000000               0.000000000               0.000000000              -0.000024452               0.004523611               0.000795106              -0.000574620               0.001699395               0.001124775               0.000000000               0.000000000               0.000000000               0.000000000              -0.000003245               0.004543197               0.000680432              -0.000569115               0.001704089               0.001134973               0.000000000               0.000000000               0.000000000               0.000000000               0.000013620               0.004528992               0.000583741              -0.000561015               0.001696654               0.001135639               0.000000000               0.000000000               0.000000000               0.000000000               0.000023444               0.004495280               0.000498355              -0.000553117               0.001682784               0.001129667               0.000000000               0.000000000               0.000000000               0.000000000               0.000028908               0.004451984               0.000413009              -0.000545656               0.001665865               0.001120209               0.000000000               0.000000000               0.000000000               0.000000000               0.000023813               0.004398132               0.000325707              -0.000540835               0.001646308               0.001105472               0.000000000               0.000000000               0.000000000               0.000000000               0.000001655               0.004335477               0.000238156              -0.000541312               0.001625582               0.001084269               0.000000000               0.000000000               0.000000000               0.000000000              -0.000043642               0.004267452               0.000151651              -0.000549796               0.001605735               0.001055939               0.000000000               0.000000000               0.000000000               0.000000000              -0.000118517               0.004199498               0.000071946              -0.000569380               0.001589612               0.001020232               0.000000000               0.000000000               0.000000000               0.000000000              -0.000184747               0.004152776               0.000026615              -0.000588376               0.001580370               0.000991994               0.000000000               0.000000000               0.000000000               0.000000000              -0.000400019               0.000817359               0.000658816              -0.000252177               0.000356509               0.000104332               0.000000000               0.000000000               0.000000000               0.000000000              -0.000049023               0.001607990               0.001132890              -0.000219383               0.000609118               0.000389735               0.000000000               0.000000000               0.000000000               0.000000000               0.000023540               0.002516116               0.001485516              -0.000305688               0.000940592               0.000634904               0.000000000               0.000000000               0.000000000               0.000000000               0.000054880               0.003117121               0.001459217              -0.000369060               0.001162050               0.000792989               0.000000000               0.000000000               0.000000000               0.000000000               0.000073795               0.003520911               0.001322126              -0.000412441               0.001311105               0.000898664               0.000000000               0.000000000               0.000000000               0.000000000               0.000091412               0.003803856               0.001161019              -0.000441202               0.001415006               0.000973804               0.000000000               0.000000000               0.000000000               0.000000000               0.000104264               0.004007292               0.001009153              -0.000461812               0.001489688               0.001027876               0.000000000               0.000000000               0.000000000               0.000000000               0.000111377               0.004147059               0.000880666              -0.000476615               0.001541211               0.001064595               0.000000000               0.000000000               0.000000000               0.000000000               0.000119088               0.004236019               0.000771723              -0.000484844               0.001573606               0.001088763               0.000000000               0.000000000               0.000000000               0.000000000               0.000126705               0.004282854               0.000676605              -0.000487842               0.001590218               0.001102376               0.000000000               0.000000000               0.000000000               0.000000000               0.000128458               0.004300352               0.000592385              -0.000489371               0.001596560               0.001107189               0.000000000               0.000000000               0.000000000               0.000000000               0.000129718               0.004306586               0.000508110              -0.000489678               0.001598740               0.001109062               0.000000000               0.000000000               0.000000000               0.000000000               0.000128879               0.004297853               0.000418506              -0.000488901               0.001595570               0.001106669               0.000000000               0.000000000               0.000000000               0.000000000               0.000117357               0.004271872               0.000324091              -0.000489974               0.001587268               0.001097294               0.000000000               0.000000000               0.000000000               0.000000000               0.000087141               0.004232900               0.000221677              -0.000496434               0.001576430               0.001079997               0.000000000               0.000000000               0.000000000               0.000000000               0.000026029               0.004184886               0.000112762              -0.000513349               0.001566064               0.001052715               0.000000000               0.000000000               0.000000000               0.000000000              -0.000035384               0.004147070               0.000050820              -0.000531651               0.001559560               0.001027909               0.000000000               0.000000000               0.000000000               0.000000000              -0.001008733               0.000348076               0.000354009              -0.000421784               0.000256618              -0.000165166               0.000000000               0.000000000               0.000000000               0.000000000              -0.000291940               0.001007034               0.000852209              -0.000235357               0.000414127               0.000178769               0.000000000               0.000000000               0.000000000               0.000000000               0.000086015               0.001770151               0.001257956              -0.000189014               0.000653048               0.000464034               0.000000000               0.000000000               0.000000000               0.000000000               0.000227155               0.002389021               0.001295260              -0.000213445               0.000867480               0.000654035               0.000000000               0.000000000               0.000000000               0.000000000               0.000278746               0.002863695               0.001208674              -0.000253433               0.001039032               0.000785600               0.000000000               0.000000000               0.000000000               0.000000000               0.000297447               0.003224531               0.001084878              -0.000291524               0.001172007               0.000880483               0.000000000               0.000000000               0.000000000               0.000000000               0.000303442               0.003502893               0.000960127              -0.000324071               0.001275643               0.000951572               0.000000000               0.000000000               0.000000000               0.000000000               0.000301046               0.003716333               0.000853007              -0.000351649               0.001355981               0.001004332               0.000000000               0.000000000               0.000000000               0.000000000               0.000295032               0.003875254               0.000761432              -0.000373769               0.001416328               0.001042559               0.000000000               0.000000000               0.000000000               0.000000000               0.000290408               0.003988136               0.000677559              -0.000389613               0.001459236               0.001069623               0.000000000               0.000000000               0.000000000               0.000000000               0.000284420               0.004063047               0.000601599              -0.000401223               0.001488076               0.001086854               0.000000000               0.000000000               0.000000000               0.000000000               0.000280294               0.004116622               0.000527859              -0.000409467               0.001508682               0.001099216               0.000000000               0.000000000               0.000000000               0.000000000               0.000281895               0.004155746               0.000448868              -0.000413757               0.001523154               0.001109397               0.000000000               0.000000000               0.000000000               0.000000000               0.000283860               0.004174709               0.000360921              -0.000415390               0.001530019               0.001114629               0.000000000               0.000000000               0.000000000               0.000000000               0.000279035               0.004172520               0.000258773              -0.000416926               0.001529801               0.001112875               0.000000000               0.000000000               0.000000000               0.000000000               0.000261662               0.004158068               0.000138550              -0.000421634               0.001526554               0.001104919               0.000000000               0.000000000               0.000000000               0.000000000               0.000237310               0.004142298               0.000070320              -0.000428795               0.001523684               0.001094889               0.000000000               0.000000000               0.000000000               0.000000000              -0.001528943               0.000050752               0.000151071              -0.000579697               0.000210148              -0.000369549               0.000000000               0.000000000               0.000000000               0.000000000              -0.000514530               0.000562090               0.000559824              -0.000263210               0.000275098               0.000011888               0.000000000               0.000000000               0.000000000               0.000000000               0.000131789               0.001168009               0.000912281              -0.000096581               0.000421526               0.000324945               0.000000000               0.000000000               0.000000000               0.000000000               0.000382396               0.001768077               0.000976512              -0.000077612               0.000615223               0.000537611               0.000000000               0.000000000               0.000000000               0.000000000               0.000474704               0.002277527               0.000931839              -0.000106678               0.000794727               0.000688049               0.000000000               0.000000000               0.000000000               0.000000000               0.000502577               0.002690433               0.000849833              -0.000147838               0.000946081               0.000798243               0.000000000               0.000000000               0.000000000               0.000000000               0.000506399               0.003025711               0.000761456              -0.000188314               0.001071331               0.000883017               0.000000000               0.000000000               0.000000000               0.000000000               0.000497715               0.003297173               0.000682179              -0.000225503               0.001174215               0.000948711               0.000000000               0.000000000               0.000000000               0.000000000               0.000481135               0.003513369               0.000614719              -0.000258745               0.001257359               0.000998614               0.000000000               0.000000000               0.000000000               0.000000000               0.000465022               0.003683669               0.000552872              -0.000286075               0.001323236               0.001037161               0.000000000               0.000000000               0.000000000               0.000000000               0.000452671               0.003813641               0.000495476              -0.000306953               0.001373519               0.001066566               0.000000000               0.000000000               0.000000000               0.000000000               0.000445801               0.003916960               0.000439986              -0.000322444               0.001413122               0.001090678               0.000000000               0.000000000               0.000000000               0.000000000               0.000448019               0.004003058               0.000380098              -0.000332375               0.001445131               0.001112756               0.000000000               0.000000000               0.000000000               0.000000000               0.000461448               0.004069224               0.000311612              -0.000335609               0.001468264               0.001132655               0.000000000               0.000000000               0.000000000               0.000000000               0.000487729               0.004112080               0.000230734              -0.000331111               0.001481050               0.001149939               0.000000000               0.000000000               0.000000000               0.000000000               0.000527169               0.004132016               0.000127853              -0.000318813               0.001483596               0.001164783               0.000000000               0.000000000               0.000000000               0.000000000               0.000559555               0.004138494               0.000069428              -0.000307478               0.001481977               0.001174499               0.000000000               0.000000000               0.000000000               0.000000000              -0.001877463              -0.000099414               0.000043160              -0.000691622               0.000197401              -0.000494220               0.000000000               0.000000000               0.000000000               0.000000000              -0.000677469               0.000298354               0.000272874              -0.000291345               0.000196565              -0.000094780               0.000000000               0.000000000               0.000000000               0.000000000               0.000156850               0.000781880               0.000478688              -0.000038917               0.000273596               0.000234679               0.000000000               0.000000000               0.000000000               0.000000000               0.000492016               0.001347436               0.000526330               0.000016076               0.000443782               0.000459858               0.000000000               0.000000000               0.000000000               0.000000000               0.000619322               0.001866144               0.000509489              -0.000001023               0.000622383               0.000621360               0.000000000               0.000000000               0.000000000               0.000000000               0.000658761               0.002308406               0.000469026              -0.000041516               0.000783299               0.000741784               0.000000000               0.000000000               0.000000000               0.000000000               0.000660365               0.002674671               0.000423179              -0.000086697               0.000920447               0.000833750               0.000000000               0.000000000               0.000000000               0.000000000               0.000646540               0.002981168               0.000380879              -0.000130193               0.001037110               0.000906917               0.000000000               0.000000000               0.000000000               0.000000000               0.000623962               0.003239613               0.000344688              -0.000170966               0.001136849               0.000965883               0.000000000               0.000000000               0.000000000               0.000000000               0.000597613               0.003452473               0.000311624              -0.000207454               0.001219964               0.001012510               0.000000000               0.000000000               0.000000000               0.000000000               0.000575201               0.003625152               0.000280355              -0.000237443               0.001287519               0.001050077               0.000000000               0.000000000               0.000000000               0.000000000               0.000562693               0.003766391               0.000249284              -0.000259788               0.001342047               0.001082259               0.000000000               0.000000000               0.000000000               0.000000000               0.000567293               0.003885862               0.000216016              -0.000272997               0.001386274               0.001113276               0.000000000               0.000000000               0.000000000               0.000000000               0.000595105               0.003985643               0.000178184              -0.000275040               0.001420215               0.001145174               0.000000000               0.000000000               0.000000000               0.000000000               0.000651169               0.004062769               0.000133304              -0.000263657               0.001442129               0.001178472               0.000000000               0.000000000               0.000000000               0.000000000               0.000740389               0.004110716               0.000074852              -0.000236193               0.001448956               0.001212763               0.000000000               0.000000000               0.000000000               0.000000000               0.000822321               0.004135242               0.000042426              -0.000208534               0.001447912               0.001239377               0.000000000               0.000000000               0.000000000               0.000000000              -0.001999688              -0.000139494              -0.000000000              -0.000732446               0.000197649              -0.000534796               0.000000000               0.000000000               0.000000000               0.000000000              -0.000739086               0.000214254              -0.000000000              -0.000303939               0.000172730              -0.000131209               0.000000000               0.000000000               0.000000000               0.000000000               0.000164520               0.000649735              -0.000000000              -0.000019522               0.000223083               0.000203561               0.000000000               0.000000000               0.000000000               0.000000000               0.000531820               0.001197220               0.000000000               0.000049779               0.000382476               0.000432255               0.000000000               0.000000000               0.000000000               0.000000000               0.000673618               0.001715542               0.000000000               0.000038163               0.000559121               0.000597284               0.000000000               0.000000000               0.000000000               0.000000000               0.000717881               0.002167898              -0.000000000              -0.000001782               0.000723219               0.000721437               0.000000000               0.000000000               0.000000000               0.000000000               0.000720411               0.002546729              -0.000000000              -0.000048187               0.000864964               0.000816777               0.000000000               0.000000000               0.000000000               0.000000000               0.000704387               0.002864742               0.000000000              -0.000093948               0.000986220               0.000892273               0.000000000               0.000000000               0.000000000               0.000000000               0.000677402               0.003136799               0.000000000              -0.000138074               0.001091614               0.000953540               0.000000000               0.000000000               0.000000000               0.000000000               0.000645274               0.003364363              -0.000000000              -0.000178567               0.001180966               0.001002398               0.000000000               0.000000000               0.000000000               0.000000000               0.000617170               0.003553491               0.000000000              -0.000212747               0.001255401               0.001042654               0.000000000               0.000000000               0.000000000               0.000000000               0.000602817               0.003711490              -0.000000000              -0.000237879               0.001316444               0.001078565               0.000000000               0.000000000               0.000000000               0.000000000               0.000609710               0.003840961              -0.000000000              -0.000251478               0.001364134               0.001112655               0.000000000               0.000000000               0.000000000               0.000000000               0.000644400               0.003948833              -0.000000000              -0.000251954               0.001400249               0.001148295               0.000000000               0.000000000               0.000000000               0.000000000               0.000713673               0.004038791               0.000000000              -0.000237221               0.001425324               0.001188103               0.000000000               0.000000000               0.000000000               0.000000000               0.000822484               0.004098476               0.000000000              -0.000203877               0.001434104               0.001230227               0.000000000               0.000000000               0.000000000               0.000000000               0.000921758               0.004129784              -0.000000000              -0.000170563               0.001433435               0.001262872               0.000000000               0.000000000               0.000000000               0.000000000               0.001133022               0.012697600               0.000000000              -0.001162314               0.004619929               0.003457615               0.000000000               0.000000000               0.000000000               0.000000000               0.001215010               0.010308373               0.000000000              -0.000832916               0.003713729               0.002880813               0.000000000               0.000000000               0.000000000               0.000000000               0.001671667               0.008395521               0.000000000              -0.000422564               0.002939333               0.002516770               0.000000000               0.000000000               0.000000000               0.000000000               0.001708987               0.007349559               0.000000000              -0.000277824               0.002542437               0.002264613               0.000000000               0.000000000               0.000000000               0.000000000               0.001602737               0.006733679              -0.000000000              -0.000240683               0.002324765               0.002084082               0.000000000               0.000000000               0.000000000               0.000000000               0.001451146               0.006342970              -0.000000000              -0.000248691               0.002197199               0.001948508               0.000000000               0.000000000               0.000000000               0.000000000               0.001297471               0.006082089               0.000000000              -0.000273709               0.002118579               0.001844870               0.000000000               0.000000000               0.000000000               0.000000000               0.001148259               0.005900710              -0.000000000              -0.000306991               0.002069214               0.001762223               0.000000000               0.000000000               0.000000000               0.000000000               0.000997465               0.005768904              -0.000000000              -0.000347063               0.002038637               0.001691574               0.000000000               0.000000000               0.000000000               0.000000000               0.000847580               0.005666066              -0.000000000              -0.000390415               0.002018808               0.001628393               0.000000000               0.000000000               0.000000000               0.000000000               0.000707853               0.005582708              -0.000000000              -0.000432393               0.002005015               0.001572622               0.000000000               0.000000000               0.000000000               0.000000000               0.000578263               0.005514276              -0.000000000              -0.000472435               0.001995552               0.001523117               0.000000000               0.000000000               0.000000000               0.000000000               0.000447565               0.005453703              -0.000000000              -0.000513875               0.001989174               0.001475300               0.000000000               0.000000000               0.000000000               0.000000000               0.000317939               0.005392464               0.000000000              -0.000554829               0.001982413               0.001427584               0.000000000               0.000000000               0.000000000               0.000000000               0.000197582               0.005321913               0.000000000              -0.000591144               0.001971001               0.001379857               0.000000000               0.000000000               0.000000000               0.000000000               0.000092494               0.005228597              -0.000000000              -0.000618888               0.001949144               0.001330256               0.000000000               0.000000000               0.000000000               0.000000000               0.000037618               0.005151715              -0.000000000              -0.000629856               0.001927173               0.001297317               0.000000000               0.000000000               0.000000000               0.000000000               0.001186201               0.012458899              -0.000918834              -0.001112534               0.004523769               0.003411235               0.000000000               0.000000000               0.000000000               0.000000000               0.001214343               0.010149062              -0.000543240              -0.000813252               0.003654071               0.002840819               0.000000000               0.000000000               0.000000000               0.000000000               0.001613348               0.008317399              -0.000162455              -0.000434668               0.002917328               0.002482660               0.000000000               0.000000000               0.000000000               0.000000000               0.001628565               0.007311938               0.000008056              -0.000303279               0.002538381               0.002235102               0.000000000               0.000000000               0.000000000               0.000000000               0.001516049               0.006714736               0.000084746              -0.000270823               0.002328497               0.002057674               0.000000000               0.000000000               0.000000000               0.000000000               0.001366727               0.006332172               0.000116920              -0.000278998               0.002203702               0.001924704               0.000000000               0.000000000               0.000000000               0.000000000               0.001216391               0.006072699               0.000129710              -0.000302940               0.002125193               0.001822253               0.000000000               0.000000000               0.000000000               0.000000000               0.001070758               0.005890154               0.000133941              -0.000334734               0.002074943               0.001740209               0.000000000               0.000000000               0.000000000               0.000000000               0.000925535               0.005756330               0.000132662              -0.000372465               0.002042912               0.001670448               0.000000000               0.000000000               0.000000000               0.000000000               0.000783853               0.005653611               0.000126724              -0.000412756               0.002022103               0.001609348               0.000000000               0.000000000               0.000000000               0.000000000               0.000652054               0.005571250               0.000119891              -0.000451885               0.002007693               0.001555808               0.000000000               0.000000000               0.000000000               0.000000000               0.000527808               0.005501774               0.000114491              -0.000489793               0.001997171               0.001507378               0.000000000               0.000000000               0.000000000               0.000000000               0.000406038               0.005438654               0.000107782              -0.000527566               0.001988722               0.001461156               0.000000000               0.000000000               0.000000000               0.000000000               0.000289044               0.005375029               0.000096720              -0.000563486               0.001979487               0.001416001               0.000000000               0.000000000               0.000000000               0.000000000               0.000181294               0.005303878               0.000077747              -0.000594998               0.001966274               0.001371276               0.000000000               0.000000000               0.000000000               0.000000000               0.000086478               0.005217476               0.000046058              -0.000619754               0.001945726               0.001325972               0.000000000               0.000000000               0.000000000               0.000000000               0.000036867               0.005151726               0.000028335              -0.000630139               0.001927271               0.001297132               0.000000000               0.000000000               0.000000000               0.000000000               0.001335156               0.011779520              -0.001737878              -0.000971755               0.004250385               0.003278630               0.000000000               0.000000000               0.000000000               0.000000000               0.001215112               0.009693894              -0.001035535              -0.000756068               0.003483288               0.002727220               0.000000000               0.000000000               0.000000000               0.000000000               0.001451300               0.008089039              -0.000325408              -0.000466891               0.002851950               0.002385059               0.000000000               0.000000000               0.000000000               0.000000000               0.001405199               0.007195387              -0.000013170              -0.000372473               0.002522596               0.002150123               0.000000000               0.000000000               0.000000000               0.000000000               0.001280156               0.006649648               0.000126400              -0.000351147               0.002333576               0.001982430               0.000000000               0.000000000               0.000000000               0.000000000               0.001137425               0.006290924               0.000184232              -0.000359830               0.002216897               0.001857067               0.000000000               0.000000000               0.000000000               0.000000000               0.000998089               0.006040630               0.000206324              -0.000380794               0.002140455               0.001759660               0.000000000               0.000000000               0.000000000               0.000000000               0.000866505               0.005861241               0.000213806              -0.000407715               0.002089632               0.001681917               0.000000000               0.000000000               0.000000000               0.000000000               0.000738639               0.005728442               0.000211644              -0.000439065               0.002055816               0.001616752               0.000000000               0.000000000               0.000000000               0.000000000               0.000614829               0.005622946               0.000202382              -0.000472306               0.002031732               0.001559426               0.000000000               0.000000000               0.000000000               0.000000000               0.000500145               0.005537139               0.000190891              -0.000504587               0.002013890               0.001509303               0.000000000               0.000000000               0.000000000               0.000000000               0.000393346               0.005463870               0.000180408              -0.000535478               0.001999764               0.001464287               0.000000000               0.000000000               0.000000000               0.000000000               0.000294162               0.005396552               0.000167500              -0.000564257               0.001986918               0.001422661               0.000000000               0.000000000               0.000000000               0.000000000               0.000204607               0.005330592               0.000146683              -0.000589595               0.001973378               0.001383783               0.000000000               0.000000000               0.000000000               0.000000000               0.000127021               0.005262938               0.000114198              -0.000610233               0.001957706               0.001347473               0.000000000               0.000000000               0.000000000               0.000000000               0.000061975               0.005194436               0.000065092              -0.000626062               0.001940149               0.001314087               0.000000000               0.000000000               0.000000000               0.000000000               0.000028449               0.005150533               0.000037888              -0.000633147               0.001927876               0.001294730               0.000000000               0.000000000               0.000000000               0.000000000               0.001535410               0.010753087              -0.002366258              -0.000768357               0.003840445               0.003072088               0.000000000               0.000000000               0.000000000               0.000000000               0.001203365               0.009006541              -0.001425015              -0.000674555               0.003227002               0.002552447               0.000000000               0.000000000               0.000000000               0.000000000               0.001210467               0.007741088              -0.000479217              -0.000513710               0.002751573               0.002237864               0.000000000               0.000000000               0.000000000               0.000000000               0.001085599               0.007010066              -0.000075568              -0.000469158               0.002493051               0.002023894               0.000000000               0.000000000               0.000000000               0.000000000               0.000948319               0.006539915               0.000101536              -0.000461869               0.002333906               0.001872038               0.000000000               0.000000000               0.000000000               0.000000000               0.000820183               0.006215432               0.000175302              -0.000469359               0.002228243               0.001758884               0.000000000               0.000000000               0.000000000               0.000000000               0.000705032               0.005986082               0.000203321              -0.000483872               0.002156631               0.001672759               0.000000000               0.000000000               0.000000000               0.000000000               0.000599823               0.005817822               0.000215267              -0.000502293               0.002106685               0.001604393               0.000000000               0.000000000               0.000000000               0.000000000               0.000499750               0.005686079               0.000215743              -0.000523353               0.002069792               0.001546439               0.000000000               0.000000000               0.000000000               0.000000000               0.000406035               0.005577671               0.000207850              -0.000544944               0.002040853               0.001495909               0.000000000               0.000000000               0.000000000               0.000000000               0.000320103               0.005488186               0.000198790              -0.000565983               0.002018038               0.001452055               0.000000000               0.000000000               0.000000000               0.000000000               0.000240869               0.005410633               0.000190102              -0.000586002               0.001998860               0.001412859               0.000000000               0.000000000               0.000000000               0.000000000               0.000172170               0.005341952               0.000177145              -0.000603179               0.001981692               0.001378514               0.000000000               0.000000000               0.000000000               0.000000000               0.000115866               0.005278341               0.000153371              -0.000616341               0.001964876               0.001348535               0.000000000               0.000000000               0.000000000               0.000000000               0.000069397               0.005219115               0.000117570              -0.000626364               0.001948476               0.001322112               0.000000000               0.000000000               0.000000000               0.000000000               0.000031609               0.005170536               0.000066468              -0.000634462               0.001934982               0.001300520               0.000000000               0.000000000               0.000000000               0.000000000               0.000013732               0.005147142               0.000037340              -0.000638242               0.001928444               0.001290202               0.000000000               0.000000000               0.000000000               0.000000000               0.001718764               0.009501752              -0.002751430              -0.000543184               0.003348280               0.002805096               0.000000000               0.000000000               0.000000000               0.000000000               0.001156184               0.008173925              -0.001684448              -0.000588171               0.002920671               0.002332500               0.000000000               0.000000000               0.000000000               0.000000000               0.000915790               0.007315366              -0.000620517              -0.000570998               0.002628763               0.002057765               0.000000000               0.000000000               0.000000000               0.000000000               0.000723046               0.006768227              -0.000182304              -0.000574885               0.002447681               0.001872797               0.000000000               0.000000000               0.000000000               0.000000000               0.000587344               0.006386279               0.000006024              -0.000578030               0.002321415               0.001743385               0.000000000               0.000000000               0.000000000               0.000000000               0.000485700               0.006106007               0.000089816              -0.000581112               0.002229019               0.001647907               0.000000000               0.000000000               0.000000000               0.000000000               0.000405953               0.005902849               0.000128149              -0.000585622               0.002162804               0.001577182               0.000000000               0.000000000               0.000000000               0.000000000               0.000338739               0.005744736               0.000147110              -0.000591063               0.002111914               0.001520850               0.000000000               0.000000000               0.000000000               0.000000000               0.000273113               0.005611109               0.000155736              -0.000598970               0.002070008               0.001471038               0.000000000               0.000000000               0.000000000               0.000000000               0.000214041               0.005502422               0.000156782              -0.000607536               0.002036634               0.001429098               0.000000000               0.000000000               0.000000000               0.000000000               0.000163473               0.005412108               0.000154642              -0.000615209               0.002009088               0.001393878               0.000000000               0.000000000               0.000000000               0.000000000               0.000120439               0.005335115               0.000150845              -0.000621723               0.001985595               0.001363872               0.000000000               0.000000000               0.000000000               0.000000000               0.000085812               0.005265736               0.000141035              -0.000626036               0.001963907               0.001337871               0.000000000               0.000000000               0.000000000               0.000000000               0.000058486               0.005201154               0.000119390              -0.000628210               0.001943104               0.001314894               0.000000000               0.000000000               0.000000000               0.000000000               0.000036264               0.005146923               0.000088172              -0.000629765               0.001925545               0.001295781               0.000000000               0.000000000               0.000000000               0.000000000               0.000016547               0.005108498               0.000047916              -0.000632356               0.001913601               0.001281245               0.000000000               0.000000000               0.000000000               0.000000000               0.000007480               0.005094911               0.000025267              -0.000634057               0.001909639               0.001275582               0.000000000               0.000000000               0.000000000               0.000000000               0.001816515               0.008138818              -0.002895835              -0.000336161               0.002824965               0.002488804               0.000000000               0.000000000               0.000000000               0.000000000               0.001060023               0.007276645              -0.001826260              -0.000512072               0.002596214               0.002084142               0.000000000               0.000000000               0.000000000               0.000000000               0.000601920               0.006844252              -0.000761680              -0.000629810               0.002491331               0.001861521               0.000000000               0.000000000               0.000000000               0.000000000               0.000372915               0.006478921              -0.000332022              -0.000670020               0.002382959               0.001712938               0.000000000               0.000000000               0.000000000               0.000000000               0.000259900               0.006187767              -0.000142820              -0.000676007               0.002287904               0.001611897               0.000000000               0.000000000               0.000000000               0.000000000               0.000199178               0.005960516              -0.000048679              -0.000670371               0.002210276               0.001539905               0.000000000               0.000000000               0.000000000               0.000000000               0.000157690               0.005779881               0.000003310              -0.000663350               0.002147724               0.001484375               0.000000000               0.000000000               0.000000000               0.000000000               0.000126670               0.005628674               0.000032960              -0.000656081               0.002094900               0.001438818               0.000000000               0.000000000               0.000000000               0.000000000               0.000098685               0.005499762               0.000054080              -0.000650462               0.002050056               0.001399595               0.000000000               0.000000000               0.000000000               0.000000000               0.000073974               0.005390489               0.000068501              -0.000646069               0.002012168               0.001366099               0.000000000               0.000000000               0.000000000               0.000000000               0.000054105               0.005296827               0.000077964              -0.000641812               0.001979529               0.001337717               0.000000000               0.000000000               0.000000000               0.000000000               0.000041757               0.005215016               0.000083124              -0.000636216               0.001950393               0.001314177               0.000000000               0.000000000               0.000000000               0.000000000               0.000036058               0.005138499               0.000078430              -0.000628789               0.001922412               0.001293623               0.000000000               0.000000000               0.000000000               0.000000000               0.000028497               0.005066605               0.000064173              -0.000622638               0.001896397               0.001273760               0.000000000               0.000000000               0.000000000               0.000000000               0.000018055               0.005005728               0.000045142              -0.000618944               0.001874874               0.001255930               0.000000000               0.000000000               0.000000000               0.000000000               0.000009981               0.004960359               0.000022622              -0.000616300               0.001858870               0.001242569               0.000000000               0.000000000               0.000000000               0.000000000               0.000004079               0.004936707               0.000012545              -0.000615557               0.001850738               0.001235181               0.000000000               0.000000000               0.000000000               0.000000000               0.001793976               0.006760810              -0.002833485              -0.000172363               0.002311034               0.002138671               0.000000000               0.000000000               0.000000000               0.000000000               0.000919121               0.006383703              -0.001875583              -0.000453293               0.002278977               0.001825684               0.000000000               0.000000000               0.000000000               0.000000000               0.000307213               0.006361911              -0.000907690              -0.000680033               0.002347293               0.001667261               0.000000000               0.000000000               0.000000000               0.000000000               0.000084068               0.006164408              -0.000507947              -0.000739024               0.002301123               0.001562100               0.000000000               0.000000000               0.000000000               0.000000000               0.000011938               0.005957349              -0.000316493              -0.000740190               0.002232493               0.001492303               0.000000000               0.000000000               0.000000000               0.000000000              -0.000008231               0.005773558              -0.000209843              -0.000724779               0.002166093               0.001441314               0.000000000               0.000000000               0.000000000               0.000000000              -0.000014912               0.005613408              -0.000142787              -0.000707266               0.002106873               0.001399607               0.000000000               0.000000000               0.000000000               0.000000000              -0.000012813               0.005475719              -0.000097985              -0.000689268               0.002054977               0.001365709               0.000000000               0.000000000               0.000000000               0.000000000              -0.000010360               0.005352323              -0.000061450              -0.000672924               0.002008398               0.001335474               0.000000000               0.000000000               0.000000000               0.000000000              -0.000009220               0.005241337              -0.000029368              -0.000658623               0.001966636               0.001308013               0.000000000               0.000000000               0.000000000               0.000000000              -0.000006905               0.005143876              -0.000004258              -0.000645572               0.001929799               0.001284227               0.000000000               0.000000000               0.000000000               0.000000000              -0.000001473               0.005051261               0.000013095              -0.000631959               0.001894390               0.001262431               0.000000000               0.000000000               0.000000000               0.000000000               0.000003867               0.004961331               0.000020142              -0.000618715               0.001859999               0.001241284               0.000000000               0.000000000               0.000000000               0.000000000               0.000003407               0.004878486               0.000019193              -0.000608532               0.001828990               0.001220458               0.000000000               0.000000000               0.000000000               0.000000000               0.000001451               0.004806994               0.000017182              -0.000600329               0.001802425               0.001202096               0.000000000               0.000000000               0.000000000               0.000000000               0.000000155               0.004746234               0.000010945              -0.000593220               0.001779802               0.001186582               0.000000000               0.000000000               0.000000000               0.000000000              -0.000006998               0.004706272               0.000009706              -0.000590907               0.001765711               0.001174804               0.000000000               0.000000000               0.000000000               0.000000000               0.001659149               0.005458122              -0.002600757              -0.000060088               0.001839384               0.001779296               0.000000000               0.000000000               0.000000000               0.000000000               0.000746935               0.005551086              -0.001850839              -0.000413786               0.001988272               0.001574486               0.000000000               0.000000000               0.000000000               0.000000000               0.000063896               0.005889265              -0.001056847              -0.000712196               0.002200467               0.001488271               0.000000000               0.000000000               0.000000000               0.000000000              -0.000118883               0.005832464              -0.000690825              -0.000773637               0.002202014               0.001428377               0.000000000               0.000000000               0.000000000               0.000000000              -0.000143119               0.005694311              -0.000491672              -0.000765457               0.002153237               0.001387780               0.000000000               0.000000000               0.000000000               0.000000000              -0.000128061               0.005548900              -0.000368218              -0.000741634               0.002096826               0.001355192               0.000000000               0.000000000               0.000000000               0.000000000              -0.000105265               0.005415624              -0.000281468              -0.000716426               0.002043999               0.001327573               0.000000000               0.000000000               0.000000000               0.000000000              -0.000081555               0.005292659              -0.000217234              -0.000692164               0.001994923               0.001302760               0.000000000               0.000000000               0.000000000               0.000000000              -0.000062702               0.005175274              -0.000161707              -0.000670421               0.001948548               0.001278127               0.000000000               0.000000000               0.000000000               0.000000000              -0.000046058               0.005067614              -0.000109914              -0.000650722               0.001906095               0.001255373               0.000000000               0.000000000               0.000000000               0.000000000              -0.000033535               0.004962518              -0.000067374              -0.000632889               0.001865119               0.001232230               0.000000000               0.000000000               0.000000000               0.000000000              -0.000024364               0.004856655              -0.000036824              -0.000616217               0.001824275               0.001208058               0.000000000               0.000000000               0.000000000               0.000000000              -0.000018956               0.004754152              -0.000015868              -0.000601376               0.001785160               0.001183784               0.000000000               0.000000000               0.000000000               0.000000000              -0.000019685               0.004660685              -0.000001170              -0.000589966               0.001750202               0.001160236               0.000000000               0.000000000               0.000000000               0.000000000              -0.000019943               0.004578647               0.000009611              -0.000579808               0.001719470               0.001139662               0.000000000               0.000000000               0.000000000               0.000000000              -0.000015076               0.004505552               0.000010883              -0.000568846               0.001691451               0.001122605               0.000000000               0.000000000               0.000000000               0.000000000              -0.000016584               0.004459240               0.000011839              -0.000563622               0.001674273               0.001110650               0.000000000               0.000000000               0.000000000               0.000000000               0.001456095               0.004333070              -0.002260679               0.000004399               0.001442875               0.001447274               0.000000000               0.000000000               0.000000000               0.000000000               0.000594078               0.004807705              -0.001789730              -0.000378185               0.001728613               0.001350428               0.000000000               0.000000000               0.000000000               0.000000000              -0.000089927               0.005447997              -0.001226462              -0.000714721               0.002054221               0.001339500               0.000000000               0.000000000               0.000000000               0.000000000              -0.000229867               0.005527806              -0.000889214              -0.000777174               0.002101642               0.001324467               0.000000000               0.000000000               0.000000000               0.000000000              -0.000219319               0.005460495              -0.000674260              -0.000764805               0.002075081               0.001310277               0.000000000               0.000000000               0.000000000               0.000000000              -0.000177984               0.005362662              -0.000527297              -0.000737075               0.002033228               0.001296153               0.000000000               0.000000000               0.000000000               0.000000000              -0.000136762               0.005262662              -0.000418116              -0.000709117               0.001990575               0.001281459               0.000000000               0.000000000               0.000000000               0.000000000              -0.000097828               0.005155863              -0.000331714              -0.000681167               0.001945660               0.001264493               0.000000000               0.000000000               0.000000000               0.000000000              -0.000070534               0.005050470              -0.000257103              -0.000657757               0.001902726               0.001244968               0.000000000               0.000000000               0.000000000               0.000000000              -0.000049663               0.004946415              -0.000190637              -0.000636924               0.001861097               0.001224173               0.000000000               0.000000000               0.000000000               0.000000000              -0.000035448               0.004832720              -0.000133698              -0.000617382               0.001816685               0.001199303               0.000000000               0.000000000               0.000000000               0.000000000              -0.000029757               0.004712621              -0.000087416              -0.000600235               0.001770936               0.001170701               0.000000000               0.000000000               0.000000000               0.000000000              -0.000032497               0.004596968              -0.000049872              -0.000586806               0.001727909               0.001141103               0.000000000               0.000000000               0.000000000               0.000000000              -0.000041617               0.004493668              -0.000020288              -0.000577314               0.001690312               0.001112999               0.000000000               0.000000000               0.000000000               0.000000000              -0.000052992               0.004399312              -0.000000699              -0.000569785               0.001656351               0.001086566               0.000000000               0.000000000               0.000000000               0.000000000              -0.000058567               0.004310418               0.000005839              -0.000560764               0.001623713               0.001062949               0.000000000               0.000000000               0.000000000               0.000000000              -0.000056747               0.004262974               0.000006473              -0.000554151               0.001605694               0.001051543               0.000000000               0.000000000               0.000000000               0.000000000               0.001175323               0.003269462              -0.001876440               0.000032061               0.001079122               0.001111182               0.000000000               0.000000000               0.000000000               0.000000000               0.000490665               0.003960184              -0.001709924              -0.000311025               0.001423722               0.001112698               0.000000000               0.000000000               0.000000000               0.000000000              -0.000125588               0.004814469              -0.001416455              -0.000648903               0.001821108               0.001172204               0.000000000               0.000000000               0.000000000               0.000000000              -0.000253435               0.005068077              -0.001122772              -0.000728546               0.001932191               0.001203644               0.000000000               0.000000000               0.000000000               0.000000000              -0.000238662               0.005116537              -0.000893624              -0.000729064               0.001948516               0.001219453               0.000000000               0.000000000               0.000000000               0.000000000              -0.000191007               0.005101551              -0.000718289              -0.000709320               0.001936940               0.001227620               0.000000000               0.000000000               0.000000000               0.000000000              -0.000146454               0.005058587              -0.000583966              -0.000687242               0.001915260               0.001228018               0.000000000               0.000000000               0.000000000               0.000000000              -0.000106805               0.004992648              -0.000475089              -0.000664131               0.001885576               0.001221445               0.000000000               0.000000000               0.000000000               0.000000000              -0.000076683               0.004914233              -0.000382541              -0.000643034               0.001852406               0.001209372               0.000000000               0.000000000               0.000000000               0.000000000              -0.000058447               0.004825840              -0.000302423              -0.000625146               0.001816979               0.001191833               0.000000000               0.000000000               0.000000000               0.000000000              -0.000045933               0.004728760              -0.000230934              -0.000608318               0.001779010               0.001170692               0.000000000               0.000000000               0.000000000               0.000000000              -0.000042509               0.004618610              -0.000166527              -0.000593266               0.001737276               0.001144011               0.000000000               0.000000000               0.000000000               0.000000000              -0.000049432               0.004508674              -0.000108448              -0.000582120               0.001696916               0.001114796               0.000000000               0.000000000               0.000000000               0.000000000              -0.000065839               0.004408506              -0.000059194              -0.000575751               0.001661404               0.001085653               0.000000000               0.000000000               0.000000000               0.000000000              -0.000090556               0.004313657              -0.000024674              -0.000573164               0.001628926               0.001055762               0.000000000               0.000000000               0.000000000               0.000000000              -0.000118150               0.004222419              -0.000006039              -0.000572107               0.001598161               0.001026054               0.000000000               0.000000000               0.000000000               0.000000000              -0.000129855               0.004177479              -0.000000039              -0.000570879               0.001582772               0.001011893               0.000000000               0.000000000               0.000000000               0.000000000               0.000756833               0.002301746              -0.001462365              -0.000003908               0.000768543               0.000764635               0.000000000               0.000000000               0.000000000               0.000000000               0.000366067               0.003123321              -0.001579665              -0.000253141               0.001125476               0.000872335               0.000000000               0.000000000               0.000000000               0.000000000              -0.000096612               0.004103710              -0.001557883              -0.000549193               0.001550953               0.001001760               0.000000000               0.000000000               0.000000000               0.000000000              -0.000211187               0.004520568              -0.001343568              -0.000644266               0.001721596               0.001077330               0.000000000               0.000000000               0.000000000               0.000000000              -0.000206219               0.004703103              -0.001120802              -0.000665219               0.001789425               0.001124206               0.000000000               0.000000000               0.000000000               0.000000000              -0.000166347               0.004783856              -0.000928860              -0.000660361               0.001814723               0.001154362               0.000000000               0.000000000               0.000000000               0.000000000              -0.000126103               0.004813668              -0.000773906              -0.000648996               0.001820872               0.001171876               0.000000000               0.000000000               0.000000000               0.000000000              -0.000092589               0.004807204              -0.000645589              -0.000635620               0.001814258               0.001178638               0.000000000               0.000000000               0.000000000               0.000000000              -0.000062526               0.004768917              -0.000538085              -0.000619561               0.001796143               0.001176583               0.000000000               0.000000000               0.000000000               0.000000000              -0.000043292               0.004710230              -0.000447430              -0.000605012               0.001771732               0.001166720               0.000000000               0.000000000               0.000000000               0.000000000              -0.000030553               0.004639511              -0.000366491              -0.000591395               0.001743620               0.001152225               0.000000000               0.000000000               0.000000000               0.000000000              -0.000025630               0.004555132              -0.000288208              -0.000579001               0.001711363               0.001132361               0.000000000               0.000000000               0.000000000               0.000000000              -0.000033389               0.004463990              -0.000211957              -0.000570518               0.001678155               0.001107636               0.000000000               0.000000000               0.000000000               0.000000000              -0.000055417               0.004374533              -0.000141112              -0.000567597               0.001647362               0.001079765               0.000000000               0.000000000               0.000000000               0.000000000              -0.000096326               0.004288186              -0.000079574              -0.000572144               0.001620096               0.001047952               0.000000000               0.000000000               0.000000000               0.000000000              -0.000155037               0.004208063              -0.000032794              -0.000584145               0.001597389               0.001013244               0.000000000               0.000000000               0.000000000               0.000000000              -0.000198493               0.004162882              -0.000008923              -0.000594793               0.001585878               0.000991084               0.000000000               0.000000000               0.000000000               0.000000000               0.000213967               0.001474828              -0.001042145              -0.000104117               0.000526309               0.000422193               0.000000000               0.000000000               0.000000000               0.000000000               0.000179532               0.002328612              -0.001381698              -0.000223753               0.000850780               0.000627027               0.000000000               0.000000000               0.000000000               0.000000000              -0.000042533               0.003318888              -0.001584565              -0.000430811               0.001249888               0.000819077               0.000000000               0.000000000               0.000000000               0.000000000              -0.000102218               0.003854701              -0.001468426              -0.000520169               0.001458277               0.000938108               0.000000000               0.000000000               0.000000000               0.000000000              -0.000098832               0.004158895              -0.001281382              -0.000556923               0.001571925               0.001015002               0.000000000               0.000000000               0.000000000               0.000000000              -0.000071397               0.004343279              -0.001094670              -0.000569683               0.001637639               0.001067956               0.000000000               0.000000000               0.000000000               0.000000000              -0.000044662               0.004459720              -0.000931393              -0.000574212               0.001677962               0.001103750               0.000000000               0.000000000               0.000000000               0.000000000              -0.000024452               0.004523611              -0.000795106              -0.000574620               0.001699395               0.001124775               0.000000000               0.000000000               0.000000000               0.000000000              -0.000003245               0.004543197              -0.000680432              -0.000569115               0.001704089               0.001134973               0.000000000               0.000000000               0.000000000               0.000000000               0.000013620               0.004528992              -0.000583741              -0.000561015               0.001696654               0.001135639               0.000000000               0.000000000               0.000000000               0.000000000               0.000023444               0.004495280              -0.000498355              -0.000553117               0.001682784               0.001129667               0.000000000               0.000000000               0.000000000               0.000000000               0.000028908               0.004451984              -0.000413009              -0.000545656               0.001665865               0.001120209               0.000000000               0.000000000               0.000000000               0.000000000               0.000023813               0.004398132              -0.000325707              -0.000540835               0.001646308               0.001105472               0.000000000               0.000000000               0.000000000               0.000000000               0.000001655               0.004335477              -0.000238156              -0.000541312               0.001625582               0.001084269               0.000000000               0.000000000               0.000000000               0.000000000              -0.000043642               0.004267452              -0.000151651              -0.000549796               0.001605735               0.001055939               0.000000000               0.000000000               0.000000000               0.000000000              -0.000118517               0.004199498              -0.000071946              -0.000569380               0.001589612               0.001020232               0.000000000               0.000000000               0.000000000               0.000000000              -0.000184747               0.004152776              -0.000026615              -0.000588376               0.001580370               0.000991994               0.000000000               0.000000000               0.000000000               0.000000000              -0.000400019               0.000817359              -0.000658816              -0.000252177               0.000356509               0.000104332               0.000000000               0.000000000               0.000000000               0.000000000              -0.000049023               0.001607990              -0.001132890              -0.000219383               0.000609118               0.000389735               0.000000000               0.000000000               0.000000000               0.000000000               0.000023540               0.002516116              -0.001485516              -0.000305688               0.000940592               0.000634904               0.000000000               0.000000000               0.000000000               0.000000000               0.000054880               0.003117121              -0.001459217              -0.000369060               0.001162050               0.000792989               0.000000000               0.000000000               0.000000000               0.000000000               0.000073795               0.003520911              -0.001322126              -0.000412441               0.001311105               0.000898664               0.000000000               0.000000000               0.000000000               0.000000000               0.000091412               0.003803856              -0.001161019              -0.000441202               0.001415006               0.000973804               0.000000000               0.000000000               0.000000000               0.000000000               0.000104264               0.004007292              -0.001009153              -0.000461812               0.001489688               0.001027876               0.000000000               0.000000000               0.000000000               0.000000000               0.000111377               0.004147059              -0.000880666              -0.000476615               0.001541211               0.001064595               0.000000000               0.000000000               0.000000000               0.000000000               0.000119088               0.004236019              -0.000771723              -0.000484844               0.001573606               0.001088763               0.000000000               0.000000000               0.000000000               0.000000000               0.000126705               0.004282854              -0.000676605              -0.000487842               0.001590218               0.001102376               0.000000000               0.000000000               0.000000000               0.000000000               0.000128458               0.004300352              -0.000592385              -0.000489371               0.001596560               0.001107189               0.000000000               0.000000000               0.000000000               0.000000000               0.000129718               0.004306586              -0.000508110              -0.000489678               0.001598740               0.001109062               0.000000000               0.000000000               0.000000000               0.000000000               0.000128879               0.004297853              -0.000418506              -0.000488901               0.001595570               0.001106669               0.000000000               0.000000000               0.000000000               0.000000000               0.000117357               0.004271872              -0.000324091              -0.000489974               0.001587268               0.001097294               0.000000000               0.000000000               0.000000000               0.000000000               0.000087141               0.004232900              -0.000221677              -0.000496434               0.001576430               0.001079997               0.000000000               0.000000000               0.000000000               0.000000000               0.000026029               0.004184886              -0.000112762              -0.000513349               0.001566064               0.001052715               0.000000000               0.000000000               0.000000000               0.000000000              -0.000035384               0.004147070              -0.000050820              -0.000531651               0.001559560               0.001027909               0.000000000               0.000000000               0.000000000               0.000000000              -0.001008733               0.000348076              -0.000354009              -0.000421784               0.000256618              -0.000165166               0.000000000               0.000000000               0.000000000               0.000000000              -0.000291940               0.001007034              -0.000852209              -0.000235357               0.000414127               0.000178769               0.000000000               0.000000000               0.000000000               0.000000000               0.000086015               0.001770151              -0.001257956              -0.000189014               0.000653048               0.000464034               0.000000000               0.000000000               0.000000000               0.000000000               0.000227155               0.002389021              -0.001295260              -0.000213445               0.000867480               0.000654035               0.000000000               0.000000000               0.000000000               0.000000000               0.000278746               0.002863695              -0.001208674              -0.000253433               0.001039032               0.000785600               0.000000000               0.000000000               0.000000000               0.000000000               0.000297447               0.003224531              -0.001084878              -0.000291524               0.001172007               0.000880483               0.000000000               0.000000000               0.000000000               0.000000000               0.000303442               0.003502893              -0.000960127              -0.000324071               0.001275643               0.000951572               0.000000000               0.000000000               0.000000000               0.000000000               0.000301046               0.003716333              -0.000853007              -0.000351649               0.001355981               0.001004332               0.000000000               0.000000000               0.000000000               0.000000000               0.000295032               0.003875254              -0.000761432              -0.000373769               0.001416328               0.001042559               0.000000000               0.000000000               0.000000000               0.000000000               0.000290408               0.003988136              -0.000677559              -0.000389613               0.001459236               0.001069623               0.000000000               0.000000000               0.000000000               0.000000000               0.000284420               0.004063047              -0.000601599              -0.000401223               0.001488076               0.001086854               0.000000000               0.000000000               0.000000000               0.000000000               0.000280294               0.004116622              -0.000527859              -0.000409467               0.001508682               0.001099216               0.000000000               0.000000000               0.000000000               0.000000000               0.000281895               0.004155746              -0.000448868              -0.000413757               0.001523154               0.001109397               0.000000000               0.000000000               0.000000000               0.000000000               0.000283860               0.004174709              -0.000360921              -0.000415390               0.001530019               0.001114629               0.000000000               0.000000000               0.000000000               0.000000000               0.000279035               0.004172520              -0.000258773              -0.000416926               0.001529801               0.001112875               0.000000000               0.000000000               0.000000000               0.000000000               0.000261662               0.004158068              -0.000138550              -0.000421634               0.001526554               0.001104919               0.000000000               0.000000000               0.000000000               0.000000000               0.000237310               0.004142298              -0.000070320              -0.000428795               0.001523684               0.001094889               0.000000000               0.000000000               0.000000000               0.000000000              -0.001528943               0.000050752              -0.000151071              -0.000579697               0.000210148              -0.000369549               0.000000000               0.000000000               0.000000000               0.000000000              -0.000514530               0.000562090              -0.000559824              -0.000263210               0.000275098               0.000011888               0.000000000               0.000000000               0.000000000               0.000000000               0.000131789               0.001168009              -0.000912281              -0.000096581               0.000421526               0.000324945               0.000000000               0.000000000               0.000000000               0.000000000               0.000382396               0.001768077              -0.000976512              -0.000077612               0.000615223               0.000537611               0.000000000               0.000000000               0.000000000               0.000000000               0.000474704               0.002277527              -0.000931839              -0.000106678               0.000794727               0.000688049               0.000000000               0.000000000               0.000000000               0.000000000               0.000502577               0.002690433              -0.000849833              -0.000147838               0.000946081               0.000798243               0.000000000               0.000000000               0.000000000               0.000000000               0.000506399               0.003025711              -0.000761456              -0.000188314               0.001071331               0.000883017               0.000000000               0.000000000               0.000000000               0.000000000               0.000497715               0.003297173              -0.000682179              -0.000225503               0.001174215               0.000948711               0.000000000               0.000000000               0.000000000               0.000000000               0.000481135               0.003513369              -0.000614719              -0.000258745               0.001257359               0.000998614               0.000000000               0.000000000               0.000000000               0.000000000               0.000465022               0.003683669              -0.000552872              -0.000286075               0.001323236               0.001037161               0.000000000               0.000000000               0.000000000               0.000000000               0.000452671               0.003813641              -0.000495476              -0.000306953               0.001373519               0.001066566               0.000000000               0.000000000               0.000000000               0.000000000               0.000445801               0.003916960              -0.000439986              -0.000322444               0.001413122               0.001090678               0.000000000               0.000000000               0.000000000               0.000000000               0.000448019               0.004003058              -0.000380098              -0.000332375               0.001445131               0.001112756               0.000000000               0.000000000               0.000000000               0.000000000               0.000461448               0.004069224              -0.000311612              -0.000335609               0.001468264               0.001132655               0.000000000               0.000000000               0.000000000               0.000000000               0.000487729               0.004112080              -0.000230734              -0.000331111               0.001481050               0.001149939               0.000000000               0.000000000               0.000000000               0.000000000               0.000527169               0.004132016              -0.000127853              -0.000318813               0.001483596               0.001164783               0.000000000               0.000000000               0.000000000               0.000000000               0.000559555               0.004138494              -0.000069428              -0.000307478               0.001481977               0.001174499               0.000000000               0.000000000               0.000000000               0.000000000              -0.001877463              -0.000099414              -0.000043160              -0.000691622               0.000197401              -0.000494220               0.000000000               0.000000000               0.000000000               0.000000000              -0.000677469               0.000298354              -0.000272874              -0.000291345               0.000196565              -0.000094780               0.000000000               0.000000000               0.000000000               0.000000000               0.000156850               0.000781880              -0.000478688              -0.000038917               0.000273596               0.000234679               0.000000000               0.000000000               0.000000000               0.000000000               0.000492016               0.001347436              -0.000526330               0.000016076               0.000443782               0.000459858               0.000000000               0.000000000               0.000000000               0.000000000               0.000619322               0.001866144              -0.000509489              -0.000001023               0.000622383               0.000621360               0.000000000               0.000000000               0.000000000               0.000000000               0.000658761               0.002308406              -0.000469026              -0.000041516               0.000783299               0.000741784               0.000000000               0.000000000               0.000000000               0.000000000               0.000660365               0.002674671              -0.000423179              -0.000086697               0.000920447               0.000833750               0.000000000               0.000000000               0.000000000               0.000000000               0.000646540               0.002981168              -0.000380879              -0.000130193               0.001037110               0.000906917               0.000000000               0.000000000               0.000000000               0.000000000               0.000623962               0.003239613              -0.000344688              -0.000170966               0.001136849               0.000965883               0.000000000               0.000000000               0.000000000               0.000000000               0.000597613               0.003452473              -0.000311624              -0.000207454               0.001219964               0.001012510               0.000000000               0.000000000               0.000000000               0.000000000               0.000575201               0.003625152              -0.000280355              -0.000237443               0.001287519               0.001050077               0.000000000               0.000000000               0.000000000               0.000000000               0.000562693               0.003766391              -0.000249284              -0.000259788               0.001342047               0.001082259               0.000000000               0.000000000               0.000000000               0.000000000               0.000567293               0.003885862              -0.000216016              -0.000272997               0.001386274               0.001113276               0.000000000               0.000000000               0.000000000               0.000000000               0.000595105               0.003985643              -0.000178184              -0.000275040               0.001420215               0.001145174               0.000000000               0.000000000               0.000000000               0.000000000               0.000651169               0.004062769              -0.000133304              -0.000263657               0.001442129               0.001178472               0.000000000               0.000000000               0.000000000               0.000000000               0.000740389               0.004110716              -0.000074852              -0.000236193               0.001448956               0.001212763               0.000000000               0.000000000               0.000000000               0.000000000               0.000822321               0.004135242              -0.000042426              -0.000208534               0.001447912               0.001239377               0.000000000               0.000000000               0.000000000               0.000000000               0.000000000               0.000000000               0.000000000               0.000000000               0.000000000               0.000000000               0.000000000               0.000000000               0.000000000               0.000000000               0.000000000               0.000000000               0.000000000               0.000000000               0.000000000               0.000000000               0.000000000               0.000000000               0.000000000               0.000000000               0.000000000               0.000000000               0.000000000               0.000000000               0.000000000               0.000000000               0.000000000               0.000000000               0.000000000               0.000000000               0.000000000               0.000000000               0.000000000               0.000000000               0.000000000               0.000000000               0.000000000               0.000000000               0.000000000               0.000000000               0.000000000               0.000000000               0.000000000               0.000000000               0.000000000               0.000000000               0.000000000               0.000000000               0.000000000               0.000000000               0.000000000               0.000000000               0.000000000               0.000000000               0.000000000               0.000000000               0.000000000               0.000000000               0.000000000               0.000000000               0.000000000               0.000000000               0.000000000               0.000000000               0.000000000               0.000000000               0.000000000               0.000000000               0.000000000               0.000000000               0.000000000               0.000000000               0.000000000               0.000000000               0.000000000               0.000000000               0.000000000               0.000000000               0.000000000               0.000000000               0.000000000               0.000000000               0.000000000               0.000000000               0.000000000               0.000000000               0.000000000               0.000000000               0.000000000               0.000000000               0.000000000               0.000000000               0.000000000               0.000000000               0.000000000               0.000000000               0.000000000               0.000000000               0.000000000               0.000000000               0.000000000               0.000000000               0.000000000               0.000000000               0.000000000               0.000000000               0.000000000               0.000000000               0.000000000               0.000000000               0.000000000               0.000000000               0.000000000               0.000000000               0.000000000               0.000000000               0.000000000               0.000000000               0.000000000               0.000000000               0.000000000               0.000000000               0.000000000               0.000000000               0.000000000               0.000000000               0.000000000               0.000000000               0.000000000               0.000000000               0.000000000               0.000000000               0.000000000               0.000000000               0.000000000               0.000000000               0.000000000               0.000000000               0.000000000               0.000000000               0.000000000               0.000000000               0.000000000               0.000000000               0.000000000               0.000000000               0.000000000               0.000000000               0.000000000               0.000000000               0.000000000               0.000000000               0.000000000               0.000000000               0.000000000               0.000000000               0.000000000               0.000000000               0.000000000               0.000000000               0.000000000               0.000000000               0.000000000               0.000000000               0.000000000               0.000000000               0.000000000               0.000000000               0.000000000               0.000000000               0.000000000               0.000000000               0.000000000               0.000000000               0.000000000               0.000000000               0.000000000               0.000000000               0.000000000               0.000000000               0.000000000               0.000000000               0.000000000               0.000000000               0.000000000               0.000000000               0.000000000               0.000000000               0.000000000               0.000000000               0.000000000               0.000000000               0.000000000               0.000000000               0.000000000               0.000000000               0.000000000               0.000000000               0.000000000               0.000000000               0.000000000               0.000000000               0.000000000               0.000000000               0.000000000               0.000000000               0.000000000               0.000000000               0.000000000               0.000000000               0.000000000               0.000000000               0.000000000               0.000000000               0.000000000               0.000000000               0.000000000               0.000000000               0.000000000               0.000000000               0.000000000               0.000000000               0.000000000               0.000000000               0.000000000               0.000000000               0.000000000               0.000000000               0.000000000               0.000000000               0.000000000               0.000000000               0.000000000               0.000000000               0.000000000               0.000000000               0.000000000               0.000000000               0.000000000               0.000000000               0.000000000               0.000000000               0.000000000               0.000000000               0.000000000               0.000000000               0.000000000               0.000000000               0.000000000               0.000000000               0.000000000               0.000000000               0.000000000               0.000000000               0.000000000               0.000000000               0.000000000               0.000000000               0.000000000               0.000000000               0.000000000               0.000000000               0.000000000               0.000000000               0.000000000               0.000000000               0.000000000               0.000000000               0.000000000               0.000000000               0.000000000               0.000000000               0.000000000               0.000000000               0.000000000               0.000000000               0.000000000               0.000000000               0.000000000               0.000000000               0.000000000               0.000000000               0.000000000               0.000000000               0.000000000               0.000000000               0.000000000               0.000000000               0.000000000               0.000000000               0.000000000               0.000000000               0.000000000               0.000000000               0.000000000               0.000000000               0.000000000               0.000000000               0.000000000               0.000000000               0.000000000               0.000000000               0.000000000               0.000000000               0.000000000               0.000000000               0.000000000               0.000000000               0.000000000               0.000000000               0.000000000               0.000000000               0.000000000               0.000000000               0.000000000               0.000000000               0.000000000               0.000000000               0.000000000               0.000000000               0.000000000               0.000000000               0.000000000               0.000000000               0.000000000               0.000000000               0.000000000               0.000000000               0.000000000               0.000000000               0.000000000               0.000000000               0.000000000               0.000000000               0.000000000               0.000000000               0.000000000               0.000000000               0.000000000               0.000000000               0.001186201               0.012458899               0.000918834              -0.001112534               0.004523769               0.003411235               0.000000000               0.000000000               0.000000000               0.000000000               0.001214343               0.010149062               0.000543240              -0.000813252               0.003654071               0.002840819               0.000000000               0.000000000               0.000000000               0.000000000               0.001613348               0.008317399               0.000162455              -0.000434668               0.002917328               0.002482660               0.000000000               0.000000000               0.000000000               0.000000000               0.001628565               0.007311938              -0.000008056              -0.000303279               0.002538381               0.002235102               0.000000000               0.000000000               0.000000000               0.000000000               0.001516049               0.006714736              -0.000084746              -0.000270823               0.002328497               0.002057674               0.000000000               0.000000000               0.000000000               0.000000000               0.001366727               0.006332172              -0.000116920              -0.000278998               0.002203702               0.001924704               0.000000000               0.000000000               0.000000000               0.000000000               0.001216391               0.006072699              -0.000129710              -0.000302940               0.002125193               0.001822253               0.000000000               0.000000000               0.000000000               0.000000000               0.001070758               0.005890154              -0.000133941              -0.000334734               0.002074943               0.001740209               0.000000000               0.000000000               0.000000000               0.000000000               0.000925535               0.005756330              -0.000132662              -0.000372465               0.002042912               0.001670448               0.000000000               0.000000000               0.000000000               0.000000000               0.000783853               0.005653611              -0.000126724              -0.000412756               0.002022103               0.001609348               0.000000000               0.000000000               0.000000000               0.000000000               0.000652054               0.005571250              -0.000119891              -0.000451885               0.002007693               0.001555808               0.000000000               0.000000000               0.000000000               0.000000000               0.000527808               0.005501774              -0.000114491              -0.000489793               0.001997171               0.001507378               0.000000000               0.000000000               0.000000000               0.000000000               0.000406038               0.005438654              -0.000107782              -0.000527566               0.001988722               0.001461156               0.000000000               0.000000000               0.000000000               0.000000000               0.000289044               0.005375029              -0.000096720              -0.000563486               0.001979487               0.001416001               0.000000000               0.000000000               0.000000000               0.000000000               0.000181294               0.005303878              -0.000077747              -0.000594998               0.001966274               0.001371276               0.000000000               0.000000000               0.000000000               0.000000000               0.000086478               0.005217476              -0.000046058              -0.000619754               0.001945726               0.001325972               0.000000000               0.000000000               0.000000000               0.000000000               0.000036867               0.005151726              -0.000028335              -0.000630139               0.001927271               0.001297132               0.000000000               0.000000000               0.000000000               0.000000000               0.001335156               0.011779520               0.001737878              -0.000971755               0.004250385               0.003278630               0.000000000               0.000000000               0.000000000               0.000000000               0.001215112               0.009693894               0.001035535              -0.000756068               0.003483288               0.002727220               0.000000000               0.000000000               0.000000000               0.000000000               0.001451300               0.008089039               0.000325408              -0.000466891               0.002851950               0.002385059               0.000000000               0.000000000               0.000000000               0.000000000               0.001405199               0.007195387               0.000013170              -0.000372473               0.002522596               0.002150123               0.000000000               0.000000000               0.000000000               0.000000000               0.001280156               0.006649648              -0.000126400              -0.000351147               0.002333576               0.001982430               0.000000000               0.000000000               0.000000000               0.000000000               0.001137425               0.006290924              -0.000184232              -0.000359830               0.002216897               0.001857067               0.000000000               0.000000000               0.000000000               0.000000000               0.000998089               0.006040630              -0.000206324              -0.000380794               0.002140455               0.001759660               0.000000000               0.000000000               0.000000000               0.000000000               0.000866505               0.005861241              -0.000213806              -0.000407715               0.002089632               0.001681917               0.000000000               0.000000000               0.000000000               0.000000000               0.000738639               0.005728442              -0.000211644              -0.000439065               0.002055816               0.001616752               0.000000000               0.000000000               0.000000000               0.000000000               0.000614829               0.005622946              -0.000202382              -0.000472306               0.002031732               0.001559426               0.000000000               0.000000000               0.000000000               0.000000000               0.000500145               0.005537139              -0.000190891              -0.000504587               0.002013890               0.001509303               0.000000000               0.000000000               0.000000000               0.000000000               0.000393346               0.005463870              -0.000180408              -0.000535478               0.001999764               0.001464287               0.000000000               0.000000000               0.000000000               0.000000000               0.000294162               0.005396552              -0.000167500              -0.000564257               0.001986918               0.001422661               0.000000000               0.000000000               0.000000000               0.000000000               0.000204607               0.005330592              -0.000146683              -0.000589595               0.001973378               0.001383783               0.000000000               0.000000000               0.000000000               0.000000000               0.000127021               0.005262938              -0.000114198              -0.000610233               0.001957706               0.001347473               0.000000000               0.000000000               0.000000000               0.000000000               0.000061975               0.005194436              -0.000065092              -0.000626062               0.001940149               0.001314087               0.000000000               0.000000000               0.000000000               0.000000000               0.000028449               0.005150533              -0.000037888              -0.000633147               0.001927876               0.001294730               0.000000000               0.000000000               0.000000000               0.000000000               0.001535410               0.010753087               0.002366258              -0.000768357               0.003840445               0.003072088               0.000000000               0.000000000               0.000000000               0.000000000               0.001203365               0.009006541               0.001425015              -0.000674555               0.003227002               0.002552447               0.000000000               0.000000000               0.000000000               0.000000000               0.001210467               0.007741088               0.000479217              -0.000513710               0.002751573               0.002237864               0.000000000               0.000000000               0.000000000               0.000000000               0.001085599               0.007010066               0.000075568              -0.000469158               0.002493051               0.002023894               0.000000000               0.000000000               0.000000000               0.000000000               0.000948319               0.006539915              -0.000101536              -0.000461869               0.002333906               0.001872038               0.000000000               0.000000000               0.000000000               0.000000000               0.000820183               0.006215432              -0.000175302              -0.000469359               0.002228243               0.001758884               0.000000000               0.000000000               0.000000000               0.000000000               0.000705032               0.005986082              -0.000203321              -0.000483872               0.002156631               0.001672759               0.000000000               0.000000000               0.000000000               0.000000000               0.000599823               0.005817822              -0.000215267              -0.000502293               0.002106685               0.001604393               0.000000000               0.000000000               0.000000000               0.000000000               0.000499750               0.005686079              -0.000215743              -0.000523353               0.002069792               0.001546439               0.000000000               0.000000000               0.000000000               0.000000000               0.000406035               0.005577671              -0.000207850              -0.000544944               0.002040853               0.001495909               0.000000000               0.000000000               0.000000000               0.000000000               0.000320103               0.005488186              -0.000198790              -0.000565983               0.002018038               0.001452055               0.000000000               0.000000000               0.000000000               0.000000000               0.000240869               0.005410633              -0.000190102              -0.000586002               0.001998860               0.001412859               0.000000000               0.000000000               0.000000000               0.000000000               0.000172170               0.005341952              -0.000177145              -0.000603179               0.001981692               0.001378514               0.000000000               0.000000000               0.000000000               0.000000000               0.000115866               0.005278341              -0.000153371              -0.000616341               0.001964876               0.001348535               0.000000000               0.000000000               0.000000000               0.000000000               0.000069397               0.005219115              -0.000117570              -0.000626364               0.001948476               0.001322112               0.000000000               0.000000000               0.000000000               0.000000000               0.000031609               0.005170536              -0.000066468              -0.000634462               0.001934982               0.001300520               0.000000000               0.000000000               0.000000000               0.000000000               0.000013732               0.005147142              -0.000037340              -0.000638242               0.001928444               0.001290202               0.000000000               0.000000000               0.000000000               0.000000000               0.001718764               0.009501752               0.002751430              -0.000543184               0.003348280               0.002805096               0.000000000               0.000000000               0.000000000               0.000000000               0.001156184               0.008173925               0.001684448              -0.000588171               0.002920671               0.002332500               0.000000000               0.000000000               0.000000000               0.000000000               0.000915790               0.007315366               0.000620517              -0.000570998               0.002628763               0.002057765               0.000000000               0.000000000               0.000000000               0.000000000               0.000723046               0.006768227               0.000182304              -0.000574885               0.002447681               0.001872797               0.000000000               0.000000000               0.000000000               0.000000000               0.000587344               0.006386279              -0.000006024              -0.000578030               0.002321415               0.001743385               0.000000000               0.000000000               0.000000000               0.000000000               0.000485700               0.006106007              -0.000089816              -0.000581112               0.002229019               0.001647907               0.000000000               0.000000000               0.000000000               0.000000000               0.000405953               0.005902849              -0.000128149              -0.000585622               0.002162804               0.001577182               0.000000000               0.000000000               0.000000000               0.000000000               0.000338739               0.005744736              -0.000147110              -0.000591063               0.002111914               0.001520850               0.000000000               0.000000000               0.000000000               0.000000000               0.000273113               0.005611109              -0.000155736              -0.000598970               0.002070008               0.001471038               0.000000000               0.000000000               0.000000000               0.000000000               0.000214041               0.005502422              -0.000156782              -0.000607536               0.002036634               0.001429098               0.000000000               0.000000000               0.000000000               0.000000000               0.000163473               0.005412108              -0.000154642              -0.000615209               0.002009088               0.001393878               0.000000000               0.000000000               0.000000000               0.000000000               0.000120439               0.005335115              -0.000150845              -0.000621723               0.001985595               0.001363872               0.000000000               0.000000000               0.000000000               0.000000000               0.000085812               0.005265736              -0.000141035              -0.000626036               0.001963907               0.001337871               0.000000000               0.000000000               0.000000000               0.000000000               0.000058486               0.005201154              -0.000119390              -0.000628210               0.001943104               0.001314894               0.000000000               0.000000000               0.000000000               0.000000000               0.000036264               0.005146923              -0.000088172              -0.000629765               0.001925545               0.001295781               0.000000000               0.000000000               0.000000000               0.000000000               0.000016547               0.005108498              -0.000047916              -0.000632356               0.001913601               0.001281245               0.000000000               0.000000000               0.000000000               0.000000000               0.000007480               0.005094911              -0.000025267              -0.000634057               0.001909639               0.001275582               0.000000000               0.000000000               0.000000000               0.000000000               0.001816515               0.008138818               0.002895835              -0.000336161               0.002824965               0.002488804               0.000000000               0.000000000               0.000000000               0.000000000               0.001060023               0.007276645               0.001826260              -0.000512072               0.002596214               0.002084142               0.000000000               0.000000000               0.000000000               0.000000000               0.000601920               0.006844252               0.000761680              -0.000629810               0.002491331               0.001861521               0.000000000               0.000000000               0.000000000               0.000000000               0.000372915               0.006478921               0.000332022              -0.000670020               0.002382959               0.001712938               0.000000000               0.000000000               0.000000000               0.000000000               0.000259900               0.006187767               0.000142820              -0.000676007               0.002287904               0.001611897               0.000000000               0.000000000               0.000000000               0.000000000               0.000199178               0.005960516               0.000048679              -0.000670371               0.002210276               0.001539905               0.000000000               0.000000000               0.000000000               0.000000000               0.000157690               0.005779881              -0.000003310              -0.000663350               0.002147724               0.001484375               0.000000000               0.000000000               0.000000000               0.000000000               0.000126670               0.005628674              -0.000032960              -0.000656081               0.002094900               0.001438818               0.000000000               0.000000000               0.000000000               0.000000000               0.000098685               0.005499762              -0.000054080              -0.000650462               0.002050056               0.001399595               0.000000000               0.000000000               0.000000000               0.000000000               0.000073974               0.005390489              -0.000068501              -0.000646069               0.002012168               0.001366099               0.000000000               0.000000000               0.000000000               0.000000000               0.000054105               0.005296827              -0.000077964              -0.000641812               0.001979529               0.001337717               0.000000000               0.000000000               0.000000000               0.000000000               0.000041757               0.005215016              -0.000083124              -0.000636216               0.001950393               0.001314177               0.000000000               0.000000000               0.000000000               0.000000000               0.000036058               0.005138499              -0.000078430              -0.000628789               0.001922412               0.001293623               0.000000000               0.000000000               0.000000000               0.000000000               0.000028497               0.005066605              -0.000064173              -0.000622638               0.001896397               0.001273760               0.000000000               0.000000000               0.000000000               0.000000000               0.000018055               0.005005728              -0.000045142              -0.000618944               0.001874874               0.001255930               0.000000000               0.000000000               0.000000000               0.000000000               0.000009981               0.004960359              -0.000022622              -0.000616300               0.001858870               0.001242569               0.000000000               0.000000000               0.000000000               0.000000000               0.000004079               0.004936707              -0.000012545              -0.000615557               0.001850738               0.001235181               0.000000000               0.000000000               0.000000000               0.000000000               0.001793976               0.006760810               0.002833485              -0.000172363               0.002311034               0.002138671               0.000000000               0.000000000               0.000000000               0.000000000               0.000919121               0.006383703               0.001875583              -0.000453293               0.002278977               0.001825684               0.000000000               0.000000000               0.000000000               0.000000000               0.000307213               0.006361911               0.000907690              -0.000680033               0.002347293               0.001667261               0.000000000               0.000000000               0.000000000               0.000000000               0.000084068               0.006164408               0.000507947              -0.000739024               0.002301123               0.001562100               0.000000000               0.000000000               0.000000000               0.000000000               0.000011938               0.005957349               0.000316493              -0.000740190               0.002232493               0.001492303               0.000000000               0.000000000               0.000000000               0.000000000              -0.000008231               0.005773558               0.000209843              -0.000724779               0.002166093               0.001441314               0.000000000               0.000000000               0.000000000               0.000000000              -0.000014912               0.005613408               0.000142787              -0.000707266               0.002106873               0.001399607               0.000000000               0.000000000               0.000000000               0.000000000              -0.000012813               0.005475719               0.000097985              -0.000689268               0.002054977               0.001365709               0.000000000               0.000000000               0.000000000               0.000000000              -0.000010360               0.005352323               0.000061450              -0.000672924               0.002008398               0.001335474               0.000000000               0.000000000               0.000000000               0.000000000              -0.000009220               0.005241337               0.000029368              -0.000658623               0.001966636               0.001308013               0.000000000               0.000000000               0.000000000               0.000000000              -0.000006905               0.005143876               0.000004258              -0.000645572               0.001929799               0.001284227               0.000000000               0.000000000               0.000000000               0.000000000              -0.000001473               0.005051261              -0.000013095              -0.000631959               0.001894390               0.001262431               0.000000000               0.000000000               0.000000000               0.000000000               0.000003867               0.004961331              -0.000020142              -0.000618715               0.001859999               0.001241284               0.000000000               0.000000000               0.000000000               0.000000000               0.000003407               0.004878486              -0.000019193              -0.000608532               0.001828990               0.001220458               0.000000000               0.000000000               0.000000000               0.000000000               0.000001451               0.004806994              -0.000017182              -0.000600329               0.001802425               0.001202096               0.000000000               0.000000000               0.000000000               0.000000000               0.000000155               0.004746234              -0.000010945              -0.000593220               0.001779802               0.001186582               0.000000000               0.000000000               0.000000000               0.000000000              -0.000006998               0.004706272              -0.000009706              -0.000590907               0.001765711               0.001174804               0.000000000               0.000000000               0.000000000               0.000000000               0.001659149               0.005458122               0.002600757              -0.000060088               0.001839384               0.001779296               0.000000000               0.000000000               0.000000000               0.000000000               0.000746935               0.005551086               0.001850839              -0.000413786               0.001988272               0.001574486               0.000000000               0.000000000               0.000000000               0.000000000               0.000063896               0.005889265               0.001056847              -0.000712196               0.002200467               0.001488271               0.000000000               0.000000000               0.000000000               0.000000000              -0.000118883               0.005832464               0.000690825              -0.000773637               0.002202014               0.001428377               0.000000000               0.000000000               0.000000000               0.000000000              -0.000143119               0.005694311               0.000491672              -0.000765457               0.002153237               0.001387780               0.000000000               0.000000000               0.000000000               0.000000000              -0.000128061               0.005548900               0.000368218              -0.000741634               0.002096826               0.001355192               0.000000000               0.000000000               0.000000000               0.000000000              -0.000105265               0.005415624               0.000281468              -0.000716426               0.002043999               0.001327573               0.000000000               0.000000000               0.000000000               0.000000000              -0.000081555               0.005292659               0.000217234              -0.000692164               0.001994923               0.001302760               0.000000000               0.000000000               0.000000000               0.000000000              -0.000062702               0.005175274               0.000161707              -0.000670421               0.001948548               0.001278127               0.000000000               0.000000000               0.000000000               0.000000000              -0.000046058               0.005067614               0.000109914              -0.000650722               0.001906095               0.001255373               0.000000000               0.000000000               0.000000000               0.000000000              -0.000033535               0.004962518               0.000067374              -0.000632889               0.001865119               0.001232230               0.000000000               0.000000000               0.000000000               0.000000000              -0.000024364               0.004856655               0.000036824              -0.000616217               0.001824275               0.001208058               0.000000000               0.000000000               0.000000000               0.000000000              -0.000018956               0.004754152               0.000015868              -0.000601376               0.001785160               0.001183784               0.000000000               0.000000000               0.000000000               0.000000000              -0.000019685               0.004660685               0.000001170              -0.000589966               0.001750202               0.001160236               0.000000000               0.000000000               0.000000000               0.000000000              -0.000019943               0.004578647              -0.000009611              -0.000579808               0.001719470               0.001139662               0.000000000               0.000000000               0.000000000               0.000000000              -0.000015076               0.004505552              -0.000010883              -0.000568846               0.001691451               0.001122605               0.000000000               0.000000000               0.000000000               0.000000000              -0.000016584               0.004459240              -0.000011839              -0.000563622               0.001674273               0.001110650               0.000000000               0.000000000               0.000000000               0.000000000               0.001456095               0.004333070               0.002260679               0.000004399               0.001442875               0.001447274               0.000000000               0.000000000               0.000000000               0.000000000               0.000594078               0.004807705               0.001789730              -0.000378185               0.001728613               0.001350428               0.000000000               0.000000000               0.000000000               0.000000000              -0.000089927               0.005447997               0.001226462              -0.000714721               0.002054221               0.001339500               0.000000000               0.000000000               0.000000000               0.000000000              -0.000229867               0.005527806               0.000889214              -0.000777174               0.002101642               0.001324467               0.000000000               0.000000000               0.000000000               0.000000000              -0.000219319               0.005460495               0.000674260              -0.000764805               0.002075081               0.001310277               0.000000000               0.000000000               0.000000000               0.000000000              -0.000177984               0.005362662               0.000527297              -0.000737075               0.002033228               0.001296153               0.000000000               0.000000000               0.000000000               0.000000000              -0.000136762               0.005262662               0.000418116              -0.000709117               0.001990575               0.001281459               0.000000000               0.000000000               0.000000000               0.000000000              -0.000097828               0.005155863               0.000331714              -0.000681167               0.001945660               0.001264493               0.000000000               0.000000000               0.000000000               0.000000000              -0.000070534               0.005050470               0.000257103              -0.000657757               0.001902726               0.001244968               0.000000000               0.000000000               0.000000000               0.000000000              -0.000049663               0.004946415               0.000190637              -0.000636924               0.001861097               0.001224173               0.000000000               0.000000000               0.000000000               0.000000000              -0.000035448               0.004832720               0.000133698              -0.000617382               0.001816685               0.001199303               0.000000000               0.000000000               0.000000000               0.000000000              -0.000029757               0.004712621               0.000087416              -0.000600235               0.001770936               0.001170701               0.000000000               0.000000000               0.000000000               0.000000000              -0.000032497               0.004596968               0.000049872              -0.000586806               0.001727909               0.001141103               0.000000000               0.000000000               0.000000000               0.000000000              -0.000041617               0.004493668               0.000020288              -0.000577314               0.001690312               0.001112999               0.000000000               0.000000000               0.000000000               0.000000000              -0.000052992               0.004399312               0.000000699              -0.000569785               0.001656351               0.001086566               0.000000000               0.000000000               0.000000000               0.000000000              -0.000058567               0.004310418              -0.000005839              -0.000560764               0.001623713               0.001062949               0.000000000               0.000000000               0.000000000               0.000000000              -0.000056747               0.004262974              -0.000006473              -0.000554151               0.001605694               0.001051543               0.000000000               0.000000000               0.000000000               0.000000000               0.001175323               0.003269462               0.001876440               0.000032061               0.001079122               0.001111182               0.000000000               0.000000000               0.000000000               0.000000000               0.000490665               0.003960184               0.001709924              -0.000311025               0.001423722               0.001112698               0.000000000               0.000000000               0.000000000               0.000000000              -0.000125588               0.004814469               0.001416455              -0.000648903               0.001821108               0.001172204               0.000000000               0.000000000               0.000000000               0.000000000              -0.000253435               0.005068077               0.001122772              -0.000728546               0.001932191               0.001203644               0.000000000               0.000000000               0.000000000               0.000000000              -0.000238662               0.005116537               0.000893624              -0.000729064               0.001948516               0.001219453               0.000000000               0.000000000               0.000000000               0.000000000              -0.000191007               0.005101551               0.000718289              -0.000709320               0.001936940               0.001227620               0.000000000               0.000000000               0.000000000               0.000000000              -0.000146454               0.005058587               0.000583966              -0.000687242               0.001915260               0.001228018               0.000000000               0.000000000               0.000000000               0.000000000              -0.000106805               0.004992648               0.000475089              -0.000664131               0.001885576               0.001221445               0.000000000               0.000000000               0.000000000               0.000000000              -0.000076683               0.004914233               0.000382541              -0.000643034               0.001852406               0.001209372               0.000000000               0.000000000               0.000000000               0.000000000              -0.000058447               0.004825840               0.000302423              -0.000625146               0.001816979               0.001191833               0.000000000               0.000000000               0.000000000               0.000000000              -0.000045933               0.004728760               0.000230934              -0.000608318               0.001779010               0.001170692               0.000000000               0.000000000               0.000000000               0.000000000              -0.000042509               0.004618610               0.000166527              -0.000593266               0.001737276               0.001144011               0.000000000               0.000000000               0.000000000               0.000000000              -0.000049432               0.004508674               0.000108448              -0.000582120               0.001696916               0.001114796               0.000000000               0.000000000               0.000000000               0.000000000              -0.000065839               0.004408506               0.000059194              -0.000575751               0.001661404               0.001085653               0.000000000               0.000000000               0.000000000               0.000000000              -0.000090556               0.004313657               0.000024674              -0.000573164               0.001628926               0.001055762               0.000000000               0.000000000               0.000000000               0.000000000              -0.000118150               0.004222419               0.000006039              -0.000572107               0.001598161               0.001026054               0.000000000               0.000000000               0.000000000               0.000000000              -0.000129855               0.004177479               0.000000039              -0.000570879               0.001582772               0.001011893               0.000000000               0.000000000               0.000000000               0.000000000               0.000756833               0.002301746               0.001462365              -0.000003908               0.000768543               0.000764635               0.000000000               0.000000000               0.000000000               0.000000000               0.000366067               0.003123321               0.001579665              -0.000253141               0.001125476               0.000872335               0.000000000               0.000000000               0.000000000               0.000000000              -0.000096612               0.004103710               0.001557883              -0.000549193               0.001550953               0.001001760               0.000000000               0.000000000               0.000000000               0.000000000              -0.000211187               0.004520568               0.001343568              -0.000644266               0.001721596               0.001077330               0.000000000               0.000000000               0.000000000               0.000000000              -0.000206219               0.004703103               0.001120802              -0.000665219               0.001789425               0.001124206               0.000000000               0.000000000               0.000000000               0.000000000              -0.000166347               0.004783856               0.000928860              -0.000660361               0.001814723               0.001154362               0.000000000               0.000000000               0.000000000               0.000000000              -0.000126103               0.004813668               0.000773906              -0.000648996               0.001820872               0.001171876               0.000000000               0.000000000               0.000000000               0.000000000              -0.000092589               0.004807204               0.000645589              -0.000635620               0.001814258               0.001178638               0.000000000               0.000000000               0.000000000               0.000000000              -0.000062526               0.004768917               0.000538085              -0.000619561               0.001796143               0.001176583               0.000000000               0.000000000               0.000000000               0.000000000              -0.000043292               0.004710230               0.000447430              -0.000605012               0.001771732               0.001166720               0.000000000               0.000000000               0.000000000               0.000000000              -0.000030553               0.004639511               0.000366491              -0.000591395               0.001743620               0.001152225               0.000000000               0.000000000               0.000000000               0.000000000              -0.000025630               0.004555132               0.000288208              -0.000579001               0.001711363               0.001132361               0.000000000               0.000000000               0.000000000               0.000000000              -0.000033389               0.004463990               0.000211957              -0.000570518               0.001678155               0.001107636               0.000000000               0.000000000               0.000000000               0.000000000              -0.000055417               0.004374533               0.000141112              -0.000567597               0.001647362               0.001079765               0.000000000               0.000000000               0.000000000               0.000000000              -0.000096326               0.004288186               0.000079574              -0.000572144               0.001620096               0.001047952               0.000000000               0.000000000               0.000000000               0.000000000              -0.000155037               0.004208063               0.000032794              -0.000584145               0.001597389               0.001013244               0.000000000               0.000000000               0.000000000               0.000000000              -0.000198493               0.004162882               0.000008923              -0.000594793               0.001585878               0.000991084               0.000000000               0.000000000               0.000000000               0.000000000               0.000213967               0.001474828               0.001042145              -0.000104117               0.000526309               0.000422193               0.000000000               0.000000000               0.000000000               0.000000000               0.000179532               0.002328612               0.001381698              -0.000223753               0.000850780               0.000627027               0.000000000               0.000000000               0.000000000               0.000000000              -0.000042533               0.003318888               0.001584565              -0.000430811               0.001249888               0.000819077               0.000000000               0.000000000               0.000000000               0.000000000              -0.000102218               0.003854701               0.001468426              -0.000520169               0.001458277               0.000938108               0.000000000               0.000000000               0.000000000               0.000000000              -0.000098832               0.004158895               0.001281382              -0.000556923               0.001571925               0.001015002               0.000000000               0.000000000               0.000000000               0.000000000              -0.000071397               0.004343279               0.001094670              -0.000569683               0.001637639               0.001067956               0.000000000               0.000000000               0.000000000               0.000000000              -0.000044662               0.004459720               0.000931393              -0.000574212               0.001677962               0.001103750               0.000000000               0.000000000               0.000000000               0.000000000              -0.000024452               0.004523611               0.000795106              -0.000574620               0.001699395               0.001124775               0.000000000               0.000000000               0.000000000               0.000000000              -0.000003245               0.004543197               0.000680432              -0.000569115               0.001704089               0.001134973               0.000000000               0.000000000               0.000000000               0.000000000               0.000013620               0.004528992               0.000583741              -0.000561015               0.001696654               0.001135639               0.000000000               0.000000000               0.000000000               0.000000000               0.000023444               0.004495280               0.000498355              -0.000553117               0.001682784               0.001129667               0.000000000               0.000000000               0.000000000               0.000000000               0.000028908               0.004451984               0.000413009              -0.000545656               0.001665865               0.001120209               0.000000000               0.000000000               0.000000000               0.000000000               0.000023813               0.004398132               0.000325707              -0.000540835               0.001646308               0.001105472               0.000000000               0.000000000               0.000000000               0.000000000               0.000001655               0.004335477               0.000238156              -0.000541312               0.001625582               0.001084269               0.000000000               0.000000000               0.000000000               0.000000000              -0.000043642               0.004267452               0.000151651              -0.000549796               0.001605735               0.001055939               0.000000000               0.000000000               0.000000000               0.000000000              -0.000118517               0.004199498               0.000071946              -0.000569380               0.001589612               0.001020232               0.000000000               0.000000000               0.000000000               0.000000000              -0.000184747               0.004152776               0.000026615              -0.000588376               0.001580370               0.000991994               0.000000000               0.000000000               0.000000000               0.000000000              -0.000400019               0.000817359               0.000658816              -0.000252177               0.000356509               0.000104332               0.000000000               0.000000000               0.000000000               0.000000000              -0.000049023               0.001607990               0.001132890              -0.000219383               0.000609118               0.000389735               0.000000000               0.000000000               0.000000000               0.000000000               0.000023540               0.002516116               0.001485516              -0.000305688               0.000940592               0.000634904               0.000000000               0.000000000               0.000000000               0.000000000               0.000054880               0.003117121               0.001459217              -0.000369060               0.001162050               0.000792989               0.000000000               0.000000000               0.000000000               0.000000000               0.000073795               0.003520911               0.001322126              -0.000412441               0.001311105               0.000898664               0.000000000               0.000000000               0.000000000               0.000000000               0.000091412               0.003803856               0.001161019              -0.000441202               0.001415006               0.000973804               0.000000000               0.000000000               0.000000000               0.000000000               0.000104264               0.004007292               0.001009153              -0.000461812               0.001489688               0.001027876               0.000000000               0.000000000               0.000000000               0.000000000               0.000111377               0.004147059               0.000880666              -0.000476615               0.001541211               0.001064595               0.000000000               0.000000000               0.000000000               0.000000000               0.000119088               0.004236019               0.000771723              -0.000484844               0.001573606               0.001088763               0.000000000               0.000000000               0.000000000               0.000000000               0.000126705               0.004282854               0.000676605              -0.000487842               0.001590218               0.001102376               0.000000000               0.000000000               0.000000000               0.000000000               0.000128458               0.004300352               0.000592385              -0.000489371               0.001596560               0.001107189               0.000000000               0.000000000               0.000000000               0.000000000               0.000129718               0.004306586               0.000508110              -0.000489678               0.001598740               0.001109062               0.000000000               0.000000000               0.000000000               0.000000000               0.000128879               0.004297853               0.000418506              -0.000488901               0.001595570               0.001106669               0.000000000               0.000000000               0.000000000               0.000000000               0.000117357               0.004271872               0.000324091              -0.000489974               0.001587268               0.001097294               0.000000000               0.000000000               0.000000000               0.000000000               0.000087141               0.004232900               0.000221677              -0.000496434               0.001576430               0.001079997               0.000000000               0.000000000               0.000000000               0.000000000               0.000026029               0.004184886               0.000112762              -0.000513349               0.001566064               0.001052715               0.000000000               0.000000000               0.000000000               0.000000000              -0.000035384               0.004147070               0.000050820              -0.000531651               0.001559560               0.001027909               0.000000000               0.000000000               0.000000000               0.000000000              -0.001008733               0.000348076               0.000354009              -0.000421784               0.000256618              -0.000165166               0.000000000               0.000000000               0.000000000               0.000000000              -0.000291940               0.001007034               0.000852209              -0.000235357               0.000414127               0.000178769               0.000000000               0.000000000               0.000000000               0.000000000               0.000086015               0.001770151               0.001257956              -0.000189014               0.000653048               0.000464034               0.000000000               0.000000000               0.000000000               0.000000000               0.000227155               0.002389021               0.001295260              -0.000213445               0.000867480               0.000654035               0.000000000               0.000000000               0.000000000               0.000000000               0.000278746               0.002863695               0.001208674              -0.000253433               0.001039032               0.000785600               0.000000000               0.000000000               0.000000000               0.000000000               0.000297447               0.003224531               0.001084878              -0.000291524               0.001172007               0.000880483               0.000000000               0.000000000               0.000000000               0.000000000               0.000303442               0.003502893               0.000960127              -0.000324071               0.001275643               0.000951572               0.000000000               0.000000000               0.000000000               0.000000000               0.000301046               0.003716333               0.000853007              -0.000351649               0.001355981               0.001004332               0.000000000               0.000000000               0.000000000               0.000000000               0.000295032               0.003875254               0.000761432              -0.000373769               0.001416328               0.001042559               0.000000000               0.000000000               0.000000000               0.000000000               0.000290408               0.003988136               0.000677559              -0.000389613               0.001459236               0.001069623               0.000000000               0.000000000               0.000000000               0.000000000               0.000284420               0.004063047               0.000601599              -0.000401223               0.001488076               0.001086854               0.000000000               0.000000000               0.000000000               0.000000000               0.000280294               0.004116622               0.000527859              -0.000409467               0.001508682               0.001099216               0.000000000               0.000000000               0.000000000               0.000000000               0.000281895               0.004155746               0.000448868              -0.000413757               0.001523154               0.001109397               0.000000000               0.000000000               0.000000000               0.000000000               0.000283860               0.004174709               0.000360921              -0.000415390               0.001530019               0.001114629               0.000000000               0.000000000               0.000000000               0.000000000               0.000279035               0.004172520               0.000258773              -0.000416926               0.001529801               0.001112875               0.000000000               0.000000000               0.000000000               0.000000000               0.000261662               0.004158068               0.000138550              -0.000421634               0.001526554               0.001104919               0.000000000               0.000000000               0.000000000               0.000000000               0.000237310               0.004142298               0.000070320              -0.000428795               0.001523684               0.001094889               0.000000000               0.000000000               0.000000000               0.000000000              -0.001528943               0.000050752               0.000151071              -0.000579697               0.000210148              -0.000369549               0.000000000               0.000000000               0.000000000               0.000000000              -0.000514530               0.000562090               0.000559824              -0.000263210               0.000275098               0.000011888               0.000000000               0.000000000               0.000000000               0.000000000               0.000131789               0.001168009               0.000912281              -0.000096581               0.000421526               0.000324945               0.000000000               0.000000000               0.000000000               0.000000000               0.000382396               0.001768077               0.000976512              -0.000077612               0.000615223               0.000537611               0.000000000               0.000000000               0.000000000               0.000000000               0.000474704               0.002277527               0.000931839              -0.000106678               0.000794727               0.000688049               0.000000000               0.000000000               0.000000000               0.000000000               0.000502577               0.002690433               0.000849833              -0.000147838               0.000946081               0.000798243               0.000000000               0.000000000               0.000000000               0.000000000               0.000506399               0.003025711               0.000761456              -0.000188314               0.001071331               0.000883017               0.000000000               0.000000000               0.000000000               0.000000000               0.000497715               0.003297173               0.000682179              -0.000225503               0.001174215               0.000948711               0.000000000               0.000000000               0.000000000               0.000000000               0.000481135               0.003513369               0.000614719              -0.000258745               0.001257359               0.000998614               0.000000000               0.000000000               0.000000000               0.000000000               0.000465022               0.003683669               0.000552872              -0.000286075               0.001323236               0.001037161               0.000000000               0.000000000               0.000000000               0.000000000               0.000452671               0.003813641               0.000495476              -0.000306953               0.001373519               0.001066566               0.000000000               0.000000000               0.000000000               0.000000000               0.000445801               0.003916960               0.000439986              -0.000322444               0.001413122               0.001090678               0.000000000               0.000000000               0.000000000               0.000000000               0.000448019               0.004003058               0.000380098              -0.000332375               0.001445131               0.001112756               0.000000000               0.000000000               0.000000000               0.000000000               0.000461448               0.004069224               0.000311612              -0.000335609               0.001468264               0.001132655               0.000000000               0.000000000               0.000000000               0.000000000               0.000487729               0.004112080               0.000230734              -0.000331111               0.001481050               0.001149939               0.000000000               0.000000000               0.000000000               0.000000000               0.000527169               0.004132016               0.000127853              -0.000318813               0.001483596               0.001164783               0.000000000               0.000000000               0.000000000               0.000000000               0.000559555               0.004138494               0.000069428              -0.000307478               0.001481977               0.001174499               0.000000000               0.000000000               0.000000000               0.000000000              -0.001877463              -0.000099414               0.000043160              -0.000691622               0.000197401              -0.000494220               0.000000000               0.000000000               0.000000000               0.000000000              -0.000677469               0.000298354               0.000272874              -0.000291345               0.000196565              -0.000094780               0.000000000               0.000000000               0.000000000               0.000000000               0.000156850               0.000781880               0.000478688              -0.000038917               0.000273596               0.000234679               0.000000000               0.000000000               0.000000000               0.000000000               0.000492016               0.001347436               0.000526330               0.000016076               0.000443782               0.000459858               0.000000000               0.000000000               0.000000000               0.000000000               0.000619322               0.001866144               0.000509489              -0.000001023               0.000622383               0.000621360               0.000000000               0.000000000               0.000000000               0.000000000               0.000658761               0.002308406               0.000469026              -0.000041516               0.000783299               0.000741784               0.000000000               0.000000000               0.000000000               0.000000000               0.000660365               0.002674671               0.000423179              -0.000086697               0.000920447               0.000833750               0.000000000               0.000000000               0.000000000               0.000000000               0.000646540               0.002981168               0.000380879              -0.000130193               0.001037110               0.000906917               0.000000000               0.000000000               0.000000000               0.000000000               0.000623962               0.003239613               0.000344688              -0.000170966               0.001136849               0.000965883               0.000000000               0.000000000               0.000000000               0.000000000               0.000597613               0.003452473               0.000311624              -0.000207454               0.001219964               0.001012510               0.000000000               0.000000000               0.000000000               0.000000000               0.000575201               0.003625152               0.000280355              -0.000237443               0.001287519               0.001050077               0.000000000               0.000000000               0.000000000               0.000000000               0.000562693               0.003766391               0.000249284              -0.000259788               0.001342047               0.001082259               0.000000000               0.000000000               0.000000000               0.000000000               0.000567293               0.003885862               0.000216016              -0.000272997               0.001386274               0.001113276               0.000000000               0.000000000               0.000000000               0.000000000               0.000595105               0.003985643               0.000178184              -0.000275040               0.001420215               0.001145174               0.000000000               0.000000000               0.000000000               0.000000000               0.000651169               0.004062769               0.000133304              -0.000263657               0.001442129               0.001178472               0.000000000               0.000000000               0.000000000               0.000000000               0.000740389               0.004110716               0.000074852              -0.000236193               0.001448956               0.001212763               0.000000000               0.000000000               0.000000000               0.000000000               0.000822321               0.004135242               0.000042426              -0.000208534               0.001447912               0.001239377               0.000000000               0.000000000               0.000000000               0.000000000               0.000000000               0.000000000               0.000000000               0.000000000               0.000000000               0.000000000               0.000000000               0.000000000               0.000000000               0.000000000               0.000000000               0.000000000               0.000000000               0.000000000               0.000000000               0.000000000               0.000000000               0.000000000               0.000000000               0.000000000               0.000000000               0.000000000               0.000000000               0.000000000               0.000000000               0.000000000               0.000000000               0.000000000               0.000000000               0.000000000               0.000000000               0.000000000               0.000000000               0.000000000               0.000000000               0.000000000               0.000000000               0.000000000               0.000000000               0.000000000               0.000000000               0.000000000               0.000000000               0.000000000               0.000000000               0.000000000               0.000000000               0.000000000               0.000000000               0.000000000               0.000000000               0.000000000               0.000000000               0.000000000               0.000000000               0.000000000               0.000000000               0.000000000               0.000000000               0.000000000               0.000000000               0.000000000               0.000000000               0.000000000               0.000000000               0.000000000               0.000000000               0.000000000               0.000000000               0.000000000               0.000000000               0.000000000               0.000000000               0.000000000               0.000000000               0.000000000               0.000000000               0.000000000               0.000000000               0.000000000               0.000000000               0.000000000               0.000000000               0.000000000               0.000000000               0.000000000               0.000000000               0.000000000               0.000000000               0.000000000               0.000000000               0.000000000               0.000000000               0.000000000               0.000000000               0.000000000               0.000000000               0.000000000               0.000000000               0.000000000               0.000000000               0.000000000               0.000000000               0.000000000               0.000000000               0.000000000               0.000000000               0.000000000               0.000000000               0.000000000               0.000000000               0.000000000               0.000000000               0.000000000               0.000000000               0.000000000               0.000000000               0.000000000               0.000000000               0.000000000               0.000000000               0.000000000               0.000000000               0.000000000               0.000000000               0.000000000               0.000000000               0.000000000               0.000000000               0.000000000               0.000000000               0.000000000               0.000000000               0.000000000               0.000000000               0.000000000               0.000000000               0.000000000               0.000000000               0.000000000               0.000000000               0.000000000               0.000000000               0.000000000               0.000000000               0.000000000               0.000000000               0.000000000               0.000000000               0.000000000               0.000000000               0.000000000               0.000000000               0.000000000               0.000000000               0.000000000               0.000000000               0.000000000               0.000000000               0.000000000               0.000000000               0.000000000               0.000000000               0.000000000               0.000000000               0.000000000               0.000000000               0.000000000               0.000000000               0.000000000 </DataArray>
</PointData>
</Piece>
</UnstructuredGrid> </VTKFile>
