<?xml version="1.0"?>
<VTKFile type="UnstructuredGrid" version="0.1">
<UnstructuredGrid>
<Piece NumberOfPoints="      1156" NumberOfCells="      1024">
<Points>
<DataArray type="Float64"                                    Name="coordinates"                                                      NumberOfComponents=" 3" format="ascii">
              0.133000000               0.000000000               0.000000000               0.155937500               0.000000000               0.000000000               0.178875000               0.000000000               0.000000000               0.201812500               0.000000000               0.000000000               0.224750000               0.000000000               0.000000000               0.247687500               0.000000000               0.000000000               0.270625000               0.000000000               0.000000000               0.293562500               0.000000000               0.000000000               0.316500000               0.000000000               0.000000000               0.339437500               0.000000000               0.000000000               0.362375000               0.000000000               0.000000000               0.385312500               0.000000000               0.000000000               0.408250000               0.000000000               0.000000000               0.431187500               0.000000000               0.000000000               0.454125000               0.000000000               0.000000000               0.477062500               0.000000000               0.000000000               0.500000000               0.000000000               0.000000000               0.132359569               0.013036280               0.000000000               0.155337096               0.016127762               0.000000000               0.178314623               0.019219245               0.000000000               0.201292150               0.022310727               0.000000000               0.224269676               0.025402210               0.000000000               0.247247203               0.028493692               0.000000000               0.270224730               0.031585175               0.000000000               0.293202257               0.034676657               0.000000000               0.316179784               0.037768140               0.000000000               0.339157311               0.040859622               0.000000000               0.362134838               0.043951105               0.000000000               0.385112365               0.047042587               0.000000000               0.408089892               0.050134070               0.000000000               0.431067419               0.053225552               0.000000000               0.454044946               0.056317035               0.000000000               0.477022473               0.059408517               0.000000000               0.500000000               0.062500000               0.000000000               0.130444442               0.025947013               0.000000000               0.153541665               0.032137825               0.000000000               0.176638887               0.038328636               0.000000000               0.199736109               0.044519448               0.000000000               0.222833332               0.050710260               0.000000000               0.245930554               0.056901071               0.000000000               0.269027776               0.063091883               0.000000000               0.292124999               0.069282695               0.000000000               0.315222221               0.075473506               0.000000000               0.338319444               0.081664318               0.000000000               0.361416666               0.087855130               0.000000000               0.384513888               0.094045942               0.000000000               0.407611111               0.100236753               0.000000000               0.430708333               0.106427565               0.000000000               0.453805555               0.112618377               0.000000000               0.476902778               0.118809188               0.000000000               0.500000000               0.125000000               0.000000000               0.127273065               0.038607862               0.000000000               0.150568498               0.047913621               0.000000000               0.173863932               0.057219379               0.000000000               0.197159365               0.066525138               0.000000000               0.220454798               0.075830897               0.000000000               0.243750232               0.085136655               0.000000000               0.267045665               0.094442414               0.000000000               0.290341099               0.103748172               0.000000000               0.313636532               0.113053931               0.000000000               0.336931966               0.122359690               0.000000000               0.360227399               0.131665448               0.000000000               0.383522833               0.140971207               0.000000000               0.406818266               0.150276966               0.000000000               0.430113700               0.159582724               0.000000000               0.453409133               0.168888483               0.000000000               0.476704567               0.178194241               0.000000000               0.500000000               0.187500000               0.000000000               0.122875978               0.050896897               0.000000000               0.146446229               0.063340840               0.000000000               0.170016481               0.075784784               0.000000000               0.193586732               0.088228728               0.000000000               0.217156983               0.100672672               0.000000000               0.240727235               0.113116616               0.000000000               0.264297486               0.125560560               0.000000000               0.287867738               0.138004504               0.000000000               0.311437989               0.150448448               0.000000000               0.335008240               0.162892392               0.000000000               0.358578492               0.175336336               0.000000000               0.382148743               0.187780280               0.000000000               0.405718994               0.200224224               0.000000000               0.429289246               0.212668168               0.000000000               0.452859497               0.225112112               0.000000000               0.476429749               0.237556056               0.000000000               0.500000000               0.250000000               0.000000000               0.117295528               0.062695766               0.000000000               0.141214558               0.078308531               0.000000000               0.165133587               0.093921295               0.000000000               0.189052617               0.109534060               0.000000000               0.212971646               0.125146824               0.000000000               0.236890676               0.140759589               0.000000000               0.260809705               0.156372354               0.000000000               0.284728735               0.171985118               0.000000000               0.308647764               0.187597883               0.000000000               0.332566794               0.203210648               0.000000000               0.356485823               0.218823412               0.000000000               0.380404853               0.234436177               0.000000000               0.404323882               0.250048941               0.000000000               0.428242912               0.265661706               0.000000000               0.452161941               0.281274471               0.000000000               0.476080971               0.296887235               0.000000000               0.500000000               0.312500000               0.000000000               0.110585458               0.073890841               0.000000000               0.134923867               0.092710163               0.000000000               0.159262276               0.111529486               0.000000000               0.183600685               0.130348808               0.000000000               0.207939094               0.149168131               0.000000000               0.232277503               0.167987453               0.000000000               0.256615912               0.186806776               0.000000000               0.280954320               0.205626098               0.000000000               0.305292729               0.224445420               0.000000000               0.329631138               0.243264743               0.000000000               0.353969547               0.262084065               0.000000000               0.378307956               0.280903388               0.000000000               0.402646365               0.299722710               0.000000000               0.426984773               0.318542033               0.000000000               0.451323182               0.337361355               0.000000000               0.475661591               0.356180678               0.000000000               0.500000000               0.375000000               0.000000000               0.102810390               0.084374307               0.000000000               0.127634741               0.106444663               0.000000000               0.152459092               0.128515018               0.000000000               0.177283442               0.150585374               0.000000000               0.202107793               0.172655730               0.000000000               0.226932143               0.194726086               0.000000000               0.251756494               0.216796442               0.000000000               0.276580845               0.238866798               0.000000000               0.301405195               0.260937153               0.000000000               0.326229546               0.283007509               0.000000000               0.351053896               0.305077865               0.000000000               0.375878247               0.327148221               0.000000000               0.400702598               0.349218577               0.000000000               0.425526948               0.371288933               0.000000000               0.450351299               0.393359288               0.000000000               0.475175649               0.415429644               0.000000000               0.500000000               0.437500000               0.000000000               0.094045202               0.094045202               0.000000000               0.119417377               0.119417377               0.000000000               0.144789552               0.144789552               0.000000000               0.170161727               0.170161727               0.000000000               0.195533901               0.195533901               0.000000000               0.220906076               0.220906076               0.000000000               0.246278251               0.246278251               0.000000000               0.271650426               0.271650426               0.000000000               0.297022601               0.297022601               0.000000000               0.322394776               0.322394776               0.000000000               0.347766951               0.347766951               0.000000000               0.373139126               0.373139126               0.000000000               0.398511300               0.398511300               0.000000000               0.423883475               0.423883475               0.000000000               0.449255650               0.449255650               0.000000000               0.474627825               0.474627825               0.000000000               0.500000000               0.500000000               0.000000000               0.084374307               0.102810390               0.000000000               0.106444663               0.127634741               0.000000000               0.128515018               0.152459092               0.000000000               0.150585374               0.177283442               0.000000000               0.172655730               0.202107793               0.000000000               0.194726086               0.226932143               0.000000000               0.216796442               0.251756494               0.000000000               0.238866798               0.276580845               0.000000000               0.260937153               0.301405195               0.000000000               0.283007509               0.326229546               0.000000000               0.305077865               0.351053896               0.000000000               0.327148221               0.375878247               0.000000000               0.349218577               0.400702598               0.000000000               0.371288933               0.425526948               0.000000000               0.393359288               0.450351299               0.000000000               0.415429644               0.475175649               0.000000000               0.437500000               0.500000000               0.000000000               0.073890841               0.110585458               0.000000000               0.092710163               0.134923867               0.000000000               0.111529486               0.159262276               0.000000000               0.130348808               0.183600685               0.000000000               0.149168131               0.207939094               0.000000000               0.167987453               0.232277503               0.000000000               0.186806776               0.256615912               0.000000000               0.205626098               0.280954320               0.000000000               0.224445420               0.305292729               0.000000000               0.243264743               0.329631138               0.000000000               0.262084065               0.353969547               0.000000000               0.280903388               0.378307956               0.000000000               0.299722710               0.402646365               0.000000000               0.318542033               0.426984773               0.000000000               0.337361355               0.451323182               0.000000000               0.356180678               0.475661591               0.000000000               0.375000000               0.500000000               0.000000000               0.062695766               0.117295528               0.000000000               0.078308531               0.141214558               0.000000000               0.093921295               0.165133587               0.000000000               0.109534060               0.189052617               0.000000000               0.125146824               0.212971646               0.000000000               0.140759589               0.236890676               0.000000000               0.156372354               0.260809705               0.000000000               0.171985118               0.284728735               0.000000000               0.187597883               0.308647764               0.000000000               0.203210648               0.332566794               0.000000000               0.218823412               0.356485823               0.000000000               0.234436177               0.380404853               0.000000000               0.250048941               0.404323882               0.000000000               0.265661706               0.428242912               0.000000000               0.281274471               0.452161941               0.000000000               0.296887235               0.476080971               0.000000000               0.312500000               0.500000000               0.000000000               0.050896897               0.122875978               0.000000000               0.063340840               0.146446229               0.000000000               0.075784784               0.170016481               0.000000000               0.088228728               0.193586732               0.000000000               0.100672672               0.217156983               0.000000000               0.113116616               0.240727235               0.000000000               0.125560560               0.264297486               0.000000000               0.138004504               0.287867738               0.000000000               0.150448448               0.311437989               0.000000000               0.162892392               0.335008240               0.000000000               0.175336336               0.358578492               0.000000000               0.187780280               0.382148743               0.000000000               0.200224224               0.405718994               0.000000000               0.212668168               0.429289246               0.000000000               0.225112112               0.452859497               0.000000000               0.237556056               0.476429749               0.000000000               0.250000000               0.500000000               0.000000000               0.038607862               0.127273065               0.000000000               0.047913621               0.150568498               0.000000000               0.057219379               0.173863932               0.000000000               0.066525138               0.197159365               0.000000000               0.075830897               0.220454798               0.000000000               0.085136655               0.243750232               0.000000000               0.094442414               0.267045665               0.000000000               0.103748172               0.290341099               0.000000000               0.113053931               0.313636532               0.000000000               0.122359690               0.336931966               0.000000000               0.131665448               0.360227399               0.000000000               0.140971207               0.383522833               0.000000000               0.150276966               0.406818266               0.000000000               0.159582724               0.430113700               0.000000000               0.168888483               0.453409133               0.000000000               0.178194241               0.476704567               0.000000000               0.187500000               0.500000000               0.000000000               0.025947013               0.130444442               0.000000000               0.032137825               0.153541665               0.000000000               0.038328636               0.176638887               0.000000000               0.044519448               0.199736109               0.000000000               0.050710260               0.222833332               0.000000000               0.056901071               0.245930554               0.000000000               0.063091883               0.269027776               0.000000000               0.069282695               0.292124999               0.000000000               0.075473506               0.315222221               0.000000000               0.081664318               0.338319444               0.000000000               0.087855130               0.361416666               0.000000000               0.094045942               0.384513888               0.000000000               0.100236753               0.407611111               0.000000000               0.106427565               0.430708333               0.000000000               0.112618377               0.453805555               0.000000000               0.118809188               0.476902778               0.000000000               0.125000000               0.500000000               0.000000000               0.013036280               0.132359569               0.000000000               0.016127762               0.155337096               0.000000000               0.019219245               0.178314623               0.000000000               0.022310727               0.201292150               0.000000000               0.025402210               0.224269676               0.000000000               0.028493692               0.247247203               0.000000000               0.031585175               0.270224730               0.000000000               0.034676657               0.293202257               0.000000000               0.037768140               0.316179784               0.000000000               0.040859622               0.339157311               0.000000000               0.043951105               0.362134838               0.000000000               0.047042587               0.385112365               0.000000000               0.050134070               0.408089892               0.000000000               0.053225552               0.431067419               0.000000000               0.056317035               0.454044946               0.000000000               0.059408517               0.477022473               0.000000000               0.062500000               0.500000000               0.000000000               0.000000000               0.133000000               0.000000000               0.000000000               0.155937500               0.000000000               0.000000000               0.178875000               0.000000000               0.000000000               0.201812500               0.000000000               0.000000000               0.224750000               0.000000000               0.000000000               0.247687500               0.000000000               0.000000000               0.270625000               0.000000000               0.000000000               0.293562500               0.000000000               0.000000000               0.316500000               0.000000000               0.000000000               0.339437500               0.000000000               0.000000000               0.362375000               0.000000000               0.000000000               0.385312500               0.000000000               0.000000000               0.408250000               0.000000000               0.000000000               0.431187500               0.000000000               0.000000000               0.454125000               0.000000000               0.000000000               0.477062500               0.000000000               0.000000000               0.500000000               0.000000000               0.133000000               0.000000000               0.000000000               0.155937500               0.000000000               0.000000000               0.178875000               0.000000000               0.000000000               0.201812500               0.000000000               0.000000000               0.224750000               0.000000000               0.000000000               0.247687500               0.000000000               0.000000000               0.270625000               0.000000000               0.000000000               0.293562500               0.000000000               0.000000000               0.316500000               0.000000000               0.000000000               0.339437500               0.000000000               0.000000000               0.362375000               0.000000000               0.000000000               0.385312500               0.000000000               0.000000000               0.408250000               0.000000000               0.000000000               0.431187500               0.000000000               0.000000000               0.454125000               0.000000000               0.000000000               0.477062500               0.000000000               0.000000000               0.500000000               0.000000000               0.000000000               0.132359569              -0.013036280               0.000000000               0.155337096              -0.016127762               0.000000000               0.178314623              -0.019219245               0.000000000               0.201292150              -0.022310727               0.000000000               0.224269676              -0.025402210               0.000000000               0.247247203              -0.028493692               0.000000000               0.270224730              -0.031585175               0.000000000               0.293202257              -0.034676657               0.000000000               0.316179784              -0.037768140               0.000000000               0.339157311              -0.040859622               0.000000000               0.362134838              -0.043951105               0.000000000               0.385112365              -0.047042587               0.000000000               0.408089892              -0.050134070               0.000000000               0.431067419              -0.053225552               0.000000000               0.454044946              -0.056317035               0.000000000               0.477022473              -0.059408517               0.000000000               0.500000000              -0.062500000               0.000000000               0.130444442              -0.025947013               0.000000000               0.153541665              -0.032137825               0.000000000               0.176638887              -0.038328636               0.000000000               0.199736109              -0.044519448               0.000000000               0.222833332              -0.050710260               0.000000000               0.245930554              -0.056901071               0.000000000               0.269027776              -0.063091883               0.000000000               0.292124999              -0.069282695               0.000000000               0.315222221              -0.075473506               0.000000000               0.338319444              -0.081664318               0.000000000               0.361416666              -0.087855130               0.000000000               0.384513888              -0.094045942               0.000000000               0.407611111              -0.100236753               0.000000000               0.430708333              -0.106427565               0.000000000               0.453805555              -0.112618377               0.000000000               0.476902778              -0.118809188               0.000000000               0.500000000              -0.125000000               0.000000000               0.127273065              -0.038607862               0.000000000               0.150568498              -0.047913621               0.000000000               0.173863932              -0.057219379               0.000000000               0.197159365              -0.066525138               0.000000000               0.220454798              -0.075830897               0.000000000               0.243750232              -0.085136655               0.000000000               0.267045665              -0.094442414               0.000000000               0.290341099              -0.103748172               0.000000000               0.313636532              -0.113053931               0.000000000               0.336931966              -0.122359690               0.000000000               0.360227399              -0.131665448               0.000000000               0.383522833              -0.140971207               0.000000000               0.406818266              -0.150276966               0.000000000               0.430113700              -0.159582724               0.000000000               0.453409133              -0.168888483               0.000000000               0.476704567              -0.178194241               0.000000000               0.500000000              -0.187500000               0.000000000               0.122875978              -0.050896897               0.000000000               0.146446229              -0.063340840               0.000000000               0.170016481              -0.075784784               0.000000000               0.193586732              -0.088228728               0.000000000               0.217156983              -0.100672672               0.000000000               0.240727235              -0.113116616               0.000000000               0.264297486              -0.125560560               0.000000000               0.287867738              -0.138004504               0.000000000               0.311437989              -0.150448448               0.000000000               0.335008240              -0.162892392               0.000000000               0.358578492              -0.175336336               0.000000000               0.382148743              -0.187780280               0.000000000               0.405718994              -0.200224224               0.000000000               0.429289246              -0.212668168               0.000000000               0.452859497              -0.225112112               0.000000000               0.476429749              -0.237556056               0.000000000               0.500000000              -0.250000000               0.000000000               0.117295528              -0.062695766               0.000000000               0.141214558              -0.078308531               0.000000000               0.165133587              -0.093921295               0.000000000               0.189052617              -0.109534060               0.000000000               0.212971646              -0.125146824               0.000000000               0.236890676              -0.140759589               0.000000000               0.260809705              -0.156372354               0.000000000               0.284728735              -0.171985118               0.000000000               0.308647764              -0.187597883               0.000000000               0.332566794              -0.203210648               0.000000000               0.356485823              -0.218823412               0.000000000               0.380404853              -0.234436177               0.000000000               0.404323882              -0.250048941               0.000000000               0.428242912              -0.265661706               0.000000000               0.452161941              -0.281274471               0.000000000               0.476080971              -0.296887235               0.000000000               0.500000000              -0.312500000               0.000000000               0.110585458              -0.073890841               0.000000000               0.134923867              -0.092710163               0.000000000               0.159262276              -0.111529486               0.000000000               0.183600685              -0.130348808               0.000000000               0.207939094              -0.149168131               0.000000000               0.232277503              -0.167987453               0.000000000               0.256615912              -0.186806776               0.000000000               0.280954320              -0.205626098               0.000000000               0.305292729              -0.224445420               0.000000000               0.329631138              -0.243264743               0.000000000               0.353969547              -0.262084065               0.000000000               0.378307956              -0.280903388               0.000000000               0.402646365              -0.299722710               0.000000000               0.426984773              -0.318542033               0.000000000               0.451323182              -0.337361355               0.000000000               0.475661591              -0.356180678               0.000000000               0.500000000              -0.375000000               0.000000000               0.102810390              -0.084374307               0.000000000               0.127634741              -0.106444663               0.000000000               0.152459092              -0.128515018               0.000000000               0.177283442              -0.150585374               0.000000000               0.202107793              -0.172655730               0.000000000               0.226932143              -0.194726086               0.000000000               0.251756494              -0.216796442               0.000000000               0.276580845              -0.238866798               0.000000000               0.301405195              -0.260937153               0.000000000               0.326229546              -0.283007509               0.000000000               0.351053896              -0.305077865               0.000000000               0.375878247              -0.327148221               0.000000000               0.400702598              -0.349218577               0.000000000               0.425526948              -0.371288933               0.000000000               0.450351299              -0.393359288               0.000000000               0.475175649              -0.415429644               0.000000000               0.500000000              -0.437500000               0.000000000               0.094045202              -0.094045202               0.000000000               0.119417377              -0.119417377               0.000000000               0.144789552              -0.144789552               0.000000000               0.170161727              -0.170161727               0.000000000               0.195533901              -0.195533901               0.000000000               0.220906076              -0.220906076               0.000000000               0.246278251              -0.246278251               0.000000000               0.271650426              -0.271650426               0.000000000               0.297022601              -0.297022601               0.000000000               0.322394776              -0.322394776               0.000000000               0.347766951              -0.347766951               0.000000000               0.373139126              -0.373139126               0.000000000               0.398511300              -0.398511300               0.000000000               0.423883475              -0.423883475               0.000000000               0.449255650              -0.449255650               0.000000000               0.474627825              -0.474627825               0.000000000               0.500000000              -0.500000000               0.000000000               0.084374307              -0.102810390               0.000000000               0.106444663              -0.127634741               0.000000000               0.128515018              -0.152459092               0.000000000               0.150585374              -0.177283442               0.000000000               0.172655730              -0.202107793               0.000000000               0.194726086              -0.226932143               0.000000000               0.216796442              -0.251756494               0.000000000               0.238866798              -0.276580845               0.000000000               0.260937153              -0.301405195               0.000000000               0.283007509              -0.326229546               0.000000000               0.305077865              -0.351053896               0.000000000               0.327148221              -0.375878247               0.000000000               0.349218577              -0.400702598               0.000000000               0.371288933              -0.425526948               0.000000000               0.393359288              -0.450351299               0.000000000               0.415429644              -0.475175649               0.000000000               0.437500000              -0.500000000               0.000000000               0.073890841              -0.110585458               0.000000000               0.092710163              -0.134923867               0.000000000               0.111529486              -0.159262276               0.000000000               0.130348808              -0.183600685               0.000000000               0.149168131              -0.207939094               0.000000000               0.167987453              -0.232277503               0.000000000               0.186806776              -0.256615912               0.000000000               0.205626098              -0.280954320               0.000000000               0.224445420              -0.305292729               0.000000000               0.243264743              -0.329631138               0.000000000               0.262084065              -0.353969547               0.000000000               0.280903388              -0.378307956               0.000000000               0.299722710              -0.402646365               0.000000000               0.318542033              -0.426984773               0.000000000               0.337361355              -0.451323182               0.000000000               0.356180678              -0.475661591               0.000000000               0.375000000              -0.500000000               0.000000000               0.062695766              -0.117295528               0.000000000               0.078308531              -0.141214558               0.000000000               0.093921295              -0.165133587               0.000000000               0.109534060              -0.189052617               0.000000000               0.125146824              -0.212971646               0.000000000               0.140759589              -0.236890676               0.000000000               0.156372354              -0.260809705               0.000000000               0.171985118              -0.284728735               0.000000000               0.187597883              -0.308647764               0.000000000               0.203210648              -0.332566794               0.000000000               0.218823412              -0.356485823               0.000000000               0.234436177              -0.380404853               0.000000000               0.250048941              -0.404323882               0.000000000               0.265661706              -0.428242912               0.000000000               0.281274471              -0.452161941               0.000000000               0.296887235              -0.476080971               0.000000000               0.312500000              -0.500000000               0.000000000               0.050896897              -0.122875978               0.000000000               0.063340840              -0.146446229               0.000000000               0.075784784              -0.170016481               0.000000000               0.088228728              -0.193586732               0.000000000               0.100672672              -0.217156983               0.000000000               0.113116616              -0.240727235               0.000000000               0.125560560              -0.264297486               0.000000000               0.138004504              -0.287867738               0.000000000               0.150448448              -0.311437989               0.000000000               0.162892392              -0.335008240               0.000000000               0.175336336              -0.358578492               0.000000000               0.187780280              -0.382148743               0.000000000               0.200224224              -0.405718994               0.000000000               0.212668168              -0.429289246               0.000000000               0.225112112              -0.452859497               0.000000000               0.237556056              -0.476429749               0.000000000               0.250000000              -0.500000000               0.000000000               0.038607862              -0.127273065               0.000000000               0.047913621              -0.150568498               0.000000000               0.057219379              -0.173863932               0.000000000               0.066525138              -0.197159365               0.000000000               0.075830897              -0.220454798               0.000000000               0.085136655              -0.243750232               0.000000000               0.094442414              -0.267045665               0.000000000               0.103748172              -0.290341099               0.000000000               0.113053931              -0.313636532               0.000000000               0.122359690              -0.336931966               0.000000000               0.131665448              -0.360227399               0.000000000               0.140971207              -0.383522833               0.000000000               0.150276966              -0.406818266               0.000000000               0.159582724              -0.430113700               0.000000000               0.168888483              -0.453409133               0.000000000               0.178194241              -0.476704567               0.000000000               0.187500000              -0.500000000               0.000000000               0.025947013              -0.130444442               0.000000000               0.032137825              -0.153541665               0.000000000               0.038328636              -0.176638887               0.000000000               0.044519448              -0.199736109               0.000000000               0.050710260              -0.222833332               0.000000000               0.056901071              -0.245930554               0.000000000               0.063091883              -0.269027776               0.000000000               0.069282695              -0.292124999               0.000000000               0.075473506              -0.315222221               0.000000000               0.081664318              -0.338319444               0.000000000               0.087855130              -0.361416666               0.000000000               0.094045942              -0.384513888               0.000000000               0.100236753              -0.407611111               0.000000000               0.106427565              -0.430708333               0.000000000               0.112618377              -0.453805555               0.000000000               0.118809188              -0.476902778               0.000000000               0.125000000              -0.500000000               0.000000000               0.013036280              -0.132359569               0.000000000               0.016127762              -0.155337096               0.000000000               0.019219245              -0.178314623               0.000000000               0.022310727              -0.201292150               0.000000000               0.025402210              -0.224269676               0.000000000               0.028493692              -0.247247203               0.000000000               0.031585175              -0.270224730               0.000000000               0.034676657              -0.293202257               0.000000000               0.037768140              -0.316179784               0.000000000               0.040859622              -0.339157311               0.000000000               0.043951105              -0.362134838               0.000000000               0.047042587              -0.385112365               0.000000000               0.050134070              -0.408089892               0.000000000               0.053225552              -0.431067419               0.000000000               0.056317035              -0.454044946               0.000000000               0.059408517              -0.477022473               0.000000000               0.062500000              -0.500000000               0.000000000               0.000000000              -0.133000000               0.000000000               0.000000000              -0.155937500               0.000000000               0.000000000              -0.178875000               0.000000000               0.000000000              -0.201812500               0.000000000               0.000000000              -0.224750000               0.000000000               0.000000000              -0.247687500               0.000000000               0.000000000              -0.270625000               0.000000000               0.000000000              -0.293562500               0.000000000               0.000000000              -0.316500000               0.000000000               0.000000000              -0.339437500               0.000000000               0.000000000              -0.362375000               0.000000000               0.000000000              -0.385312500               0.000000000               0.000000000              -0.408250000               0.000000000               0.000000000              -0.431187500               0.000000000               0.000000000              -0.454125000               0.000000000               0.000000000              -0.477062500               0.000000000               0.000000000              -0.500000000               0.000000000              -0.133000000               0.000000000               0.000000000              -0.155937500               0.000000000               0.000000000              -0.178875000               0.000000000               0.000000000              -0.201812500               0.000000000               0.000000000              -0.224750000               0.000000000               0.000000000              -0.247687500               0.000000000               0.000000000              -0.270625000               0.000000000               0.000000000              -0.293562500               0.000000000               0.000000000              -0.316500000               0.000000000               0.000000000              -0.339437500               0.000000000               0.000000000              -0.362375000               0.000000000               0.000000000              -0.385312500               0.000000000               0.000000000              -0.408250000               0.000000000               0.000000000              -0.431187500               0.000000000               0.000000000              -0.454125000               0.000000000               0.000000000              -0.477062500               0.000000000               0.000000000              -0.500000000               0.000000000               0.000000000              -0.132359569              -0.013036280               0.000000000              -0.155337096              -0.016127762               0.000000000              -0.178314623              -0.019219245               0.000000000              -0.201292150              -0.022310727               0.000000000              -0.224269676              -0.025402210               0.000000000              -0.247247203              -0.028493692               0.000000000              -0.270224730              -0.031585175               0.000000000              -0.293202257              -0.034676657               0.000000000              -0.316179784              -0.037768140               0.000000000              -0.339157311              -0.040859622               0.000000000              -0.362134838              -0.043951105               0.000000000              -0.385112365              -0.047042587               0.000000000              -0.408089892              -0.050134070               0.000000000              -0.431067419              -0.053225552               0.000000000              -0.454044946              -0.056317035               0.000000000              -0.477022473              -0.059408517               0.000000000              -0.500000000              -0.062500000               0.000000000              -0.130444442              -0.025947013               0.000000000              -0.153541665              -0.032137825               0.000000000              -0.176638887              -0.038328636               0.000000000              -0.199736109              -0.044519448               0.000000000              -0.222833332              -0.050710260               0.000000000              -0.245930554              -0.056901071               0.000000000              -0.269027776              -0.063091883               0.000000000              -0.292124999              -0.069282695               0.000000000              -0.315222221              -0.075473506               0.000000000              -0.338319444              -0.081664318               0.000000000              -0.361416666              -0.087855130               0.000000000              -0.384513888              -0.094045942               0.000000000              -0.407611111              -0.100236753               0.000000000              -0.430708333              -0.106427565               0.000000000              -0.453805555              -0.112618377               0.000000000              -0.476902778              -0.118809188               0.000000000              -0.500000000              -0.125000000               0.000000000              -0.127273065              -0.038607862               0.000000000              -0.150568498              -0.047913621               0.000000000              -0.173863932              -0.057219379               0.000000000              -0.197159365              -0.066525138               0.000000000              -0.220454798              -0.075830897               0.000000000              -0.243750232              -0.085136655               0.000000000              -0.267045665              -0.094442414               0.000000000              -0.290341099              -0.103748172               0.000000000              -0.313636532              -0.113053931               0.000000000              -0.336931966              -0.122359690               0.000000000              -0.360227399              -0.131665448               0.000000000              -0.383522833              -0.140971207               0.000000000              -0.406818266              -0.150276966               0.000000000              -0.430113700              -0.159582724               0.000000000              -0.453409133              -0.168888483               0.000000000              -0.476704567              -0.178194241               0.000000000              -0.500000000              -0.187500000               0.000000000              -0.122875978              -0.050896897               0.000000000              -0.146446229              -0.063340840               0.000000000              -0.170016481              -0.075784784               0.000000000              -0.193586732              -0.088228728               0.000000000              -0.217156983              -0.100672672               0.000000000              -0.240727235              -0.113116616               0.000000000              -0.264297486              -0.125560560               0.000000000              -0.287867738              -0.138004504               0.000000000              -0.311437989              -0.150448448               0.000000000              -0.335008240              -0.162892392               0.000000000              -0.358578492              -0.175336336               0.000000000              -0.382148743              -0.187780280               0.000000000              -0.405718994              -0.200224224               0.000000000              -0.429289246              -0.212668168               0.000000000              -0.452859497              -0.225112112               0.000000000              -0.476429749              -0.237556056               0.000000000              -0.500000000              -0.250000000               0.000000000              -0.117295528              -0.062695766               0.000000000              -0.141214558              -0.078308531               0.000000000              -0.165133587              -0.093921295               0.000000000              -0.189052617              -0.109534060               0.000000000              -0.212971646              -0.125146824               0.000000000              -0.236890676              -0.140759589               0.000000000              -0.260809705              -0.156372354               0.000000000              -0.284728735              -0.171985118               0.000000000              -0.308647764              -0.187597883               0.000000000              -0.332566794              -0.203210648               0.000000000              -0.356485823              -0.218823412               0.000000000              -0.380404853              -0.234436177               0.000000000              -0.404323882              -0.250048941               0.000000000              -0.428242912              -0.265661706               0.000000000              -0.452161941              -0.281274471               0.000000000              -0.476080971              -0.296887235               0.000000000              -0.500000000              -0.312500000               0.000000000              -0.110585458              -0.073890841               0.000000000              -0.134923867              -0.092710163               0.000000000              -0.159262276              -0.111529486               0.000000000              -0.183600685              -0.130348808               0.000000000              -0.207939094              -0.149168131               0.000000000              -0.232277503              -0.167987453               0.000000000              -0.256615912              -0.186806776               0.000000000              -0.280954320              -0.205626098               0.000000000              -0.305292729              -0.224445420               0.000000000              -0.329631138              -0.243264743               0.000000000              -0.353969547              -0.262084065               0.000000000              -0.378307956              -0.280903388               0.000000000              -0.402646365              -0.299722710               0.000000000              -0.426984773              -0.318542033               0.000000000              -0.451323182              -0.337361355               0.000000000              -0.475661591              -0.356180678               0.000000000              -0.500000000              -0.375000000               0.000000000              -0.102810390              -0.084374307               0.000000000              -0.127634741              -0.106444663               0.000000000              -0.152459092              -0.128515018               0.000000000              -0.177283442              -0.150585374               0.000000000              -0.202107793              -0.172655730               0.000000000              -0.226932143              -0.194726086               0.000000000              -0.251756494              -0.216796442               0.000000000              -0.276580845              -0.238866798               0.000000000              -0.301405195              -0.260937153               0.000000000              -0.326229546              -0.283007509               0.000000000              -0.351053896              -0.305077865               0.000000000              -0.375878247              -0.327148221               0.000000000              -0.400702598              -0.349218577               0.000000000              -0.425526948              -0.371288933               0.000000000              -0.450351299              -0.393359288               0.000000000              -0.475175649              -0.415429644               0.000000000              -0.500000000              -0.437500000               0.000000000              -0.094045202              -0.094045202               0.000000000              -0.119417377              -0.119417377               0.000000000              -0.144789552              -0.144789552               0.000000000              -0.170161727              -0.170161727               0.000000000              -0.195533901              -0.195533901               0.000000000              -0.220906076              -0.220906076               0.000000000              -0.246278251              -0.246278251               0.000000000              -0.271650426              -0.271650426               0.000000000              -0.297022601              -0.297022601               0.000000000              -0.322394776              -0.322394776               0.000000000              -0.347766951              -0.347766951               0.000000000              -0.373139126              -0.373139126               0.000000000              -0.398511300              -0.398511300               0.000000000              -0.423883475              -0.423883475               0.000000000              -0.449255650              -0.449255650               0.000000000              -0.474627825              -0.474627825               0.000000000              -0.500000000              -0.500000000               0.000000000              -0.084374307              -0.102810390               0.000000000              -0.106444663              -0.127634741               0.000000000              -0.128515018              -0.152459092               0.000000000              -0.150585374              -0.177283442               0.000000000              -0.172655730              -0.202107793               0.000000000              -0.194726086              -0.226932143               0.000000000              -0.216796442              -0.251756494               0.000000000              -0.238866798              -0.276580845               0.000000000              -0.260937153              -0.301405195               0.000000000              -0.283007509              -0.326229546               0.000000000              -0.305077865              -0.351053896               0.000000000              -0.327148221              -0.375878247               0.000000000              -0.349218577              -0.400702598               0.000000000              -0.371288933              -0.425526948               0.000000000              -0.393359288              -0.450351299               0.000000000              -0.415429644              -0.475175649               0.000000000              -0.437500000              -0.500000000               0.000000000              -0.073890841              -0.110585458               0.000000000              -0.092710163              -0.134923867               0.000000000              -0.111529486              -0.159262276               0.000000000              -0.130348808              -0.183600685               0.000000000              -0.149168131              -0.207939094               0.000000000              -0.167987453              -0.232277503               0.000000000              -0.186806776              -0.256615912               0.000000000              -0.205626098              -0.280954320               0.000000000              -0.224445420              -0.305292729               0.000000000              -0.243264743              -0.329631138               0.000000000              -0.262084065              -0.353969547               0.000000000              -0.280903388              -0.378307956               0.000000000              -0.299722710              -0.402646365               0.000000000              -0.318542033              -0.426984773               0.000000000              -0.337361355              -0.451323182               0.000000000              -0.356180678              -0.475661591               0.000000000              -0.375000000              -0.500000000               0.000000000              -0.062695766              -0.117295528               0.000000000              -0.078308531              -0.141214558               0.000000000              -0.093921295              -0.165133587               0.000000000              -0.109534060              -0.189052617               0.000000000              -0.125146824              -0.212971646               0.000000000              -0.140759589              -0.236890676               0.000000000              -0.156372354              -0.260809705               0.000000000              -0.171985118              -0.284728735               0.000000000              -0.187597883              -0.308647764               0.000000000              -0.203210648              -0.332566794               0.000000000              -0.218823412              -0.356485823               0.000000000              -0.234436177              -0.380404853               0.000000000              -0.250048941              -0.404323882               0.000000000              -0.265661706              -0.428242912               0.000000000              -0.281274471              -0.452161941               0.000000000              -0.296887235              -0.476080971               0.000000000              -0.312500000              -0.500000000               0.000000000              -0.050896897              -0.122875978               0.000000000              -0.063340840              -0.146446229               0.000000000              -0.075784784              -0.170016481               0.000000000              -0.088228728              -0.193586732               0.000000000              -0.100672672              -0.217156983               0.000000000              -0.113116616              -0.240727235               0.000000000              -0.125560560              -0.264297486               0.000000000              -0.138004504              -0.287867738               0.000000000              -0.150448448              -0.311437989               0.000000000              -0.162892392              -0.335008240               0.000000000              -0.175336336              -0.358578492               0.000000000              -0.187780280              -0.382148743               0.000000000              -0.200224224              -0.405718994               0.000000000              -0.212668168              -0.429289246               0.000000000              -0.225112112              -0.452859497               0.000000000              -0.237556056              -0.476429749               0.000000000              -0.250000000              -0.500000000               0.000000000              -0.038607862              -0.127273065               0.000000000              -0.047913621              -0.150568498               0.000000000              -0.057219379              -0.173863932               0.000000000              -0.066525138              -0.197159365               0.000000000              -0.075830897              -0.220454798               0.000000000              -0.085136655              -0.243750232               0.000000000              -0.094442414              -0.267045665               0.000000000              -0.103748172              -0.290341099               0.000000000              -0.113053931              -0.313636532               0.000000000              -0.122359690              -0.336931966               0.000000000              -0.131665448              -0.360227399               0.000000000              -0.140971207              -0.383522833               0.000000000              -0.150276966              -0.406818266               0.000000000              -0.159582724              -0.430113700               0.000000000              -0.168888483              -0.453409133               0.000000000              -0.178194241              -0.476704567               0.000000000              -0.187500000              -0.500000000               0.000000000              -0.025947013              -0.130444442               0.000000000              -0.032137825              -0.153541665               0.000000000              -0.038328636              -0.176638887               0.000000000              -0.044519448              -0.199736109               0.000000000              -0.050710260              -0.222833332               0.000000000              -0.056901071              -0.245930554               0.000000000              -0.063091883              -0.269027776               0.000000000              -0.069282695              -0.292124999               0.000000000              -0.075473506              -0.315222221               0.000000000              -0.081664318              -0.338319444               0.000000000              -0.087855130              -0.361416666               0.000000000              -0.094045942              -0.384513888               0.000000000              -0.100236753              -0.407611111               0.000000000              -0.106427565              -0.430708333               0.000000000              -0.112618377              -0.453805555               0.000000000              -0.118809188              -0.476902778               0.000000000              -0.125000000              -0.500000000               0.000000000              -0.013036280              -0.132359569               0.000000000              -0.016127762              -0.155337096               0.000000000              -0.019219245              -0.178314623               0.000000000              -0.022310727              -0.201292150               0.000000000              -0.025402210              -0.224269676               0.000000000              -0.028493692              -0.247247203               0.000000000              -0.031585175              -0.270224730               0.000000000              -0.034676657              -0.293202257               0.000000000              -0.037768140              -0.316179784               0.000000000              -0.040859622              -0.339157311               0.000000000              -0.043951105              -0.362134838               0.000000000              -0.047042587              -0.385112365               0.000000000              -0.050134070              -0.408089892               0.000000000              -0.053225552              -0.431067419               0.000000000              -0.056317035              -0.454044946               0.000000000              -0.059408517              -0.477022473               0.000000000              -0.062500000              -0.500000000               0.000000000               0.000000000              -0.133000000               0.000000000               0.000000000              -0.155937500               0.000000000               0.000000000              -0.178875000               0.000000000               0.000000000              -0.201812500               0.000000000               0.000000000              -0.224750000               0.000000000               0.000000000              -0.247687500               0.000000000               0.000000000              -0.270625000               0.000000000               0.000000000              -0.293562500               0.000000000               0.000000000              -0.316500000               0.000000000               0.000000000              -0.339437500               0.000000000               0.000000000              -0.362375000               0.000000000               0.000000000              -0.385312500               0.000000000               0.000000000              -0.408250000               0.000000000               0.000000000              -0.431187500               0.000000000               0.000000000              -0.454125000               0.000000000               0.000000000              -0.477062500               0.000000000               0.000000000              -0.500000000               0.000000000              -0.133000000               0.000000000               0.000000000              -0.155937500               0.000000000               0.000000000              -0.178875000               0.000000000               0.000000000              -0.201812500               0.000000000               0.000000000              -0.224750000               0.000000000               0.000000000              -0.247687500               0.000000000               0.000000000              -0.270625000               0.000000000               0.000000000              -0.293562500               0.000000000               0.000000000              -0.316500000               0.000000000               0.000000000              -0.339437500               0.000000000               0.000000000              -0.362375000               0.000000000               0.000000000              -0.385312500               0.000000000               0.000000000              -0.408250000               0.000000000               0.000000000              -0.431187500               0.000000000               0.000000000              -0.454125000               0.000000000               0.000000000              -0.477062500               0.000000000               0.000000000              -0.500000000               0.000000000               0.000000000              -0.132359569               0.013036280               0.000000000              -0.155337096               0.016127762               0.000000000              -0.178314623               0.019219245               0.000000000              -0.201292150               0.022310727               0.000000000              -0.224269676               0.025402210               0.000000000              -0.247247203               0.028493692               0.000000000              -0.270224730               0.031585175               0.000000000              -0.293202257               0.034676657               0.000000000              -0.316179784               0.037768140               0.000000000              -0.339157311               0.040859622               0.000000000              -0.362134838               0.043951105               0.000000000              -0.385112365               0.047042587               0.000000000              -0.408089892               0.050134070               0.000000000              -0.431067419               0.053225552               0.000000000              -0.454044946               0.056317035               0.000000000              -0.477022473               0.059408517               0.000000000              -0.500000000               0.062500000               0.000000000              -0.130444442               0.025947013               0.000000000              -0.153541665               0.032137825               0.000000000              -0.176638887               0.038328636               0.000000000              -0.199736109               0.044519448               0.000000000              -0.222833332               0.050710260               0.000000000              -0.245930554               0.056901071               0.000000000              -0.269027776               0.063091883               0.000000000              -0.292124999               0.069282695               0.000000000              -0.315222221               0.075473506               0.000000000              -0.338319444               0.081664318               0.000000000              -0.361416666               0.087855130               0.000000000              -0.384513888               0.094045942               0.000000000              -0.407611111               0.100236753               0.000000000              -0.430708333               0.106427565               0.000000000              -0.453805555               0.112618377               0.000000000              -0.476902778               0.118809188               0.000000000              -0.500000000               0.125000000               0.000000000              -0.127273065               0.038607862               0.000000000              -0.150568498               0.047913621               0.000000000              -0.173863932               0.057219379               0.000000000              -0.197159365               0.066525138               0.000000000              -0.220454798               0.075830897               0.000000000              -0.243750232               0.085136655               0.000000000              -0.267045665               0.094442414               0.000000000              -0.290341099               0.103748172               0.000000000              -0.313636532               0.113053931               0.000000000              -0.336931966               0.122359690               0.000000000              -0.360227399               0.131665448               0.000000000              -0.383522833               0.140971207               0.000000000              -0.406818266               0.150276966               0.000000000              -0.430113700               0.159582724               0.000000000              -0.453409133               0.168888483               0.000000000              -0.476704567               0.178194241               0.000000000              -0.500000000               0.187500000               0.000000000              -0.122875978               0.050896897               0.000000000              -0.146446229               0.063340840               0.000000000              -0.170016481               0.075784784               0.000000000              -0.193586732               0.088228728               0.000000000              -0.217156983               0.100672672               0.000000000              -0.240727235               0.113116616               0.000000000              -0.264297486               0.125560560               0.000000000              -0.287867738               0.138004504               0.000000000              -0.311437989               0.150448448               0.000000000              -0.335008240               0.162892392               0.000000000              -0.358578492               0.175336336               0.000000000              -0.382148743               0.187780280               0.000000000              -0.405718994               0.200224224               0.000000000              -0.429289246               0.212668168               0.000000000              -0.452859497               0.225112112               0.000000000              -0.476429749               0.237556056               0.000000000              -0.500000000               0.250000000               0.000000000              -0.117295528               0.062695766               0.000000000              -0.141214558               0.078308531               0.000000000              -0.165133587               0.093921295               0.000000000              -0.189052617               0.109534060               0.000000000              -0.212971646               0.125146824               0.000000000              -0.236890676               0.140759589               0.000000000              -0.260809705               0.156372354               0.000000000              -0.284728735               0.171985118               0.000000000              -0.308647764               0.187597883               0.000000000              -0.332566794               0.203210648               0.000000000              -0.356485823               0.218823412               0.000000000              -0.380404853               0.234436177               0.000000000              -0.404323882               0.250048941               0.000000000              -0.428242912               0.265661706               0.000000000              -0.452161941               0.281274471               0.000000000              -0.476080971               0.296887235               0.000000000              -0.500000000               0.312500000               0.000000000              -0.110585458               0.073890841               0.000000000              -0.134923867               0.092710163               0.000000000              -0.159262276               0.111529486               0.000000000              -0.183600685               0.130348808               0.000000000              -0.207939094               0.149168131               0.000000000              -0.232277503               0.167987453               0.000000000              -0.256615912               0.186806776               0.000000000              -0.280954320               0.205626098               0.000000000              -0.305292729               0.224445420               0.000000000              -0.329631138               0.243264743               0.000000000              -0.353969547               0.262084065               0.000000000              -0.378307956               0.280903388               0.000000000              -0.402646365               0.299722710               0.000000000              -0.426984773               0.318542033               0.000000000              -0.451323182               0.337361355               0.000000000              -0.475661591               0.356180678               0.000000000              -0.500000000               0.375000000               0.000000000              -0.102810390               0.084374307               0.000000000              -0.127634741               0.106444663               0.000000000              -0.152459092               0.128515018               0.000000000              -0.177283442               0.150585374               0.000000000              -0.202107793               0.172655730               0.000000000              -0.226932143               0.194726086               0.000000000              -0.251756494               0.216796442               0.000000000              -0.276580845               0.238866798               0.000000000              -0.301405195               0.260937153               0.000000000              -0.326229546               0.283007509               0.000000000              -0.351053896               0.305077865               0.000000000              -0.375878247               0.327148221               0.000000000              -0.400702598               0.349218577               0.000000000              -0.425526948               0.371288933               0.000000000              -0.450351299               0.393359288               0.000000000              -0.475175649               0.415429644               0.000000000              -0.500000000               0.437500000               0.000000000              -0.094045202               0.094045202               0.000000000              -0.119417377               0.119417377               0.000000000              -0.144789552               0.144789552               0.000000000              -0.170161727               0.170161727               0.000000000              -0.195533901               0.195533901               0.000000000              -0.220906076               0.220906076               0.000000000              -0.246278251               0.246278251               0.000000000              -0.271650426               0.271650426               0.000000000              -0.297022601               0.297022601               0.000000000              -0.322394776               0.322394776               0.000000000              -0.347766951               0.347766951               0.000000000              -0.373139126               0.373139126               0.000000000              -0.398511300               0.398511300               0.000000000              -0.423883475               0.423883475               0.000000000              -0.449255650               0.449255650               0.000000000              -0.474627825               0.474627825               0.000000000              -0.500000000               0.500000000               0.000000000              -0.084374307               0.102810390               0.000000000              -0.106444663               0.127634741               0.000000000              -0.128515018               0.152459092               0.000000000              -0.150585374               0.177283442               0.000000000              -0.172655730               0.202107793               0.000000000              -0.194726086               0.226932143               0.000000000              -0.216796442               0.251756494               0.000000000              -0.238866798               0.276580845               0.000000000              -0.260937153               0.301405195               0.000000000              -0.283007509               0.326229546               0.000000000              -0.305077865               0.351053896               0.000000000              -0.327148221               0.375878247               0.000000000              -0.349218577               0.400702598               0.000000000              -0.371288933               0.425526948               0.000000000              -0.393359288               0.450351299               0.000000000              -0.415429644               0.475175649               0.000000000              -0.437500000               0.500000000               0.000000000              -0.073890841               0.110585458               0.000000000              -0.092710163               0.134923867               0.000000000              -0.111529486               0.159262276               0.000000000              -0.130348808               0.183600685               0.000000000              -0.149168131               0.207939094               0.000000000              -0.167987453               0.232277503               0.000000000              -0.186806776               0.256615912               0.000000000              -0.205626098               0.280954320               0.000000000              -0.224445420               0.305292729               0.000000000              -0.243264743               0.329631138               0.000000000              -0.262084065               0.353969547               0.000000000              -0.280903388               0.378307956               0.000000000              -0.299722710               0.402646365               0.000000000              -0.318542033               0.426984773               0.000000000              -0.337361355               0.451323182               0.000000000              -0.356180678               0.475661591               0.000000000              -0.375000000               0.500000000               0.000000000              -0.062695766               0.117295528               0.000000000              -0.078308531               0.141214558               0.000000000              -0.093921295               0.165133587               0.000000000              -0.109534060               0.189052617               0.000000000              -0.125146824               0.212971646               0.000000000              -0.140759589               0.236890676               0.000000000              -0.156372354               0.260809705               0.000000000              -0.171985118               0.284728735               0.000000000              -0.187597883               0.308647764               0.000000000              -0.203210648               0.332566794               0.000000000              -0.218823412               0.356485823               0.000000000              -0.234436177               0.380404853               0.000000000              -0.250048941               0.404323882               0.000000000              -0.265661706               0.428242912               0.000000000              -0.281274471               0.452161941               0.000000000              -0.296887235               0.476080971               0.000000000              -0.312500000               0.500000000               0.000000000              -0.050896897               0.122875978               0.000000000              -0.063340840               0.146446229               0.000000000              -0.075784784               0.170016481               0.000000000              -0.088228728               0.193586732               0.000000000              -0.100672672               0.217156983               0.000000000              -0.113116616               0.240727235               0.000000000              -0.125560560               0.264297486               0.000000000              -0.138004504               0.287867738               0.000000000              -0.150448448               0.311437989               0.000000000              -0.162892392               0.335008240               0.000000000              -0.175336336               0.358578492               0.000000000              -0.187780280               0.382148743               0.000000000              -0.200224224               0.405718994               0.000000000              -0.212668168               0.429289246               0.000000000              -0.225112112               0.452859497               0.000000000              -0.237556056               0.476429749               0.000000000              -0.250000000               0.500000000               0.000000000              -0.038607862               0.127273065               0.000000000              -0.047913621               0.150568498               0.000000000              -0.057219379               0.173863932               0.000000000              -0.066525138               0.197159365               0.000000000              -0.075830897               0.220454798               0.000000000              -0.085136655               0.243750232               0.000000000              -0.094442414               0.267045665               0.000000000              -0.103748172               0.290341099               0.000000000              -0.113053931               0.313636532               0.000000000              -0.122359690               0.336931966               0.000000000              -0.131665448               0.360227399               0.000000000              -0.140971207               0.383522833               0.000000000              -0.150276966               0.406818266               0.000000000              -0.159582724               0.430113700               0.000000000              -0.168888483               0.453409133               0.000000000              -0.178194241               0.476704567               0.000000000              -0.187500000               0.500000000               0.000000000              -0.025947013               0.130444442               0.000000000              -0.032137825               0.153541665               0.000000000              -0.038328636               0.176638887               0.000000000              -0.044519448               0.199736109               0.000000000              -0.050710260               0.222833332               0.000000000              -0.056901071               0.245930554               0.000000000              -0.063091883               0.269027776               0.000000000              -0.069282695               0.292124999               0.000000000              -0.075473506               0.315222221               0.000000000              -0.081664318               0.338319444               0.000000000              -0.087855130               0.361416666               0.000000000              -0.094045942               0.384513888               0.000000000              -0.100236753               0.407611111               0.000000000              -0.106427565               0.430708333               0.000000000              -0.112618377               0.453805555               0.000000000              -0.118809188               0.476902778               0.000000000              -0.125000000               0.500000000               0.000000000              -0.013036280               0.132359569               0.000000000              -0.016127762               0.155337096               0.000000000              -0.019219245               0.178314623               0.000000000              -0.022310727               0.201292150               0.000000000              -0.025402210               0.224269676               0.000000000              -0.028493692               0.247247203               0.000000000              -0.031585175               0.270224730               0.000000000              -0.034676657               0.293202257               0.000000000              -0.037768140               0.316179784               0.000000000              -0.040859622               0.339157311               0.000000000              -0.043951105               0.362134838               0.000000000              -0.047042587               0.385112365               0.000000000              -0.050134070               0.408089892               0.000000000              -0.053225552               0.431067419               0.000000000              -0.056317035               0.454044946               0.000000000              -0.059408517               0.477022473               0.000000000              -0.062500000               0.500000000               0.000000000               0.000000000               0.133000000               0.000000000               0.000000000               0.155937500               0.000000000               0.000000000               0.178875000               0.000000000               0.000000000               0.201812500               0.000000000               0.000000000               0.224750000               0.000000000               0.000000000               0.247687500               0.000000000               0.000000000               0.270625000               0.000000000               0.000000000               0.293562500               0.000000000               0.000000000               0.316500000               0.000000000               0.000000000               0.339437500               0.000000000               0.000000000               0.362375000               0.000000000               0.000000000               0.385312500               0.000000000               0.000000000               0.408250000               0.000000000               0.000000000               0.431187500               0.000000000               0.000000000               0.454125000               0.000000000               0.000000000               0.477062500               0.000000000               0.000000000               0.500000000               0.000000000 </DataArray>
</Points>
<Cells>
<DataArray type="Int32"                                    Name="connectivity"                                                      NumberOfComponents=" 1" format="ascii">
         0          1         18         17          1          2         19         18          2          3         20         19          3          4         21         20          4          5         22         21          5          6         23         22          6          7         24         23          7          8         25         24          8          9         26         25          9         10         27         26         10         11         28         27         11         12         29         28         12         13         30         29         13         14         31         30         14         15         32         31         15         16         33         32         17         18         35         34         18         19         36         35         19         20         37         36         20         21         38         37         21         22         39         38         22         23         40         39         23         24         41         40         24         25         42         41         25         26         43         42         26         27         44         43         27         28         45         44         28         29         46         45         29         30         47         46         30         31         48         47         31         32         49         48         32         33         50         49         34         35         52         51         35         36         53         52         36         37         54         53         37         38         55         54         38         39         56         55         39         40         57         56         40         41         58         57         41         42         59         58         42         43         60         59         43         44         61         60         44         45         62         61         45         46         63         62         46         47         64         63         47         48         65         64         48         49         66         65         49         50         67         66         51         52         69         68         52         53         70         69         53         54         71         70         54         55         72         71         55         56         73         72         56         57         74         73         57         58         75         74         58         59         76         75         59         60         77         76         60         61         78         77         61         62         79         78         62         63         80         79         63         64         81         80         64         65         82         81         65         66         83         82         66         67         84         83         68         69         86         85         69         70         87         86         70         71         88         87         71         72         89         88         72         73         90         89         73         74         91         90         74         75         92         91         75         76         93         92         76         77         94         93         77         78         95         94         78         79         96         95         79         80         97         96         80         81         98         97         81         82         99         98         82         83        100         99         83         84        101        100         85         86        103        102         86         87        104        103         87         88        105        104         88         89        106        105         89         90        107        106         90         91        108        107         91         92        109        108         92         93        110        109         93         94        111        110         94         95        112        111         95         96        113        112         96         97        114        113         97         98        115        114         98         99        116        115         99        100        117        116        100        101        118        117        102        103        120        119        103        104        121        120        104        105        122        121        105        106        123        122        106        107        124        123        107        108        125        124        108        109        126        125        109        110        127        126        110        111        128        127        111        112        129        128        112        113        130        129        113        114        131        130        114        115        132        131        115        116        133        132        116        117        134        133        117        118        135        134        119        120        137        136        120        121        138        137        121        122        139        138        122        123        140        139        123        124        141        140        124        125        142        141        125        126        143        142        126        127        144        143        127        128        145        144        128        129        146        145        129        130        147        146        130        131        148        147        131        132        149        148        132        133        150        149        133        134        151        150        134        135        152        151        136        137        154        153        137        138        155        154        138        139        156        155        139        140        157        156        140        141        158        157        141        142        159        158        142        143        160        159        143        144        161        160        144        145        162        161        145        146        163        162        146        147        164        163        147        148        165        164        148        149        166        165        149        150        167        166        150        151        168        167        151        152        169        168        153        154        171        170        154        155        172        171        155        156        173        172        156        157        174        173        157        158        175        174        158        159        176        175        159        160        177        176        160        161        178        177        161        162        179        178        162        163        180        179        163        164        181        180        164        165        182        181        165        166        183        182        166        167        184        183        167        168        185        184        168        169        186        185        170        171        188        187        171        172        189        188        172        173        190        189        173        174        191        190        174        175        192        191        175        176        193        192        176        177        194        193        177        178        195        194        178        179        196        195        179        180        197        196        180        181        198        197        181        182        199        198        182        183        200        199        183        184        201        200        184        185        202        201        185        186        203        202        187        188        205        204        188        189        206        205        189        190        207        206        190        191        208        207        191        192        209        208        192        193        210        209        193        194        211        210        194        195        212        211        195        196        213        212        196        197        214        213        197        198        215        214        198        199        216        215        199        200        217        216        200        201        218        217        201        202        219        218        202        203        220        219        204        205        222        221        205        206        223        222        206        207        224        223        207        208        225        224        208        209        226        225        209        210        227        226        210        211        228        227        211        212        229        228        212        213        230        229        213        214        231        230        214        215        232        231        215        216        233        232        216        217        234        233        217        218        235        234        218        219        236        235        219        220        237        236        221        222        239        238        222        223        240        239        223        224        241        240        224        225        242        241        225        226        243        242        226        227        244        243        227        228        245        244        228        229        246        245        229        230        247        246        230        231        248        247        231        232        249        248        232        233        250        249        233        234        251        250        234        235        252        251        235        236        253        252        236        237        254        253        238        239        256        255        239        240        257        256        240        241        258        257        241        242        259        258        242        243        260        259        243        244        261        260        244        245        262        261        245        246        263        262        246        247        264        263        247        248        265        264        248        249        266        265        249        250        267        266        250        251        268        267        251        252        269        268        252        253        270        269        253        254        271        270        255        256        273        272        256        257        274        273        257        258        275        274        258        259        276        275        259        260        277        276        260        261        278        277        261        262        279        278        262        263        280        279        263        264        281        280        264        265        282        281        265        266        283        282        266        267        284        283        267        268        285        284        268        269        286        285        269        270        287        286        270        271        288        287        306        307          1          0        307        308          2          1        308        309          3          2        309        310          4          3        310        311          5          4        311        312          6          5        312        313          7          6        313        314          8          7        314        315          9          8        315        316         10          9        316        317         11         10        317        318         12         11        318        319         13         12        319        320         14         13        320        321         15         14        321        322         16         15        323        324        307        306        324        325        308        307        325        326        309        308        326        327        310        309        327        328        311        310        328        329        312        311        329        330        313        312        330        331        314        313        331        332        315        314        332        333        316        315        333        334        317        316        334        335        318        317        335        336        319        318        336        337        320        319        337        338        321        320        338        339        322        321        340        341        324        323        341        342        325        324        342        343        326        325        343        344        327        326        344        345        328        327        345        346        329        328        346        347        330        329        347        348        331        330        348        349        332        331        349        350        333        332        350        351        334        333        351        352        335        334        352        353        336        335        353        354        337        336        354        355        338        337        355        356        339        338        357        358        341        340        358        359        342        341        359        360        343        342        360        361        344        343        361        362        345        344        362        363        346        345        363        364        347        346        364        365        348        347        365        366        349        348        366        367        350        349        367        368        351        350        368        369        352        351        369        370        353        352        370        371        354        353        371        372        355        354        372        373        356        355        374        375        358        357        375        376        359        358        376        377        360        359        377        378        361        360        378        379        362        361        379        380        363        362        380        381        364        363        381        382        365        364        382        383        366        365        383        384        367        366        384        385        368        367        385        386        369        368        386        387        370        369        387        388        371        370        388        389        372        371        389        390        373        372        391        392        375        374        392        393        376        375        393        394        377        376        394        395        378        377        395        396        379        378        396        397        380        379        397        398        381        380        398        399        382        381        399        400        383        382        400        401        384        383        401        402        385        384        402        403        386        385        403        404        387        386        404        405        388        387        405        406        389        388        406        407        390        389        408        409        392        391        409        410        393        392        410        411        394        393        411        412        395        394        412        413        396        395        413        414        397        396        414        415        398        397        415        416        399        398        416        417        400        399        417        418        401        400        418        419        402        401        419        420        403        402        420        421        404        403        421        422        405        404        422        423        406        405        423        424        407        406        425        426        409        408        426        427        410        409        427        428        411        410        428        429        412        411        429        430        413        412        430        431        414        413        431        432        415        414        432        433        416        415        433        434        417        416        434        435        418        417        435        436        419        418        436        437        420        419        437        438        421        420        438        439        422        421        439        440        423        422        440        441        424        423        442        443        426        425        443        444        427        426        444        445        428        427        445        446        429        428        446        447        430        429        447        448        431        430        448        449        432        431        449        450        433        432        450        451        434        433        451        452        435        434        452        453        436        435        453        454        437        436        454        455        438        437        455        456        439        438        456        457        440        439        457        458        441        440        459        460        443        442        460        461        444        443        461        462        445        444        462        463        446        445        463        464        447        446        464        465        448        447        465        466        449        448        466        467        450        449        467        468        451        450        468        469        452        451        469        470        453        452        470        471        454        453        471        472        455        454        472        473        456        455        473        474        457        456        474        475        458        457        476        477        460        459        477        478        461        460        478        479        462        461        479        480        463        462        480        481        464        463        481        482        465        464        482        483        466        465        483        484        467        466        484        485        468        467        485        486        469        468        486        487        470        469        487        488        471        470        488        489        472        471        489        490        473        472        490        491        474        473        491        492        475        474        493        494        477        476        494        495        478        477        495        496        479        478        496        497        480        479        497        498        481        480        498        499        482        481        499        500        483        482        500        501        484        483        501        502        485        484        502        503        486        485        503        504        487        486        504        505        488        487        505        506        489        488        506        507        490        489        507        508        491        490        508        509        492        491        510        511        494        493        511        512        495        494        512        513        496        495        513        514        497        496        514        515        498        497        515        516        499        498        516        517        500        499        517        518        501        500        518        519        502        501        519        520        503        502        520        521        504        503        521        522        505        504        522        523        506        505        523        524        507        506        524        525        508        507        525        526        509        508        527        528        511        510        528        529        512        511        529        530        513        512        530        531        514        513        531        532        515        514        532        533        516        515        533        534        517        516        534        535        518        517        535        536        519        518        536        537        520        519        537        538        521        520        538        539        522        521        539        540        523        522        540        541        524        523        541        542        525        524        542        543        526        525        544        545        528        527        545        546        529        528        546        547        530        529        547        548        531        530        548        549        532        531        549        550        533        532        550        551        534        533        551        552        535        534        552        553        536        535        553        554        537        536        554        555        538        537        555        556        539        538        556        557        540        539        557        558        541        540        558        559        542        541        559        560        543        542        561        562        545        544        562        563        546        545        563        564        547        546        564        565        548        547        565        566        549        548        566        567        550        549        567        568        551        550        568        569        552        551        569        570        553        552        570        571        554        553        571        572        555        554        572        573        556        555        573        574        557        556        574        575        558        557        575        576        559        558        576        577        560        559        578        579        596        595        579        580        597        596        580        581        598        597        581        582        599        598        582        583        600        599        583        584        601        600        584        585        602        601        585        586        603        602        586        587        604        603        587        588        605        604        588        589        606        605        589        590        607        606        590        591        608        607        591        592        609        608        592        593        610        609        593        594        611        610        595        596        613        612        596        597        614        613        597        598        615        614        598        599        616        615        599        600        617        616        600        601        618        617        601        602        619        618        602        603        620        619        603        604        621        620        604        605        622        621        605        606        623        622        606        607        624        623        607        608        625        624        608        609        626        625        609        610        627        626        610        611        628        627        612        613        630        629        613        614        631        630        614        615        632        631        615        616        633        632        616        617        634        633        617        618        635        634        618        619        636        635        619        620        637        636        620        621        638        637        621        622        639        638        622        623        640        639        623        624        641        640        624        625        642        641        625        626        643        642        626        627        644        643        627        628        645        644        629        630        647        646        630        631        648        647        631        632        649        648        632        633        650        649        633        634        651        650        634        635        652        651        635        636        653        652        636        637        654        653        637        638        655        654        638        639        656        655        639        640        657        656        640        641        658        657        641        642        659        658        642        643        660        659        643        644        661        660        644        645        662        661        646        647        664        663        647        648        665        664        648        649        666        665        649        650        667        666        650        651        668        667        651        652        669        668        652        653        670        669        653        654        671        670        654        655        672        671        655        656        673        672        656        657        674        673        657        658        675        674        658        659        676        675        659        660        677        676        660        661        678        677        661        662        679        678        663        664        681        680        664        665        682        681        665        666        683        682        666        667        684        683        667        668        685        684        668        669        686        685        669        670        687        686        670        671        688        687        671        672        689        688        672        673        690        689        673        674        691        690        674        675        692        691        675        676        693        692        676        677        694        693        677        678        695        694        678        679        696        695        680        681        698        697        681        682        699        698        682        683        700        699        683        684        701        700        684        685        702        701        685        686        703        702        686        687        704        703        687        688        705        704        688        689        706        705        689        690        707        706        690        691        708        707        691        692        709        708        692        693        710        709        693        694        711        710        694        695        712        711        695        696        713        712        697        698        715        714        698        699        716        715        699        700        717        716        700        701        718        717        701        702        719        718        702        703        720        719        703        704        721        720        704        705        722        721        705        706        723        722        706        707        724        723        707        708        725        724        708        709        726        725        709        710        727        726        710        711        728        727        711        712        729        728        712        713        730        729        714        715        732        731        715        716        733        732        716        717        734        733        717        718        735        734        718        719        736        735        719        720        737        736        720        721        738        737        721        722        739        738        722        723        740        739        723        724        741        740        724        725        742        741        725        726        743        742        726        727        744        743        727        728        745        744        728        729        746        745        729        730        747        746        731        732        749        748        732        733        750        749        733        734        751        750        734        735        752        751        735        736        753        752        736        737        754        753        737        738        755        754        738        739        756        755        739        740        757        756        740        741        758        757        741        742        759        758        742        743        760        759        743        744        761        760        744        745        762        761        745        746        763        762        746        747        764        763        748        749        766        765        749        750        767        766        750        751        768        767        751        752        769        768        752        753        770        769        753        754        771        770        754        755        772        771        755        756        773        772        756        757        774        773        757        758        775        774        758        759        776        775        759        760        777        776        760        761        778        777        761        762        779        778        762        763        780        779        763        764        781        780        765        766        783        782        766        767        784        783        767        768        785        784        768        769        786        785        769        770        787        786        770        771        788        787        771        772        789        788        772        773        790        789        773        774        791        790        774        775        792        791        775        776        793        792        776        777        794        793        777        778        795        794        778        779        796        795        779        780        797        796        780        781        798        797        782        783        800        799        783        784        801        800        784        785        802        801        785        786        803        802        786        787        804        803        787        788        805        804        788        789        806        805        789        790        807        806        790        791        808        807        791        792        809        808        792        793        810        809        793        794        811        810        794        795        812        811        795        796        813        812        796        797        814        813        797        798        815        814        799        800        817        816        800        801        818        817        801        802        819        818        802        803        820        819        803        804        821        820        804        805        822        821        805        806        823        822        806        807        824        823        807        808        825        824        808        809        826        825        809        810        827        826        810        811        828        827        811        812        829        828        812        813        830        829        813        814        831        830        814        815        832        831        816        817        834        833        817        818        835        834        818        819        836        835        819        820        837        836        820        821        838        837        821        822        839        838        822        823        840        839        823        824        841        840        824        825        842        841        825        826        843        842        826        827        844        843        827        828        845        844        828        829        846        845        829        830        847        846        830        831        848        847        831        832        849        848        833        834        562        561        834        835        563        562        835        836        564        563        836        837        565        564        837        838        566        565        838        839        567        566        839        840        568        567        840        841        569        568        841        842        570        569        842        843        571        570        843        844        572        571        844        845        573        572        845        846        574        573        846        847        575        574        847        848        576        575        848        849        577        576        884        885        579        578        885        886        580        579        886        887        581        580        887        888        582        581        888        889        583        582        889        890        584        583        890        891        585        584        891        892        586        585        892        893        587        586        893        894        588        587        894        895        589        588        895        896        590        589        896        897        591        590        897        898        592        591        898        899        593        592        899        900        594        593        901        902        885        884        902        903        886        885        903        904        887        886        904        905        888        887        905        906        889        888        906        907        890        889        907        908        891        890        908        909        892        891        909        910        893        892        910        911        894        893        911        912        895        894        912        913        896        895        913        914        897        896        914        915        898        897        915        916        899        898        916        917        900        899        918        919        902        901        919        920        903        902        920        921        904        903        921        922        905        904        922        923        906        905        923        924        907        906        924        925        908        907        925        926        909        908        926        927        910        909        927        928        911        910        928        929        912        911        929        930        913        912        930        931        914        913        931        932        915        914        932        933        916        915        933        934        917        916        935        936        919        918        936        937        920        919        937        938        921        920        938        939        922        921        939        940        923        922        940        941        924        923        941        942        925        924        942        943        926        925        943        944        927        926        944        945        928        927        945        946        929        928        946        947        930        929        947        948        931        930        948        949        932        931        949        950        933        932        950        951        934        933        952        953        936        935        953        954        937        936        954        955        938        937        955        956        939        938        956        957        940        939        957        958        941        940        958        959        942        941        959        960        943        942        960        961        944        943        961        962        945        944        962        963        946        945        963        964        947        946        964        965        948        947        965        966        949        948        966        967        950        949        967        968        951        950        969        970        953        952        970        971        954        953        971        972        955        954        972        973        956        955        973        974        957        956        974        975        958        957        975        976        959        958        976        977        960        959        977        978        961        960        978        979        962        961        979        980        963        962        980        981        964        963        981        982        965        964        982        983        966        965        983        984        967        966        984        985        968        967        986        987        970        969        987        988        971        970        988        989        972        971        989        990        973        972        990        991        974        973        991        992        975        974        992        993        976        975        993        994        977        976        994        995        978        977        995        996        979        978        996        997        980        979        997        998        981        980        998        999        982        981        999       1000        983        982       1000       1001        984        983       1001       1002        985        984       1003       1004        987        986       1004       1005        988        987       1005       1006        989        988       1006       1007        990        989       1007       1008        991        990       1008       1009        992        991       1009       1010        993        992       1010       1011        994        993       1011       1012        995        994       1012       1013        996        995       1013       1014        997        996       1014       1015        998        997       1015       1016        999        998       1016       1017       1000        999       1017       1018       1001       1000       1018       1019       1002       1001       1020       1021       1004       1003       1021       1022       1005       1004       1022       1023       1006       1005       1023       1024       1007       1006       1024       1025       1008       1007       1025       1026       1009       1008       1026       1027       1010       1009       1027       1028       1011       1010       1028       1029       1012       1011       1029       1030       1013       1012       1030       1031       1014       1013       1031       1032       1015       1014       1032       1033       1016       1015       1033       1034       1017       1016       1034       1035       1018       1017       1035       1036       1019       1018       1037       1038       1021       1020       1038       1039       1022       1021       1039       1040       1023       1022       1040       1041       1024       1023       1041       1042       1025       1024       1042       1043       1026       1025       1043       1044       1027       1026       1044       1045       1028       1027       1045       1046       1029       1028       1046       1047       1030       1029       1047       1048       1031       1030       1048       1049       1032       1031       1049       1050       1033       1032       1050       1051       1034       1033       1051       1052       1035       1034       1052       1053       1036       1035       1054       1055       1038       1037       1055       1056       1039       1038       1056       1057       1040       1039       1057       1058       1041       1040       1058       1059       1042       1041       1059       1060       1043       1042       1060       1061       1044       1043       1061       1062       1045       1044       1062       1063       1046       1045       1063       1064       1047       1046       1064       1065       1048       1047       1065       1066       1049       1048       1066       1067       1050       1049       1067       1068       1051       1050       1068       1069       1052       1051       1069       1070       1053       1052       1071       1072       1055       1054       1072       1073       1056       1055       1073       1074       1057       1056       1074       1075       1058       1057       1075       1076       1059       1058       1076       1077       1060       1059       1077       1078       1061       1060       1078       1079       1062       1061       1079       1080       1063       1062       1080       1081       1064       1063       1081       1082       1065       1064       1082       1083       1066       1065       1083       1084       1067       1066       1084       1085       1068       1067       1085       1086       1069       1068       1086       1087       1070       1069       1088       1089       1072       1071       1089       1090       1073       1072       1090       1091       1074       1073       1091       1092       1075       1074       1092       1093       1076       1075       1093       1094       1077       1076       1094       1095       1078       1077       1095       1096       1079       1078       1096       1097       1080       1079       1097       1098       1081       1080       1098       1099       1082       1081       1099       1100       1083       1082       1100       1101       1084       1083       1101       1102       1085       1084       1102       1103       1086       1085       1103       1104       1087       1086       1105       1106       1089       1088       1106       1107       1090       1089       1107       1108       1091       1090       1108       1109       1092       1091       1109       1110       1093       1092       1110       1111       1094       1093       1111       1112       1095       1094       1112       1113       1096       1095       1113       1114       1097       1096       1114       1115       1098       1097       1115       1116       1099       1098       1116       1117       1100       1099       1117       1118       1101       1100       1118       1119       1102       1101       1119       1120       1103       1102       1120       1121       1104       1103       1122       1123       1106       1105       1123       1124       1107       1106       1124       1125       1108       1107       1125       1126       1109       1108       1126       1127       1110       1109       1127       1128       1111       1110       1128       1129       1112       1111       1129       1130       1113       1112       1130       1131       1114       1113       1131       1132       1115       1114       1132       1133       1116       1115       1133       1134       1117       1116       1134       1135       1118       1117       1135       1136       1119       1118       1136       1137       1120       1119       1137       1138       1121       1120        272        273       1123       1122        273        274       1124       1123        274        275       1125       1124        275        276       1126       1125        276        277       1127       1126        277        278       1128       1127        278        279       1129       1128        279        280       1130       1129        280        281       1131       1130        281        282       1132       1131        282        283       1133       1132        283        284       1134       1133        284        285       1135       1134        285        286       1136       1135        286        287       1137       1136        287        288       1138       1137 </DataArray>
<DataArray type="Int32"                                    Name="offsets"                                                      NumberOfComponents=" 1" format="ascii">
         4          8         12         16         20         24         28         32         36         40         44         48         52         56         60         64         68         72         76         80         84         88         92         96        100        104        108        112        116        120        124        128        132        136        140        144        148        152        156        160        164        168        172        176        180        184        188        192        196        200        204        208        212        216        220        224        228        232        236        240        244        248        252        256        260        264        268        272        276        280        284        288        292        296        300        304        308        312        316        320        324        328        332        336        340        344        348        352        356        360        364        368        372        376        380        384        388        392        396        400        404        408        412        416        420        424        428        432        436        440        444        448        452        456        460        464        468        472        476        480        484        488        492        496        500        504        508        512        516        520        524        528        532        536        540        544        548        552        556        560        564        568        572        576        580        584        588        592        596        600        604        608        612        616        620        624        628        632        636        640        644        648        652        656        660        664        668        672        676        680        684        688        692        696        700        704        708        712        716        720        724        728        732        736        740        744        748        752        756        760        764        768        772        776        780        784        788        792        796        800        804        808        812        816        820        824        828        832        836        840        844        848        852        856        860        864        868        872        876        880        884        888        892        896        900        904        908        912        916        920        924        928        932        936        940        944        948        952        956        960        964        968        972        976        980        984        988        992        996       1000       1004       1008       1012       1016       1020       1024       1028       1032       1036       1040       1044       1048       1052       1056       1060       1064       1068       1072       1076       1080       1084       1088       1092       1096       1100       1104       1108       1112       1116       1120       1124       1128       1132       1136       1140       1144       1148       1152       1156       1160       1164       1168       1172       1176       1180       1184       1188       1192       1196       1200       1204       1208       1212       1216       1220       1224       1228       1232       1236       1240       1244       1248       1252       1256       1260       1264       1268       1272       1276       1280       1284       1288       1292       1296       1300       1304       1308       1312       1316       1320       1324       1328       1332       1336       1340       1344       1348       1352       1356       1360       1364       1368       1372       1376       1380       1384       1388       1392       1396       1400       1404       1408       1412       1416       1420       1424       1428       1432       1436       1440       1444       1448       1452       1456       1460       1464       1468       1472       1476       1480       1484       1488       1492       1496       1500       1504       1508       1512       1516       1520       1524       1528       1532       1536       1540       1544       1548       1552       1556       1560       1564       1568       1572       1576       1580       1584       1588       1592       1596       1600       1604       1608       1612       1616       1620       1624       1628       1632       1636       1640       1644       1648       1652       1656       1660       1664       1668       1672       1676       1680       1684       1688       1692       1696       1700       1704       1708       1712       1716       1720       1724       1728       1732       1736       1740       1744       1748       1752       1756       1760       1764       1768       1772       1776       1780       1784       1788       1792       1796       1800       1804       1808       1812       1816       1820       1824       1828       1832       1836       1840       1844       1848       1852       1856       1860       1864       1868       1872       1876       1880       1884       1888       1892       1896       1900       1904       1908       1912       1916       1920       1924       1928       1932       1936       1940       1944       1948       1952       1956       1960       1964       1968       1972       1976       1980       1984       1988       1992       1996       2000       2004       2008       2012       2016       2020       2024       2028       2032       2036       2040       2044       2048       2052       2056       2060       2064       2068       2072       2076       2080       2084       2088       2092       2096       2100       2104       2108       2112       2116       2120       2124       2128       2132       2136       2140       2144       2148       2152       2156       2160       2164       2168       2172       2176       2180       2184       2188       2192       2196       2200       2204       2208       2212       2216       2220       2224       2228       2232       2236       2240       2244       2248       2252       2256       2260       2264       2268       2272       2276       2280       2284       2288       2292       2296       2300       2304       2308       2312       2316       2320       2324       2328       2332       2336       2340       2344       2348       2352       2356       2360       2364       2368       2372       2376       2380       2384       2388       2392       2396       2400       2404       2408       2412       2416       2420       2424       2428       2432       2436       2440       2444       2448       2452       2456       2460       2464       2468       2472       2476       2480       2484       2488       2492       2496       2500       2504       2508       2512       2516       2520       2524       2528       2532       2536       2540       2544       2548       2552       2556       2560       2564       2568       2572       2576       2580       2584       2588       2592       2596       2600       2604       2608       2612       2616       2620       2624       2628       2632       2636       2640       2644       2648       2652       2656       2660       2664       2668       2672       2676       2680       2684       2688       2692       2696       2700       2704       2708       2712       2716       2720       2724       2728       2732       2736       2740       2744       2748       2752       2756       2760       2764       2768       2772       2776       2780       2784       2788       2792       2796       2800       2804       2808       2812       2816       2820       2824       2828       2832       2836       2840       2844       2848       2852       2856       2860       2864       2868       2872       2876       2880       2884       2888       2892       2896       2900       2904       2908       2912       2916       2920       2924       2928       2932       2936       2940       2944       2948       2952       2956       2960       2964       2968       2972       2976       2980       2984       2988       2992       2996       3000       3004       3008       3012       3016       3020       3024       3028       3032       3036       3040       3044       3048       3052       3056       3060       3064       3068       3072       3076       3080       3084       3088       3092       3096       3100       3104       3108       3112       3116       3120       3124       3128       3132       3136       3140       3144       3148       3152       3156       3160       3164       3168       3172       3176       3180       3184       3188       3192       3196       3200       3204       3208       3212       3216       3220       3224       3228       3232       3236       3240       3244       3248       3252       3256       3260       3264       3268       3272       3276       3280       3284       3288       3292       3296       3300       3304       3308       3312       3316       3320       3324       3328       3332       3336       3340       3344       3348       3352       3356       3360       3364       3368       3372       3376       3380       3384       3388       3392       3396       3400       3404       3408       3412       3416       3420       3424       3428       3432       3436       3440       3444       3448       3452       3456       3460       3464       3468       3472       3476       3480       3484       3488       3492       3496       3500       3504       3508       3512       3516       3520       3524       3528       3532       3536       3540       3544       3548       3552       3556       3560       3564       3568       3572       3576       3580       3584       3588       3592       3596       3600       3604       3608       3612       3616       3620       3624       3628       3632       3636       3640       3644       3648       3652       3656       3660       3664       3668       3672       3676       3680       3684       3688       3692       3696       3700       3704       3708       3712       3716       3720       3724       3728       3732       3736       3740       3744       3748       3752       3756       3760       3764       3768       3772       3776       3780       3784       3788       3792       3796       3800       3804       3808       3812       3816       3820       3824       3828       3832       3836       3840       3844       3848       3852       3856       3860       3864       3868       3872       3876       3880       3884       3888       3892       3896       3900       3904       3908       3912       3916       3920       3924       3928       3932       3936       3940       3944       3948       3952       3956       3960       3964       3968       3972       3976       3980       3984       3988       3992       3996       4000       4004       4008       4012       4016       4020       4024       4028       4032       4036       4040       4044       4048       4052       4056       4060       4064       4068       4072       4076       4080       4084       4088       4092       4096 </DataArray>
<DataArray type="UInt8"                                    Name="types"                                                      NumberOfComponents=" 1" format="ascii">
         9          9          9          9          9          9          9          9          9          9          9          9          9          9          9          9          9          9          9          9          9          9          9          9          9          9          9          9          9          9          9          9          9          9          9          9          9          9          9          9          9          9          9          9          9          9          9          9          9          9          9          9          9          9          9          9          9          9          9          9          9          9          9          9          9          9          9          9          9          9          9          9          9          9          9          9          9          9          9          9          9          9          9          9          9          9          9          9          9          9          9          9          9          9          9          9          9          9          9          9          9          9          9          9          9          9          9          9          9          9          9          9          9          9          9          9          9          9          9          9          9          9          9          9          9          9          9          9          9          9          9          9          9          9          9          9          9          9          9          9          9          9          9          9          9          9          9          9          9          9          9          9          9          9          9          9          9          9          9          9          9          9          9          9          9          9          9          9          9          9          9          9          9          9          9          9          9          9          9          9          9          9          9          9          9          9          9          9          9          9          9          9          9          9          9          9          9          9          9          9          9          9          9          9          9          9          9          9          9          9          9          9          9          9          9          9          9          9          9          9          9          9          9          9          9          9          9          9          9          9          9          9          9          9          9          9          9          9          9          9          9          9          9          9          9          9          9          9          9          9          9          9          9          9          9          9          9          9          9          9          9          9          9          9          9          9          9          9          9          9          9          9          9          9          9          9          9          9          9          9          9          9          9          9          9          9          9          9          9          9          9          9          9          9          9          9          9          9          9          9          9          9          9          9          9          9          9          9          9          9          9          9          9          9          9          9          9          9          9          9          9          9          9          9          9          9          9          9          9          9          9          9          9          9          9          9          9          9          9          9          9          9          9          9          9          9          9          9          9          9          9          9          9          9          9          9          9          9          9          9          9          9          9          9          9          9          9          9          9          9          9          9          9          9          9          9          9          9          9          9          9          9          9          9          9          9          9          9          9          9          9          9          9          9          9          9          9          9          9          9          9          9          9          9          9          9          9          9          9          9          9          9          9          9          9          9          9          9          9          9          9          9          9          9          9          9          9          9          9          9          9          9          9          9          9          9          9          9          9          9          9          9          9          9          9          9          9          9          9          9          9          9          9          9          9          9          9          9          9          9          9          9          9          9          9          9          9          9          9          9          9          9          9          9          9          9          9          9          9          9          9          9          9          9          9          9          9          9          9          9          9          9          9          9          9          9          9          9          9          9          9          9          9          9          9          9          9          9          9          9          9          9          9          9          9          9          9          9          9          9          9          9          9          9          9          9          9          9          9          9          9          9          9          9          9          9          9          9          9          9          9          9          9          9          9          9          9          9          9          9          9          9          9          9          9          9          9          9          9          9          9          9          9          9          9          9          9          9          9          9          9          9          9          9          9          9          9          9          9          9          9          9          9          9          9          9          9          9          9          9          9          9          9          9          9          9          9          9          9          9          9          9          9          9          9          9          9          9          9          9          9          9          9          9          9          9          9          9          9          9          9          9          9          9          9          9          9          9          9          9          9          9          9          9          9          9          9          9          9          9          9          9          9          9          9          9          9          9          9          9          9          9          9          9          9          9          9          9          9          9          9          9          9          9          9          9          9          9          9          9          9          9          9          9          9          9          9          9          9          9          9          9          9          9          9          9          9          9          9          9          9          9          9          9          9          9          9          9          9          9          9          9          9          9          9          9          9          9          9          9          9          9          9          9          9          9          9          9          9          9          9          9          9          9          9          9          9          9          9          9          9          9          9          9          9          9          9          9          9          9          9          9          9          9          9          9          9          9          9          9          9          9          9          9          9          9          9          9          9          9          9          9          9          9          9          9          9          9          9          9          9          9          9          9          9          9          9          9          9          9          9          9          9          9          9          9          9          9          9          9          9          9          9          9          9          9          9          9          9          9          9          9          9          9          9          9          9          9          9          9          9          9          9          9          9          9          9          9          9          9          9          9          9          9          9          9          9          9          9          9          9          9          9          9          9          9          9          9          9          9          9          9          9          9          9          9          9          9          9          9          9          9          9          9          9          9          9          9          9          9          9          9          9          9          9          9          9          9          9          9          9          9          9          9          9          9          9          9          9          9          9          9          9          9          9          9          9          9          9          9          9          9          9          9          9          9          9          9          9          9          9          9          9          9          9          9          9          9          9          9          9          9          9          9          9          9          9          9          9          9          9          9          9          9          9          9          9          9          9          9          9          9          9          9          9          9          9          9          9          9          9          9          9          9          9          9          9          9          9          9          9          9          9          9          9          9          9          9          9          9          9          9          9          9          9          9          9          9          9          9          9          9          9          9          9          9          9          9          9          9          9          9          9          9          9          9          9          9          9          9          9          9          9          9          9          9          9          9          9          9          9          9          9          9          9          9          9          9          9          9          9          9          9          9          9          9          9          9          9          9          9          9          9          9 </DataArray>
</Cells>
<CellData>
<DataArray type="Int32"                                    Name="material"                                                      NumberOfComponents=" 1" format="ascii">
         1          1          1          1          1          1          1          1          1          1          1          1          1          1          1          1          1          1          1          1          1          1          1          1          1          1          1          1          1          1          1          1          1          1          1          1          1          1          1          1          1          1          1          1          1          1          1          1          1          1          1          1          1          1          1          1          1          1          1          1          1          1          1          1          1          1          1          1          1          1          1          1          1          1          1          1          1          1          1          1          1          1          1          1          1          1          1          1          1          1          1          1          1          1          1          1          1          1          1          1          1          1          1          1          1          1          1          1          1          1          1          1          1          1          1          1          1          1          1          1          1          1          1          1          1          1          1          1          1          1          1          1          1          1          1          1          1          1          1          1          1          1          1          1          1          1          1          1          1          1          1          1          1          1          1          1          1          1          1          1          1          1          1          1          1          1          1          1          1          1          1          1          1          1          1          1          1          1          1          1          1          1          1          1          1          1          1          1          1          1          1          1          1          1          1          1          1          1          1          1          1          1          1          1          1          1          1          1          1          1          1          1          1          1          1          1          1          1          1          1          1          1          1          1          1          1          1          1          1          1          1          1          1          1          1          1          1          1          1          1          1          1          1          1          1          1          1          1          1          1          1          1          1          1          1          1          1          1          1          1          1          1          1          1          1          1          1          1          1          1          1          1          1          1          1          1          1          1          1          1          1          1          1          1          1          1          1          1          1          1          1          1          1          1          1          1          1          1          1          1          1          1          1          1          1          1          1          1          1          1          1          1          1          1          1          1          1          1          1          1          1          1          1          1          1          1          1          1          1          1          1          1          1          1          1          1          1          1          1          1          1          1          1          1          1          1          1          1          1          1          1          1          1          1          1          1          1          1          1          1          1          1          1          1          1          1          1          1          1          1          1          1          1          1          1          1          1          1          1          1          1          1          1          1          1          1          1          1          1          1          1          1          1          1          1          1          1          1          1          1          1          1          1          1          1          1          1          1          1          1          1          1          1          1          1          1          1          1          1          1          1          1          1          1          1          1          1          1          1          1          1          1          1          1          1          1          1          1          1          1          1          1          1          1          1          1          1          1          1          1          1          1          1          1          1          1          1          1          1          1          1          1          1          1          1          1          1          1          1          1          1          1          1          1          1          1          1          1          1          1          1          1          1          1          1          1          1          1          1          1          1          1          1          1          1          1          1          1          1          1          1          1          1          1          1          1          1          1          1          1          1          1          1          1          1          1          1          1          1          1          1          1          1          1          1          1          1          1          1          1          1          1          1          1          1          1          1          1          1          1          1          1          1          1          1          1          1          1          1          1          1          1          1          1          1          1          1          1          1          1          1          1          1          1          1          1          1          1          1          1          1          1          1          1          1          1          1          1          1          1          1          1          1          1          1          1          1          1          1          1          1          1          1          1          1          1          1          1          1          1          1          1          1          1          1          1          1          1          1          1          1          1          1          1          1          1          1          1          1          1          1          1          1          1          1          1          1          1          1          1          1          1          1          1          1          1          1          1          1          1          1          1          1          1          1          1          1          1          1          1          1          1          1          1          1          1          1          1          1          1          1          1          1          1          1          1          1          1          1          1          1          1          1          1          1          1          1          1          1          1          1          1          1          1          1          1          1          1          1          1          1          1          1          1          1          1          1          1          1          1          1          1          1          1          1          1          1          1          1          1          1          1          1          1          1          1          1          1          1          1          1          1          1          1          1          1          1          1          1          1          1          1          1          1          1          1          1          1          1          1          1          1          1          1          1          1          1          1          1          1          1          1          1          1          1          1          1          1          1          1          1          1          1          1          1          1          1          1          1          1          1          1          1          1          1          1          1          1          1          1          1          1          1          1          1          1          1          1          1          1          1          1          1          1          1          1          1          1          1          1          1          1          1          1          1          1          1          1          1          1          1          1          1          1          1          1          1          1          1          1          1          1          1          1          1          1          1          1          1          1          1          1          1          1          1          1          1          1          1          1          1          1          1          1          1          1          1          1          1          1          1          1          1          1          1          1          1          1          1          1          1          1          1          1          1          1          1          1          1          1          1          1          1          1          1          1          1          1          1          1          1          1          1          1          1          1          1          1          1          1          1          1          1          1          1          1          1          1          1          1          1          1          1          1          1          1          1          1          1          1          1          1          1          1          1          1          1          1          1          1          1          1          1          1          1          1          1          1          1          1          1          1          1          1          1          1          1          1          1          1          1          1          1          1          1          1          1          1          1          1          1          1          1          1          1          1          1          1          1          1          1          1          1          1          1          1          1          1          1          1          1          1          1          1          1          1          1          1          1          1          1          1          1          1          1          1          1          1          1          1          1          1          1          1          1          1          1          1          1          1          1          1          1          1          1          1          1          1          1          1          1          1          1          1          1          1          1          1          1          1          1          1          1          1 </DataArray>
</CellData>
<PointData>
<DataArray type="Float64"                                    Name="u"                                                      NumberOfComponents=" 3" format="ascii">
             -0.000000003               0.000000000               1.000000000               0.000000034               0.000000000               1.000000000               0.000000080              -0.000000000               1.000000000               0.000000046              -0.000000000               1.000000000              -0.000000033               0.000000000               1.000000000              -0.000000101               0.000000000               1.000000000              -0.000000143              -0.000000000               1.000000000              -0.000000129              -0.000000000               1.000000000              -0.000000062               0.000000000               1.000000000               0.000000031               0.000000000               1.000000000               0.000000134              -0.000000000               1.000000000               0.000000219              -0.000000000               1.000000000               0.000000253               0.000000000               1.000000000               0.000000217               0.000000000               1.000000000               0.000000129              -0.000000000               1.000000000               0.000000038              -0.000000000               1.000000000              -0.000000008               0.000000000               1.000000000               0.000000009              -0.000000023               1.000000000              -0.000000021              -0.000000029               1.000000000              -0.000000065              -0.000000045               1.000000000              -0.000000047              -0.000000030               1.000000000               0.000000008              -0.000000025               1.000000000               0.000000055               0.000000025               1.000000000               0.000000091               0.000000073               1.000000000               0.000000101               0.000000105               1.000000000               0.000000086               0.000000119               1.000000000               0.000000060               0.000000103               1.000000000               0.000000018               0.000000073               1.000000000              -0.000000043               0.000000061               1.000000000              -0.000000107               0.000000068               1.000000000              -0.000000151               0.000000066               1.000000000              -0.000000153               0.000000019               1.000000000              -0.000000105              -0.000000083               1.000000000              -0.000000021              -0.000000190               1.000000000              -0.000000006              -0.000000046               1.000000000              -0.000000004              -0.000000005               1.000000000               0.000000016              -0.000000014               1.000000000               0.000000033               0.000000020               1.000000000               0.000000027               0.000000060               1.000000000               0.000000025               0.000000067               1.000000000               0.000000020               0.000000047               1.000000000              -0.000000001              -0.000000003               1.000000000              -0.000000040              -0.000000091               1.000000000              -0.000000106              -0.000000179               1.000000000              -0.000000190              -0.000000233               1.000000000              -0.000000258              -0.000000275               1.000000000              -0.000000268              -0.000000339               1.000000000              -0.000000191              -0.000000458               1.000000000              -0.000000039              -0.000000628               1.000000000               0.000000126              -0.000000808               1.000000000               0.000000215              -0.000000938               1.000000000              -0.000000017              -0.000000045               1.000000000               0.000000019               0.000000018               1.000000000               0.000000032               0.000000058               1.000000000              -0.000000010               0.000000071               1.000000000              -0.000000022               0.000000048               1.000000000              -0.000000034              -0.000000030               1.000000000              -0.000000060              -0.000000133               1.000000000              -0.000000078              -0.000000245               1.000000000              -0.000000090              -0.000000309               1.000000000              -0.000000086              -0.000000293               1.000000000              -0.000000042              -0.000000235               1.000000000               0.000000067              -0.000000187               1.000000000               0.000000246              -0.000000179               1.000000000               0.000000446              -0.000000185               1.000000000               0.000000565              -0.000000102               1.000000000               0.000000476               0.000000216               1.000000000               0.000000049               0.000000927               1.000000000               0.000000018               0.000000027               1.000000000              -0.000000017               0.000000039               1.000000000              -0.000000030               0.000000066               1.000000000               0.000000006              -0.000000005               1.000000000               0.000000008              -0.000000106               1.000000000              -0.000000004              -0.000000206               1.000000000              -0.000000013              -0.000000257               1.000000000              -0.000000015              -0.000000198               1.000000000               0.000000008               0.000000003               1.000000000               0.000000061               0.000000313               1.000000000               0.000000167               0.000000661               1.000000000               0.000000312               0.000001013               1.000000000               0.000000415               0.000001409               1.000000000               0.000000347               0.000001988               1.000000000              -0.000000033               0.000002937               1.000000000              -0.000000841               0.000004449               1.000000000              -0.000002152               0.000006702               1.000000000               0.000000018               0.000000118               1.000000000              -0.000000017               0.000000037               1.000000000               0.000000005              -0.000000012               1.000000000               0.000000003              -0.000000159               1.000000000              -0.000000022              -0.000000225               1.000000000              -0.000000008              -0.000000164               1.000000000               0.000000020               0.000000096               1.000000000               0.000000074               0.000000578               1.000000000               0.000000124               0.000001264               1.000000000               0.000000193               0.000002070               1.000000000               0.000000254               0.000002940               1.000000000               0.000000209               0.000003917               1.000000000              -0.000000076               0.000005141               1.000000000              -0.000000748               0.000006823               1.000000000              -0.000001911               0.000009144               1.000000000              -0.000003622               0.000012251               1.000000000              -0.000005876               0.000016241               1.000000000              -0.000000002               0.000000154               1.000000000               0.000000008              -0.000000045               1.000000000              -0.000000002              -0.000000152               1.000000000               0.000000002              -0.000000199               1.000000000               0.000000024              -0.000000041               1.000000000               0.000000015               0.000000401               1.000000000               0.000000056               0.000001169               1.000000000               0.000000083               0.000002259               1.000000000               0.000000111               0.000003618               1.000000000               0.000000098               0.000005142               1.000000000              -0.000000046               0.000006855               1.000000000              -0.000000467               0.000008868               1.000000000              -0.000001323               0.000011405               1.000000000              -0.000002725               0.000014635               1.000000000              -0.000004719               0.000018691               1.000000000              -0.000007291               0.000023637               1.000000000              -0.000010375               0.000029475               1.000000000              -0.000000001               0.000000105               1.000000000               0.000000027              -0.000000142               1.000000000              -0.000000012              -0.000000211               1.000000000              -0.000000001              -0.000000040               1.000000000              -0.000000004               0.000000505               1.000000000               0.000000033               0.000001549               1.000000000               0.000000088               0.000003025               1.000000000               0.000000091               0.000004953               1.000000000               0.000000047               0.000007184               1.000000000              -0.000000136               0.000009718               1.000000000              -0.000000584               0.000012626               1.000000000              -0.000001481               0.000016121               1.000000000              -0.000002938               0.000020384               1.000000000              -0.000005019               0.000025548               1.000000000              -0.000007702               0.000031666               1.000000000              -0.000010928               0.000038683               1.000000000              -0.000014613               0.000046491               1.000000000              -0.000000018              -0.000000034               1.000000000               0.000000035              -0.000000175               1.000000000              -0.000000021              -0.000000154               1.000000000              -0.000000009               0.000000416               1.000000000               0.000000015               0.000001573               1.000000000               0.000000038               0.000003311               1.000000000               0.000000052               0.000005682               1.000000000              -0.000000000               0.000008552               1.000000000              -0.000000149               0.000011916               1.000000000              -0.000000527               0.000015762               1.000000000              -0.000001305               0.000020289               1.000000000              -0.000002645               0.000025664               1.000000000              -0.000004607               0.000032066               1.000000000              -0.000007182               0.000039537               1.000000000              -0.000010291               0.000048057               1.000000000              -0.000013843               0.000057494               1.000000000              -0.000017707               0.000067638               1.000000000              -0.000000043              -0.000000197               1.000000000               0.000000025              -0.000000146               1.000000000              -0.000000002              -0.000000059               1.000000000              -0.000000026               0.000000662               1.000000000              -0.000000004               0.000001932               1.000000000               0.000000017               0.000003789               1.000000000               0.000000061               0.000006265               1.000000000               0.000000032               0.000009282               1.000000000              -0.000000057               0.000012806               1.000000000              -0.000000240               0.000016798               1.000000000              -0.000000617               0.000021335               1.000000000              -0.000001319               0.000026524               1.000000000              -0.000002432               0.000032510               1.000000000              -0.000003977               0.000039378               1.000000000              -0.000005948               0.000047203               1.000000000              -0.000008275               0.000055973               1.000000000              -0.000010920               0.000065692               1.000000000              -0.000000023              -0.000000312               1.000000000              -0.000000013              -0.000000135               1.000000000               0.000000030               0.000000108               1.000000000              -0.000000030               0.000000915               1.000000000               0.000000003               0.000002317               1.000000000               0.000000009               0.000004252               1.000000000               0.000000032               0.000006764               1.000000000               0.000000031               0.000009868               1.000000000              -0.000000008               0.000013498               1.000000000              -0.000000089               0.000017631               1.000000000              -0.000000233               0.000022267               1.000000000              -0.000000519               0.000027448               1.000000000              -0.000001034               0.000033253               1.000000000              -0.000001819               0.000039775               1.000000000              -0.000002882               0.000047053               1.000000000              -0.000004218               0.000055166               1.000000000              -0.000005808               0.000064099               1.000000000               0.000000010              -0.000000377               1.000000000              -0.000000055              -0.000000153               1.000000000               0.000000050               0.000000320               1.000000000              -0.000000021               0.000001160               1.000000000              -0.000000024               0.000002655               1.000000000              -0.000000007               0.000004693               1.000000000               0.000000013               0.000007240               1.000000000               0.000000035               0.000010389               1.000000000               0.000000025               0.000014067               1.000000000              -0.000000002               0.000018295               1.000000000              -0.000000050               0.000023001               1.000000000              -0.000000126               0.000028246               1.000000000              -0.000000286               0.000034011               1.000000000              -0.000000577               0.000040398               1.000000000              -0.000001021               0.000047398               1.000000000              -0.000001614               0.000055103               1.000000000              -0.000002334               0.000063485               1.000000000               0.000000022              -0.000000408               1.000000000              -0.000000077              -0.000000173               1.000000000               0.000000038               0.000000490               1.000000000               0.000000014               0.000001446               1.000000000              -0.000000017               0.000002961               1.000000000               0.000000001               0.000005082               1.000000000              -0.000000000               0.000007661               1.000000000               0.000000016               0.000010801               1.000000000               0.000000024               0.000014494               1.000000000               0.000000020               0.000018736               1.000000000               0.000000014               0.000023494               1.000000000               0.000000012               0.000028776               1.000000000               0.000000004               0.000034551               1.000000000              -0.000000034               0.000040881               1.000000000              -0.000000136               0.000047754               1.000000000              -0.000000308               0.000055238               1.000000000              -0.000000543               0.000063305               1.000000000               0.000000026              -0.000000421               1.000000000              -0.000000065              -0.000000136               1.000000000               0.000000011               0.000000594               1.000000000               0.000000021               0.000001669               1.000000000              -0.000000012               0.000003203               1.000000000              -0.000000000               0.000005359               1.000000000              -0.000000006               0.000008047               1.000000000              -0.000000005               0.000011175               1.000000000               0.000000010               0.000014873               1.000000000               0.000000015               0.000019092               1.000000000               0.000000017               0.000023838               1.000000000               0.000000023               0.000029109               1.000000000               0.000000041               0.000034883               1.000000000               0.000000069               0.000041170               1.000000000               0.000000094               0.000047971               1.000000000               0.000000093               0.000055316               1.000000000               0.000000051               0.000063204               1.000000000               0.000000014              -0.000000471               1.000000000              -0.000000041              -0.000000114               1.000000000              -0.000000008               0.000000687               1.000000000               0.000000019               0.000001840               1.000000000              -0.000000011               0.000003421               1.000000000              -0.000000007               0.000005555               1.000000000               0.000000003               0.000008280               1.000000000               0.000000001               0.000011437               1.000000000               0.000000008               0.000015134               1.000000000               0.000000011               0.000019336               1.000000000               0.000000007               0.000024063               1.000000000               0.000000003               0.000029302               1.000000000               0.000000008               0.000035068               1.000000000               0.000000023               0.000041329               1.000000000               0.000000049               0.000048098               1.000000000               0.000000079               0.000055365               1.000000000               0.000000098               0.000063152               1.000000000              -0.000000003              -0.000000475               1.000000000              -0.000000009              -0.000000116               1.000000000              -0.000000005               0.000000734               1.000000000               0.000000022               0.000001969               1.000000000               0.000000000               0.000003569               1.000000000               0.000000002               0.000005699               1.000000000               0.000000006               0.000008444               1.000000000              -0.000000010               0.000011616               1.000000000              -0.000000019               0.000015311               1.000000000              -0.000000013               0.000019509               1.000000000              -0.000000004               0.000024224               1.000000000              -0.000000003               0.000029439               1.000000000              -0.000000013               0.000035187               1.000000000              -0.000000025               0.000041428               1.000000000              -0.000000034               0.000048185               1.000000000              -0.000000033               0.000055433               1.000000000              -0.000000023               0.000063193               1.000000000               0.000000000              -0.000000416               1.000000000              -0.000000000              -0.000000076               1.000000000               0.000000000               0.000000729               1.000000000              -0.000000000               0.000001963               1.000000000              -0.000000000               0.000003590               1.000000000              -0.000000000               0.000005734               1.000000000              -0.000000000               0.000008476               1.000000000              -0.000000000               0.000011651               1.000000000               0.000000000               0.000015360               1.000000000               0.000000000               0.000019582               1.000000000               0.000000000               0.000024307               1.000000000               0.000000000               0.000029503               1.000000000               0.000000000               0.000035221               1.000000000              -0.000000000               0.000041436               1.000000000              -0.000000000               0.000048182               1.000000000              -0.000000000               0.000055431               1.000000000              -0.000000000               0.000063198               1.000000000              -0.000000003               0.000000000               1.000000000               0.000000034               0.000000000               1.000000000               0.000000080              -0.000000000               1.000000000               0.000000046              -0.000000000               1.000000000              -0.000000033               0.000000000               1.000000000              -0.000000101               0.000000000               1.000000000              -0.000000143              -0.000000000               1.000000000              -0.000000129              -0.000000000               1.000000000              -0.000000062               0.000000000               1.000000000               0.000000031               0.000000000               1.000000000               0.000000134              -0.000000000               1.000000000               0.000000219              -0.000000000               1.000000000               0.000000253               0.000000000               1.000000000               0.000000217               0.000000000               1.000000000               0.000000129              -0.000000000               1.000000000               0.000000038              -0.000000000               1.000000000              -0.000000008               0.000000000               1.000000000               0.000000009               0.000000023               1.000000000              -0.000000021               0.000000029               1.000000000              -0.000000065               0.000000045               1.000000000              -0.000000047               0.000000030               1.000000000               0.000000008               0.000000025               1.000000000               0.000000055              -0.000000025               1.000000000               0.000000091              -0.000000073               1.000000000               0.000000101              -0.000000105               1.000000000               0.000000086              -0.000000119               1.000000000               0.000000060              -0.000000103               1.000000000               0.000000018              -0.000000073               1.000000000              -0.000000043              -0.000000061               1.000000000              -0.000000107              -0.000000068               1.000000000              -0.000000151              -0.000000066               1.000000000              -0.000000153              -0.000000019               1.000000000              -0.000000105               0.000000083               1.000000000              -0.000000021               0.000000190               1.000000000              -0.000000006               0.000000046               1.000000000              -0.000000004               0.000000005               1.000000000               0.000000016               0.000000014               1.000000000               0.000000033              -0.000000020               1.000000000               0.000000027              -0.000000060               1.000000000               0.000000025              -0.000000067               1.000000000               0.000000020              -0.000000047               1.000000000              -0.000000001               0.000000003               1.000000000              -0.000000040               0.000000091               1.000000000              -0.000000106               0.000000179               1.000000000              -0.000000190               0.000000233               1.000000000              -0.000000258               0.000000275               1.000000000              -0.000000268               0.000000339               1.000000000              -0.000000191               0.000000458               1.000000000              -0.000000039               0.000000628               1.000000000               0.000000126               0.000000808               1.000000000               0.000000215               0.000000938               1.000000000              -0.000000017               0.000000045               1.000000000               0.000000019              -0.000000018               1.000000000               0.000000032              -0.000000058               1.000000000              -0.000000010              -0.000000071               1.000000000              -0.000000022              -0.000000048               1.000000000              -0.000000034               0.000000030               1.000000000              -0.000000060               0.000000133               1.000000000              -0.000000078               0.000000245               1.000000000              -0.000000090               0.000000309               1.000000000              -0.000000086               0.000000293               1.000000000              -0.000000042               0.000000235               1.000000000               0.000000067               0.000000187               1.000000000               0.000000246               0.000000179               1.000000000               0.000000446               0.000000185               1.000000000               0.000000565               0.000000102               1.000000000               0.000000476              -0.000000216               1.000000000               0.000000049              -0.000000927               1.000000000               0.000000018              -0.000000027               1.000000000              -0.000000017              -0.000000039               1.000000000              -0.000000030              -0.000000066               1.000000000               0.000000006               0.000000005               1.000000000               0.000000008               0.000000106               1.000000000              -0.000000004               0.000000206               1.000000000              -0.000000013               0.000000257               1.000000000              -0.000000015               0.000000198               1.000000000               0.000000008              -0.000000003               1.000000000               0.000000061              -0.000000313               1.000000000               0.000000167              -0.000000661               1.000000000               0.000000312              -0.000001013               1.000000000               0.000000415              -0.000001409               1.000000000               0.000000347              -0.000001988               1.000000000              -0.000000033              -0.000002937               1.000000000              -0.000000841              -0.000004449               1.000000000              -0.000002152              -0.000006702               1.000000000               0.000000018              -0.000000118               1.000000000              -0.000000017              -0.000000037               1.000000000               0.000000005               0.000000012               1.000000000               0.000000003               0.000000159               1.000000000              -0.000000022               0.000000225               1.000000000              -0.000000008               0.000000164               1.000000000               0.000000020              -0.000000096               1.000000000               0.000000074              -0.000000578               1.000000000               0.000000124              -0.000001264               1.000000000               0.000000193              -0.000002070               1.000000000               0.000000254              -0.000002940               1.000000000               0.000000209              -0.000003917               1.000000000              -0.000000076              -0.000005141               1.000000000              -0.000000748              -0.000006823               1.000000000              -0.000001911              -0.000009144               1.000000000              -0.000003622              -0.000012251               1.000000000              -0.000005876              -0.000016241               1.000000000              -0.000000002              -0.000000154               1.000000000               0.000000008               0.000000045               1.000000000              -0.000000002               0.000000152               1.000000000               0.000000002               0.000000199               1.000000000               0.000000024               0.000000041               1.000000000               0.000000015              -0.000000401               1.000000000               0.000000056              -0.000001169               1.000000000               0.000000083              -0.000002259               1.000000000               0.000000111              -0.000003618               1.000000000               0.000000098              -0.000005142               1.000000000              -0.000000046              -0.000006855               1.000000000              -0.000000467              -0.000008868               1.000000000              -0.000001323              -0.000011405               1.000000000              -0.000002725              -0.000014635               1.000000000              -0.000004719              -0.000018691               1.000000000              -0.000007291              -0.000023637               1.000000000              -0.000010375              -0.000029475               1.000000000              -0.000000001              -0.000000105               1.000000000               0.000000027               0.000000142               1.000000000              -0.000000012               0.000000211               1.000000000              -0.000000001               0.000000040               1.000000000              -0.000000004              -0.000000505               1.000000000               0.000000033              -0.000001549               1.000000000               0.000000088              -0.000003025               1.000000000               0.000000091              -0.000004953               1.000000000               0.000000047              -0.000007184               1.000000000              -0.000000136              -0.000009718               1.000000000              -0.000000584              -0.000012626               1.000000000              -0.000001481              -0.000016121               1.000000000              -0.000002938              -0.000020384               1.000000000              -0.000005019              -0.000025548               1.000000000              -0.000007702              -0.000031666               1.000000000              -0.000010928              -0.000038683               1.000000000              -0.000014613              -0.000046491               1.000000000              -0.000000018               0.000000034               1.000000000               0.000000035               0.000000175               1.000000000              -0.000000021               0.000000154               1.000000000              -0.000000009              -0.000000416               1.000000000               0.000000015              -0.000001573               1.000000000               0.000000038              -0.000003311               1.000000000               0.000000052              -0.000005682               1.000000000              -0.000000000              -0.000008552               1.000000000              -0.000000149              -0.000011916               1.000000000              -0.000000527              -0.000015762               1.000000000              -0.000001305              -0.000020289               1.000000000              -0.000002645              -0.000025664               1.000000000              -0.000004607              -0.000032066               1.000000000              -0.000007182              -0.000039537               1.000000000              -0.000010291              -0.000048057               1.000000000              -0.000013843              -0.000057494               1.000000000              -0.000017707              -0.000067638               1.000000000              -0.000000043               0.000000197               1.000000000               0.000000025               0.000000146               1.000000000              -0.000000002               0.000000059               1.000000000              -0.000000026              -0.000000662               1.000000000              -0.000000004              -0.000001932               1.000000000               0.000000017              -0.000003789               1.000000000               0.000000061              -0.000006265               1.000000000               0.000000032              -0.000009282               1.000000000              -0.000000057              -0.000012806               1.000000000              -0.000000240              -0.000016798               1.000000000              -0.000000617              -0.000021335               1.000000000              -0.000001319              -0.000026524               1.000000000              -0.000002432              -0.000032510               1.000000000              -0.000003977              -0.000039378               1.000000000              -0.000005948              -0.000047203               1.000000000              -0.000008275              -0.000055973               1.000000000              -0.000010920              -0.000065692               1.000000000              -0.000000023               0.000000312               1.000000000              -0.000000013               0.000000135               1.000000000               0.000000030              -0.000000108               1.000000000              -0.000000030              -0.000000915               1.000000000               0.000000003              -0.000002317               1.000000000               0.000000009              -0.000004252               1.000000000               0.000000032              -0.000006764               1.000000000               0.000000031              -0.000009868               1.000000000              -0.000000008              -0.000013498               1.000000000              -0.000000089              -0.000017631               1.000000000              -0.000000233              -0.000022267               1.000000000              -0.000000519              -0.000027448               1.000000000              -0.000001034              -0.000033253               1.000000000              -0.000001819              -0.000039775               1.000000000              -0.000002882              -0.000047053               1.000000000              -0.000004218              -0.000055166               1.000000000              -0.000005808              -0.000064099               1.000000000               0.000000010               0.000000377               1.000000000              -0.000000055               0.000000153               1.000000000               0.000000050              -0.000000320               1.000000000              -0.000000021              -0.000001160               1.000000000              -0.000000024              -0.000002655               1.000000000              -0.000000007              -0.000004693               1.000000000               0.000000013              -0.000007240               1.000000000               0.000000035              -0.000010389               1.000000000               0.000000025              -0.000014067               1.000000000              -0.000000002              -0.000018295               1.000000000              -0.000000050              -0.000023001               1.000000000              -0.000000126              -0.000028246               1.000000000              -0.000000286              -0.000034011               1.000000000              -0.000000577              -0.000040398               1.000000000              -0.000001021              -0.000047398               1.000000000              -0.000001614              -0.000055103               1.000000000              -0.000002334              -0.000063485               1.000000000               0.000000022               0.000000408               1.000000000              -0.000000077               0.000000173               1.000000000               0.000000038              -0.000000490               1.000000000               0.000000014              -0.000001446               1.000000000              -0.000000017              -0.000002961               1.000000000               0.000000001              -0.000005082               1.000000000              -0.000000000              -0.000007661               1.000000000               0.000000016              -0.000010801               1.000000000               0.000000024              -0.000014494               1.000000000               0.000000020              -0.000018736               1.000000000               0.000000014              -0.000023494               1.000000000               0.000000012              -0.000028776               1.000000000               0.000000004              -0.000034551               1.000000000              -0.000000034              -0.000040881               1.000000000              -0.000000136              -0.000047754               1.000000000              -0.000000308              -0.000055238               1.000000000              -0.000000543              -0.000063305               1.000000000               0.000000026               0.000000421               1.000000000              -0.000000065               0.000000136               1.000000000               0.000000011              -0.000000594               1.000000000               0.000000021              -0.000001669               1.000000000              -0.000000012              -0.000003203               1.000000000              -0.000000000              -0.000005359               1.000000000              -0.000000006              -0.000008047               1.000000000              -0.000000005              -0.000011175               1.000000000               0.000000010              -0.000014873               1.000000000               0.000000015              -0.000019092               1.000000000               0.000000017              -0.000023838               1.000000000               0.000000023              -0.000029109               1.000000000               0.000000041              -0.000034883               1.000000000               0.000000069              -0.000041170               1.000000000               0.000000094              -0.000047971               1.000000000               0.000000093              -0.000055316               1.000000000               0.000000051              -0.000063204               1.000000000               0.000000014               0.000000471               1.000000000              -0.000000041               0.000000114               1.000000000              -0.000000008              -0.000000687               1.000000000               0.000000019              -0.000001840               1.000000000              -0.000000011              -0.000003421               1.000000000              -0.000000007              -0.000005555               1.000000000               0.000000003              -0.000008280               1.000000000               0.000000001              -0.000011437               1.000000000               0.000000008              -0.000015134               1.000000000               0.000000011              -0.000019336               1.000000000               0.000000007              -0.000024063               1.000000000               0.000000003              -0.000029302               1.000000000               0.000000008              -0.000035068               1.000000000               0.000000023              -0.000041329               1.000000000               0.000000049              -0.000048098               1.000000000               0.000000079              -0.000055365               1.000000000               0.000000098              -0.000063152               1.000000000              -0.000000003               0.000000475               1.000000000              -0.000000009               0.000000116               1.000000000              -0.000000005              -0.000000734               1.000000000               0.000000022              -0.000001969               1.000000000               0.000000000              -0.000003569               1.000000000               0.000000002              -0.000005699               1.000000000               0.000000006              -0.000008444               1.000000000              -0.000000010              -0.000011616               1.000000000              -0.000000019              -0.000015311               1.000000000              -0.000000013              -0.000019509               1.000000000              -0.000000004              -0.000024224               1.000000000              -0.000000003              -0.000029439               1.000000000              -0.000000013              -0.000035187               1.000000000              -0.000000025              -0.000041428               1.000000000              -0.000000034              -0.000048185               1.000000000              -0.000000033              -0.000055433               1.000000000              -0.000000023              -0.000063193               1.000000000               0.000000000               0.000000416               1.000000000               0.000000000               0.000000076               1.000000000              -0.000000000              -0.000000729               1.000000000              -0.000000000              -0.000001963               1.000000000               0.000000000              -0.000003590               1.000000000               0.000000000              -0.000005734               1.000000000              -0.000000000              -0.000008476               1.000000000               0.000000000              -0.000011651               1.000000000              -0.000000000              -0.000015360               1.000000000              -0.000000000              -0.000019582               1.000000000              -0.000000000              -0.000024307               1.000000000              -0.000000000              -0.000029503               1.000000000              -0.000000000              -0.000035221               1.000000000               0.000000000              -0.000041436               1.000000000               0.000000000              -0.000048182               1.000000000              -0.000000000              -0.000055431               1.000000000               0.000000000              -0.000063198               1.000000000               0.000000003              -0.000000000               1.000000000              -0.000000034              -0.000000000               1.000000000              -0.000000080               0.000000000               1.000000000              -0.000000046               0.000000000               1.000000000               0.000000033               0.000000000               1.000000000               0.000000101              -0.000000000               1.000000000               0.000000143               0.000000000               1.000000000               0.000000129               0.000000000               1.000000000               0.000000062              -0.000000000               1.000000000              -0.000000031              -0.000000000               1.000000000              -0.000000134               0.000000000               1.000000000              -0.000000219              -0.000000000               1.000000000              -0.000000253              -0.000000000               1.000000000              -0.000000217              -0.000000000               1.000000000              -0.000000129              -0.000000000               1.000000000              -0.000000038              -0.000000000               1.000000000               0.000000008              -0.000000000               1.000000000              -0.000000009               0.000000023               1.000000000               0.000000021               0.000000029               1.000000000               0.000000065               0.000000045               1.000000000               0.000000047               0.000000030               1.000000000              -0.000000008               0.000000025               1.000000000              -0.000000055              -0.000000025               1.000000000              -0.000000091              -0.000000073               1.000000000              -0.000000101              -0.000000105               1.000000000              -0.000000086              -0.000000119               1.000000000              -0.000000060              -0.000000103               1.000000000              -0.000000018              -0.000000073               1.000000000               0.000000043              -0.000000061               1.000000000               0.000000107              -0.000000068               1.000000000               0.000000151              -0.000000066               1.000000000               0.000000153              -0.000000019               1.000000000               0.000000105               0.000000083               1.000000000               0.000000021               0.000000190               1.000000000               0.000000006               0.000000046               1.000000000               0.000000004               0.000000005               1.000000000              -0.000000016               0.000000014               1.000000000              -0.000000033              -0.000000020               1.000000000              -0.000000027              -0.000000060               1.000000000              -0.000000025              -0.000000067               1.000000000              -0.000000020              -0.000000047               1.000000000               0.000000001               0.000000003               1.000000000               0.000000040               0.000000091               1.000000000               0.000000106               0.000000179               1.000000000               0.000000190               0.000000233               1.000000000               0.000000258               0.000000275               1.000000000               0.000000268               0.000000339               1.000000000               0.000000191               0.000000458               1.000000000               0.000000039               0.000000628               1.000000000              -0.000000126               0.000000808               1.000000000              -0.000000215               0.000000938               1.000000000               0.000000017               0.000000045               1.000000000              -0.000000019              -0.000000018               1.000000000              -0.000000032              -0.000000058               1.000000000               0.000000010              -0.000000071               1.000000000               0.000000022              -0.000000048               1.000000000               0.000000034               0.000000030               1.000000000               0.000000060               0.000000133               1.000000000               0.000000078               0.000000245               1.000000000               0.000000090               0.000000309               1.000000000               0.000000086               0.000000293               1.000000000               0.000000042               0.000000235               1.000000000              -0.000000067               0.000000187               1.000000000              -0.000000246               0.000000179               1.000000000              -0.000000446               0.000000185               1.000000000              -0.000000565               0.000000102               1.000000000              -0.000000476              -0.000000216               1.000000000              -0.000000049              -0.000000927               1.000000000              -0.000000018              -0.000000027               1.000000000               0.000000017              -0.000000039               1.000000000               0.000000030              -0.000000066               1.000000000              -0.000000006               0.000000005               1.000000000              -0.000000008               0.000000106               1.000000000               0.000000004               0.000000206               1.000000000               0.000000013               0.000000257               1.000000000               0.000000015               0.000000198               1.000000000              -0.000000008              -0.000000003               1.000000000              -0.000000061              -0.000000313               1.000000000              -0.000000167              -0.000000661               1.000000000              -0.000000312              -0.000001013               1.000000000              -0.000000415              -0.000001409               1.000000000              -0.000000347              -0.000001988               1.000000000               0.000000033              -0.000002937               1.000000000               0.000000841              -0.000004449               1.000000000               0.000002152              -0.000006702               1.000000000              -0.000000018              -0.000000118               1.000000000               0.000000017              -0.000000037               1.000000000              -0.000000005               0.000000012               1.000000000              -0.000000003               0.000000159               1.000000000               0.000000022               0.000000225               1.000000000               0.000000008               0.000000164               1.000000000              -0.000000020              -0.000000096               1.000000000              -0.000000074              -0.000000578               1.000000000              -0.000000124              -0.000001264               1.000000000              -0.000000193              -0.000002070               1.000000000              -0.000000254              -0.000002940               1.000000000              -0.000000209              -0.000003917               1.000000000               0.000000076              -0.000005141               1.000000000               0.000000748              -0.000006823               1.000000000               0.000001911              -0.000009144               1.000000000               0.000003622              -0.000012251               1.000000000               0.000005876              -0.000016241               1.000000000               0.000000002              -0.000000154               1.000000000              -0.000000008               0.000000045               1.000000000               0.000000002               0.000000152               1.000000000              -0.000000002               0.000000199               1.000000000              -0.000000024               0.000000041               1.000000000              -0.000000015              -0.000000401               1.000000000              -0.000000056              -0.000001169               1.000000000              -0.000000083              -0.000002259               1.000000000              -0.000000111              -0.000003618               1.000000000              -0.000000098              -0.000005142               1.000000000               0.000000046              -0.000006855               1.000000000               0.000000467              -0.000008868               1.000000000               0.000001323              -0.000011405               1.000000000               0.000002725              -0.000014635               1.000000000               0.000004719              -0.000018691               1.000000000               0.000007291              -0.000023637               1.000000000               0.000010375              -0.000029475               1.000000000               0.000000001              -0.000000105               1.000000000              -0.000000027               0.000000142               1.000000000               0.000000012               0.000000211               1.000000000               0.000000001               0.000000040               1.000000000               0.000000004              -0.000000505               1.000000000              -0.000000033              -0.000001549               1.000000000              -0.000000088              -0.000003025               1.000000000              -0.000000091              -0.000004953               1.000000000              -0.000000047              -0.000007184               1.000000000               0.000000136              -0.000009718               1.000000000               0.000000584              -0.000012626               1.000000000               0.000001481              -0.000016121               1.000000000               0.000002938              -0.000020384               1.000000000               0.000005019              -0.000025548               1.000000000               0.000007702              -0.000031666               1.000000000               0.000010928              -0.000038683               1.000000000               0.000014613              -0.000046491               1.000000000               0.000000018               0.000000034               1.000000000              -0.000000035               0.000000175               1.000000000               0.000000021               0.000000154               1.000000000               0.000000009              -0.000000416               1.000000000              -0.000000015              -0.000001573               1.000000000              -0.000000038              -0.000003311               1.000000000              -0.000000052              -0.000005682               1.000000000               0.000000000              -0.000008552               1.000000000               0.000000149              -0.000011916               1.000000000               0.000000527              -0.000015762               1.000000000               0.000001305              -0.000020289               1.000000000               0.000002645              -0.000025664               1.000000000               0.000004607              -0.000032066               1.000000000               0.000007182              -0.000039537               1.000000000               0.000010291              -0.000048057               1.000000000               0.000013843              -0.000057494               1.000000000               0.000017707              -0.000067638               1.000000000               0.000000043               0.000000197               1.000000000              -0.000000025               0.000000146               1.000000000               0.000000002               0.000000059               1.000000000               0.000000026              -0.000000662               1.000000000               0.000000004              -0.000001932               1.000000000              -0.000000017              -0.000003789               1.000000000              -0.000000061              -0.000006265               1.000000000              -0.000000032              -0.000009282               1.000000000               0.000000057              -0.000012806               1.000000000               0.000000240              -0.000016798               1.000000000               0.000000617              -0.000021335               1.000000000               0.000001319              -0.000026524               1.000000000               0.000002432              -0.000032510               1.000000000               0.000003977              -0.000039378               1.000000000               0.000005948              -0.000047203               1.000000000               0.000008275              -0.000055973               1.000000000               0.000010920              -0.000065692               1.000000000               0.000000023               0.000000312               1.000000000               0.000000013               0.000000135               1.000000000              -0.000000030              -0.000000108               1.000000000               0.000000030              -0.000000915               1.000000000              -0.000000003              -0.000002317               1.000000000              -0.000000009              -0.000004252               1.000000000              -0.000000032              -0.000006764               1.000000000              -0.000000031              -0.000009868               1.000000000               0.000000008              -0.000013498               1.000000000               0.000000089              -0.000017631               1.000000000               0.000000233              -0.000022267               1.000000000               0.000000519              -0.000027448               1.000000000               0.000001034              -0.000033253               1.000000000               0.000001819              -0.000039775               1.000000000               0.000002882              -0.000047053               1.000000000               0.000004218              -0.000055166               1.000000000               0.000005808              -0.000064099               1.000000000              -0.000000010               0.000000377               1.000000000               0.000000055               0.000000153               1.000000000              -0.000000050              -0.000000320               1.000000000               0.000000021              -0.000001160               1.000000000               0.000000024              -0.000002655               1.000000000               0.000000007              -0.000004693               1.000000000              -0.000000013              -0.000007240               1.000000000              -0.000000035              -0.000010389               1.000000000              -0.000000025              -0.000014067               1.000000000               0.000000002              -0.000018295               1.000000000               0.000000050              -0.000023001               1.000000000               0.000000126              -0.000028246               1.000000000               0.000000286              -0.000034011               1.000000000               0.000000577              -0.000040398               1.000000000               0.000001021              -0.000047398               1.000000000               0.000001614              -0.000055103               1.000000000               0.000002334              -0.000063485               1.000000000              -0.000000022               0.000000408               1.000000000               0.000000077               0.000000173               1.000000000              -0.000000038              -0.000000490               1.000000000              -0.000000014              -0.000001446               1.000000000               0.000000017              -0.000002961               1.000000000              -0.000000001              -0.000005082               1.000000000               0.000000000              -0.000007661               1.000000000              -0.000000016              -0.000010801               1.000000000              -0.000000024              -0.000014494               1.000000000              -0.000000020              -0.000018736               1.000000000              -0.000000014              -0.000023494               1.000000000              -0.000000012              -0.000028776               1.000000000              -0.000000004              -0.000034551               1.000000000               0.000000034              -0.000040881               1.000000000               0.000000136              -0.000047754               1.000000000               0.000000308              -0.000055238               1.000000000               0.000000543              -0.000063305               1.000000000              -0.000000026               0.000000421               1.000000000               0.000000065               0.000000136               1.000000000              -0.000000011              -0.000000594               1.000000000              -0.000000021              -0.000001669               1.000000000               0.000000012              -0.000003203               1.000000000               0.000000000              -0.000005359               1.000000000               0.000000006              -0.000008047               1.000000000               0.000000005              -0.000011175               1.000000000              -0.000000010              -0.000014873               1.000000000              -0.000000015              -0.000019092               1.000000000              -0.000000017              -0.000023838               1.000000000              -0.000000023              -0.000029109               1.000000000              -0.000000041              -0.000034883               1.000000000              -0.000000069              -0.000041170               1.000000000              -0.000000094              -0.000047971               1.000000000              -0.000000093              -0.000055316               1.000000000              -0.000000051              -0.000063204               1.000000000              -0.000000014               0.000000471               1.000000000               0.000000041               0.000000114               1.000000000               0.000000008              -0.000000687               1.000000000              -0.000000019              -0.000001840               1.000000000               0.000000011              -0.000003421               1.000000000               0.000000007              -0.000005555               1.000000000              -0.000000003              -0.000008280               1.000000000              -0.000000001              -0.000011437               1.000000000              -0.000000008              -0.000015134               1.000000000              -0.000000011              -0.000019336               1.000000000              -0.000000007              -0.000024063               1.000000000              -0.000000003              -0.000029302               1.000000000              -0.000000008              -0.000035068               1.000000000              -0.000000023              -0.000041329               1.000000000              -0.000000049              -0.000048098               1.000000000              -0.000000079              -0.000055365               1.000000000              -0.000000098              -0.000063152               1.000000000               0.000000003               0.000000475               1.000000000               0.000000009               0.000000116               1.000000000               0.000000005              -0.000000734               1.000000000              -0.000000022              -0.000001969               1.000000000              -0.000000000              -0.000003569               1.000000000              -0.000000002              -0.000005699               1.000000000              -0.000000006              -0.000008444               1.000000000               0.000000010              -0.000011616               1.000000000               0.000000019              -0.000015311               1.000000000               0.000000013              -0.000019509               1.000000000               0.000000004              -0.000024224               1.000000000               0.000000003              -0.000029439               1.000000000               0.000000013              -0.000035187               1.000000000               0.000000025              -0.000041428               1.000000000               0.000000034              -0.000048185               1.000000000               0.000000033              -0.000055433               1.000000000               0.000000023              -0.000063193               1.000000000               0.000000000               0.000000416               1.000000000               0.000000000               0.000000076               1.000000000              -0.000000000              -0.000000729               1.000000000              -0.000000000              -0.000001963               1.000000000               0.000000000              -0.000003590               1.000000000               0.000000000              -0.000005734               1.000000000              -0.000000000              -0.000008476               1.000000000               0.000000000              -0.000011651               1.000000000              -0.000000000              -0.000015360               1.000000000              -0.000000000              -0.000019582               1.000000000              -0.000000000              -0.000024307               1.000000000              -0.000000000              -0.000029503               1.000000000              -0.000000000              -0.000035221               1.000000000               0.000000000              -0.000041436               1.000000000               0.000000000              -0.000048182               1.000000000              -0.000000000              -0.000055431               1.000000000               0.000000000              -0.000063198               1.000000000               0.000000003              -0.000000000               1.000000000              -0.000000034              -0.000000000               1.000000000              -0.000000080               0.000000000               1.000000000              -0.000000046               0.000000000               1.000000000               0.000000033               0.000000000               1.000000000               0.000000101              -0.000000000               1.000000000               0.000000143               0.000000000               1.000000000               0.000000129               0.000000000               1.000000000               0.000000062              -0.000000000               1.000000000              -0.000000031              -0.000000000               1.000000000              -0.000000134               0.000000000               1.000000000              -0.000000219              -0.000000000               1.000000000              -0.000000253              -0.000000000               1.000000000              -0.000000217              -0.000000000               1.000000000              -0.000000129              -0.000000000               1.000000000              -0.000000038              -0.000000000               1.000000000               0.000000008              -0.000000000               1.000000000              -0.000000009              -0.000000023               1.000000000               0.000000021              -0.000000029               1.000000000               0.000000065              -0.000000045               1.000000000               0.000000047              -0.000000030               1.000000000              -0.000000008              -0.000000025               1.000000000              -0.000000055               0.000000025               1.000000000              -0.000000091               0.000000073               1.000000000              -0.000000101               0.000000105               1.000000000              -0.000000086               0.000000119               1.000000000              -0.000000060               0.000000103               1.000000000              -0.000000018               0.000000073               1.000000000               0.000000043               0.000000061               1.000000000               0.000000107               0.000000068               1.000000000               0.000000151               0.000000066               1.000000000               0.000000153               0.000000019               1.000000000               0.000000105              -0.000000083               1.000000000               0.000000021              -0.000000190               1.000000000               0.000000006              -0.000000046               1.000000000               0.000000004              -0.000000005               1.000000000              -0.000000016              -0.000000014               1.000000000              -0.000000033               0.000000020               1.000000000              -0.000000027               0.000000060               1.000000000              -0.000000025               0.000000067               1.000000000              -0.000000020               0.000000047               1.000000000               0.000000001              -0.000000003               1.000000000               0.000000040              -0.000000091               1.000000000               0.000000106              -0.000000179               1.000000000               0.000000190              -0.000000233               1.000000000               0.000000258              -0.000000275               1.000000000               0.000000268              -0.000000339               1.000000000               0.000000191              -0.000000458               1.000000000               0.000000039              -0.000000628               1.000000000              -0.000000126              -0.000000808               1.000000000              -0.000000215              -0.000000938               1.000000000               0.000000017              -0.000000045               1.000000000              -0.000000019               0.000000018               1.000000000              -0.000000032               0.000000058               1.000000000               0.000000010               0.000000071               1.000000000               0.000000022               0.000000048               1.000000000               0.000000034              -0.000000030               1.000000000               0.000000060              -0.000000133               1.000000000               0.000000078              -0.000000245               1.000000000               0.000000090              -0.000000309               1.000000000               0.000000086              -0.000000293               1.000000000               0.000000042              -0.000000235               1.000000000              -0.000000067              -0.000000187               1.000000000              -0.000000246              -0.000000179               1.000000000              -0.000000446              -0.000000185               1.000000000              -0.000000565              -0.000000102               1.000000000              -0.000000476               0.000000216               1.000000000              -0.000000049               0.000000927               1.000000000              -0.000000018               0.000000027               1.000000000               0.000000017               0.000000039               1.000000000               0.000000030               0.000000066               1.000000000              -0.000000006              -0.000000005               1.000000000              -0.000000008              -0.000000106               1.000000000               0.000000004              -0.000000206               1.000000000               0.000000013              -0.000000257               1.000000000               0.000000015              -0.000000198               1.000000000              -0.000000008               0.000000003               1.000000000              -0.000000061               0.000000313               1.000000000              -0.000000167               0.000000661               1.000000000              -0.000000312               0.000001013               1.000000000              -0.000000415               0.000001409               1.000000000              -0.000000347               0.000001988               1.000000000               0.000000033               0.000002937               1.000000000               0.000000841               0.000004449               1.000000000               0.000002152               0.000006702               1.000000000              -0.000000018               0.000000118               1.000000000               0.000000017               0.000000037               1.000000000              -0.000000005              -0.000000012               1.000000000              -0.000000003              -0.000000159               1.000000000               0.000000022              -0.000000225               1.000000000               0.000000008              -0.000000164               1.000000000              -0.000000020               0.000000096               1.000000000              -0.000000074               0.000000578               1.000000000              -0.000000124               0.000001264               1.000000000              -0.000000193               0.000002070               1.000000000              -0.000000254               0.000002940               1.000000000              -0.000000209               0.000003917               1.000000000               0.000000076               0.000005141               1.000000000               0.000000748               0.000006823               1.000000000               0.000001911               0.000009144               1.000000000               0.000003622               0.000012251               1.000000000               0.000005876               0.000016241               1.000000000               0.000000002               0.000000154               1.000000000              -0.000000008              -0.000000045               1.000000000               0.000000002              -0.000000152               1.000000000              -0.000000002              -0.000000199               1.000000000              -0.000000024              -0.000000041               1.000000000              -0.000000015               0.000000401               1.000000000              -0.000000056               0.000001169               1.000000000              -0.000000083               0.000002259               1.000000000              -0.000000111               0.000003618               1.000000000              -0.000000098               0.000005142               1.000000000               0.000000046               0.000006855               1.000000000               0.000000467               0.000008868               1.000000000               0.000001323               0.000011405               1.000000000               0.000002725               0.000014635               1.000000000               0.000004719               0.000018691               1.000000000               0.000007291               0.000023637               1.000000000               0.000010375               0.000029475               1.000000000               0.000000001               0.000000105               1.000000000              -0.000000027              -0.000000142               1.000000000               0.000000012              -0.000000211               1.000000000               0.000000001              -0.000000040               1.000000000               0.000000004               0.000000505               1.000000000              -0.000000033               0.000001549               1.000000000              -0.000000088               0.000003025               1.000000000              -0.000000091               0.000004953               1.000000000              -0.000000047               0.000007184               1.000000000               0.000000136               0.000009718               1.000000000               0.000000584               0.000012626               1.000000000               0.000001481               0.000016121               1.000000000               0.000002938               0.000020384               1.000000000               0.000005019               0.000025548               1.000000000               0.000007702               0.000031666               1.000000000               0.000010928               0.000038683               1.000000000               0.000014613               0.000046491               1.000000000               0.000000018              -0.000000034               1.000000000              -0.000000035              -0.000000175               1.000000000               0.000000021              -0.000000154               1.000000000               0.000000009               0.000000416               1.000000000              -0.000000015               0.000001573               1.000000000              -0.000000038               0.000003311               1.000000000              -0.000000052               0.000005682               1.000000000               0.000000000               0.000008552               1.000000000               0.000000149               0.000011916               1.000000000               0.000000527               0.000015762               1.000000000               0.000001305               0.000020289               1.000000000               0.000002645               0.000025664               1.000000000               0.000004607               0.000032066               1.000000000               0.000007182               0.000039537               1.000000000               0.000010291               0.000048057               1.000000000               0.000013843               0.000057494               1.000000000               0.000017707               0.000067638               1.000000000               0.000000043              -0.000000197               1.000000000              -0.000000025              -0.000000146               1.000000000               0.000000002              -0.000000059               1.000000000               0.000000026               0.000000662               1.000000000               0.000000004               0.000001932               1.000000000              -0.000000017               0.000003789               1.000000000              -0.000000061               0.000006265               1.000000000              -0.000000032               0.000009282               1.000000000               0.000000057               0.000012806               1.000000000               0.000000240               0.000016798               1.000000000               0.000000617               0.000021335               1.000000000               0.000001319               0.000026524               1.000000000               0.000002432               0.000032510               1.000000000               0.000003977               0.000039378               1.000000000               0.000005948               0.000047203               1.000000000               0.000008275               0.000055973               1.000000000               0.000010920               0.000065692               1.000000000               0.000000023              -0.000000312               1.000000000               0.000000013              -0.000000135               1.000000000              -0.000000030               0.000000108               1.000000000               0.000000030               0.000000915               1.000000000              -0.000000003               0.000002317               1.000000000              -0.000000009               0.000004252               1.000000000              -0.000000032               0.000006764               1.000000000              -0.000000031               0.000009868               1.000000000               0.000000008               0.000013498               1.000000000               0.000000089               0.000017631               1.000000000               0.000000233               0.000022267               1.000000000               0.000000519               0.000027448               1.000000000               0.000001034               0.000033253               1.000000000               0.000001819               0.000039775               1.000000000               0.000002882               0.000047053               1.000000000               0.000004218               0.000055166               1.000000000               0.000005808               0.000064099               1.000000000              -0.000000010              -0.000000377               1.000000000               0.000000055              -0.000000153               1.000000000              -0.000000050               0.000000320               1.000000000               0.000000021               0.000001160               1.000000000               0.000000024               0.000002655               1.000000000               0.000000007               0.000004693               1.000000000              -0.000000013               0.000007240               1.000000000              -0.000000035               0.000010389               1.000000000              -0.000000025               0.000014067               1.000000000               0.000000002               0.000018295               1.000000000               0.000000050               0.000023001               1.000000000               0.000000126               0.000028246               1.000000000               0.000000286               0.000034011               1.000000000               0.000000577               0.000040398               1.000000000               0.000001021               0.000047398               1.000000000               0.000001614               0.000055103               1.000000000               0.000002334               0.000063485               1.000000000              -0.000000022              -0.000000408               1.000000000               0.000000077              -0.000000173               1.000000000              -0.000000038               0.000000490               1.000000000              -0.000000014               0.000001446               1.000000000               0.000000017               0.000002961               1.000000000              -0.000000001               0.000005082               1.000000000               0.000000000               0.000007661               1.000000000              -0.000000016               0.000010801               1.000000000              -0.000000024               0.000014494               1.000000000              -0.000000020               0.000018736               1.000000000              -0.000000014               0.000023494               1.000000000              -0.000000012               0.000028776               1.000000000              -0.000000004               0.000034551               1.000000000               0.000000034               0.000040881               1.000000000               0.000000136               0.000047754               1.000000000               0.000000308               0.000055238               1.000000000               0.000000543               0.000063305               1.000000000              -0.000000026              -0.000000421               1.000000000               0.000000065              -0.000000136               1.000000000              -0.000000011               0.000000594               1.000000000              -0.000000021               0.000001669               1.000000000               0.000000012               0.000003203               1.000000000               0.000000000               0.000005359               1.000000000               0.000000006               0.000008047               1.000000000               0.000000005               0.000011175               1.000000000              -0.000000010               0.000014873               1.000000000              -0.000000015               0.000019092               1.000000000              -0.000000017               0.000023838               1.000000000              -0.000000023               0.000029109               1.000000000              -0.000000041               0.000034883               1.000000000              -0.000000069               0.000041170               1.000000000              -0.000000094               0.000047971               1.000000000              -0.000000093               0.000055316               1.000000000              -0.000000051               0.000063204               1.000000000              -0.000000014              -0.000000471               1.000000000               0.000000041              -0.000000114               1.000000000               0.000000008               0.000000687               1.000000000              -0.000000019               0.000001840               1.000000000               0.000000011               0.000003421               1.000000000               0.000000007               0.000005555               1.000000000              -0.000000003               0.000008280               1.000000000              -0.000000001               0.000011437               1.000000000              -0.000000008               0.000015134               1.000000000              -0.000000011               0.000019336               1.000000000              -0.000000007               0.000024063               1.000000000              -0.000000003               0.000029302               1.000000000              -0.000000008               0.000035068               1.000000000              -0.000000023               0.000041329               1.000000000              -0.000000049               0.000048098               1.000000000              -0.000000079               0.000055365               1.000000000              -0.000000098               0.000063152               1.000000000               0.000000003              -0.000000475               1.000000000               0.000000009              -0.000000116               1.000000000               0.000000005               0.000000734               1.000000000              -0.000000022               0.000001969               1.000000000              -0.000000000               0.000003569               1.000000000              -0.000000002               0.000005699               1.000000000              -0.000000006               0.000008444               1.000000000               0.000000010               0.000011616               1.000000000               0.000000019               0.000015311               1.000000000               0.000000013               0.000019509               1.000000000               0.000000004               0.000024224               1.000000000               0.000000003               0.000029439               1.000000000               0.000000013               0.000035187               1.000000000               0.000000025               0.000041428               1.000000000               0.000000034               0.000048185               1.000000000               0.000000033               0.000055433               1.000000000               0.000000023               0.000063193               1.000000000               0.000000000              -0.000000416               1.000000000              -0.000000000              -0.000000076               1.000000000               0.000000000               0.000000729               1.000000000              -0.000000000               0.000001963               1.000000000              -0.000000000               0.000003590               1.000000000              -0.000000000               0.000005734               1.000000000              -0.000000000               0.000008476               1.000000000              -0.000000000               0.000011651               1.000000000               0.000000000               0.000015360               1.000000000               0.000000000               0.000019582               1.000000000               0.000000000               0.000024307               1.000000000               0.000000000               0.000029503               1.000000000               0.000000000               0.000035221               1.000000000              -0.000000000               0.000041436               1.000000000              -0.000000000               0.000048182               1.000000000              -0.000000000               0.000055431               1.000000000              -0.000000000               0.000063198               1.000000000 </DataArray>
<DataArray type="Float64"                                    Name="defo"                                                      NumberOfComponents=" 3" format="ascii">
             -0.000000003               0.000000000               1.000000000               0.000000034               0.000000000               1.000000000               0.000000080              -0.000000000               1.000000000               0.000000046              -0.000000000               1.000000000              -0.000000033               0.000000000               1.000000000              -0.000000101               0.000000000               1.000000000              -0.000000143              -0.000000000               1.000000000              -0.000000129              -0.000000000               1.000000000              -0.000000062               0.000000000               1.000000000               0.000000031               0.000000000               1.000000000               0.000000134              -0.000000000               1.000000000               0.000000219              -0.000000000               1.000000000               0.000000253               0.000000000               1.000000000               0.000000217               0.000000000               1.000000000               0.000000129              -0.000000000               1.000000000               0.000000038              -0.000000000               1.000000000              -0.000000008               0.000000000               1.000000000               0.000000009              -0.000000023               1.000000000              -0.000000021              -0.000000029               1.000000000              -0.000000065              -0.000000045               1.000000000              -0.000000047              -0.000000030               1.000000000               0.000000008              -0.000000025               1.000000000               0.000000055               0.000000025               1.000000000               0.000000091               0.000000073               1.000000000               0.000000101               0.000000105               1.000000000               0.000000086               0.000000119               1.000000000               0.000000060               0.000000103               1.000000000               0.000000018               0.000000073               1.000000000              -0.000000043               0.000000061               1.000000000              -0.000000107               0.000000068               1.000000000              -0.000000151               0.000000066               1.000000000              -0.000000153               0.000000019               1.000000000              -0.000000105              -0.000000083               1.000000000              -0.000000021              -0.000000190               1.000000000              -0.000000006              -0.000000046               1.000000000              -0.000000004              -0.000000005               1.000000000               0.000000016              -0.000000014               1.000000000               0.000000033               0.000000020               1.000000000               0.000000027               0.000000060               1.000000000               0.000000025               0.000000067               1.000000000               0.000000020               0.000000047               1.000000000              -0.000000001              -0.000000003               1.000000000              -0.000000040              -0.000000091               1.000000000              -0.000000106              -0.000000179               1.000000000              -0.000000190              -0.000000233               1.000000000              -0.000000258              -0.000000275               1.000000000              -0.000000268              -0.000000339               1.000000000              -0.000000191              -0.000000458               1.000000000              -0.000000039              -0.000000628               1.000000000               0.000000126              -0.000000808               1.000000000               0.000000215              -0.000000938               1.000000000              -0.000000017              -0.000000045               1.000000000               0.000000019               0.000000018               1.000000000               0.000000032               0.000000058               1.000000000              -0.000000010               0.000000071               1.000000000              -0.000000022               0.000000048               1.000000000              -0.000000034              -0.000000030               1.000000000              -0.000000060              -0.000000133               1.000000000              -0.000000078              -0.000000245               1.000000000              -0.000000090              -0.000000309               1.000000000              -0.000000086              -0.000000293               1.000000000              -0.000000042              -0.000000235               1.000000000               0.000000067              -0.000000187               1.000000000               0.000000246              -0.000000179               1.000000000               0.000000446              -0.000000185               1.000000000               0.000000565              -0.000000102               1.000000000               0.000000476               0.000000216               1.000000000               0.000000049               0.000000927               1.000000000               0.000000018               0.000000027               1.000000000              -0.000000017               0.000000039               1.000000000              -0.000000030               0.000000066               1.000000000               0.000000006              -0.000000005               1.000000000               0.000000008              -0.000000106               1.000000000              -0.000000004              -0.000000206               1.000000000              -0.000000013              -0.000000257               1.000000000              -0.000000015              -0.000000198               1.000000000               0.000000008               0.000000003               1.000000000               0.000000061               0.000000313               1.000000000               0.000000167               0.000000661               1.000000000               0.000000312               0.000001013               1.000000000               0.000000415               0.000001409               1.000000000               0.000000347               0.000001988               1.000000000              -0.000000033               0.000002937               1.000000000              -0.000000841               0.000004449               1.000000000              -0.000002152               0.000006702               1.000000000               0.000000018               0.000000118               1.000000000              -0.000000017               0.000000037               1.000000000               0.000000005              -0.000000012               1.000000000               0.000000003              -0.000000159               1.000000000              -0.000000022              -0.000000225               1.000000000              -0.000000008              -0.000000164               1.000000000               0.000000020               0.000000096               1.000000000               0.000000074               0.000000578               1.000000000               0.000000124               0.000001264               1.000000000               0.000000193               0.000002070               1.000000000               0.000000254               0.000002940               1.000000000               0.000000209               0.000003917               1.000000000              -0.000000076               0.000005141               1.000000000              -0.000000748               0.000006823               1.000000000              -0.000001911               0.000009144               1.000000000              -0.000003622               0.000012251               1.000000000              -0.000005876               0.000016241               1.000000000              -0.000000002               0.000000154               1.000000000               0.000000008              -0.000000045               1.000000000              -0.000000002              -0.000000152               1.000000000               0.000000002              -0.000000199               1.000000000               0.000000024              -0.000000041               1.000000000               0.000000015               0.000000401               1.000000000               0.000000056               0.000001169               1.000000000               0.000000083               0.000002259               1.000000000               0.000000111               0.000003618               1.000000000               0.000000098               0.000005142               1.000000000              -0.000000046               0.000006855               1.000000000              -0.000000467               0.000008868               1.000000000              -0.000001323               0.000011405               1.000000000              -0.000002725               0.000014635               1.000000000              -0.000004719               0.000018691               1.000000000              -0.000007291               0.000023637               1.000000000              -0.000010375               0.000029475               1.000000000              -0.000000001               0.000000105               1.000000000               0.000000027              -0.000000142               1.000000000              -0.000000012              -0.000000211               1.000000000              -0.000000001              -0.000000040               1.000000000              -0.000000004               0.000000505               1.000000000               0.000000033               0.000001549               1.000000000               0.000000088               0.000003025               1.000000000               0.000000091               0.000004953               1.000000000               0.000000047               0.000007184               1.000000000              -0.000000136               0.000009718               1.000000000              -0.000000584               0.000012626               1.000000000              -0.000001481               0.000016121               1.000000000              -0.000002938               0.000020384               1.000000000              -0.000005019               0.000025548               1.000000000              -0.000007702               0.000031666               1.000000000              -0.000010928               0.000038683               1.000000000              -0.000014613               0.000046491               1.000000000              -0.000000018              -0.000000034               1.000000000               0.000000035              -0.000000175               1.000000000              -0.000000021              -0.000000154               1.000000000              -0.000000009               0.000000416               1.000000000               0.000000015               0.000001573               1.000000000               0.000000038               0.000003311               1.000000000               0.000000052               0.000005682               1.000000000              -0.000000000               0.000008552               1.000000000              -0.000000149               0.000011916               1.000000000              -0.000000527               0.000015762               1.000000000              -0.000001305               0.000020289               1.000000000              -0.000002645               0.000025664               1.000000000              -0.000004607               0.000032066               1.000000000              -0.000007182               0.000039537               1.000000000              -0.000010291               0.000048057               1.000000000              -0.000013843               0.000057494               1.000000000              -0.000017707               0.000067638               1.000000000              -0.000000043              -0.000000197               1.000000000               0.000000025              -0.000000146               1.000000000              -0.000000002              -0.000000059               1.000000000              -0.000000026               0.000000662               1.000000000              -0.000000004               0.000001932               1.000000000               0.000000017               0.000003789               1.000000000               0.000000061               0.000006265               1.000000000               0.000000032               0.000009282               1.000000000              -0.000000057               0.000012806               1.000000000              -0.000000240               0.000016798               1.000000000              -0.000000617               0.000021335               1.000000000              -0.000001319               0.000026524               1.000000000              -0.000002432               0.000032510               1.000000000              -0.000003977               0.000039378               1.000000000              -0.000005948               0.000047203               1.000000000              -0.000008275               0.000055973               1.000000000              -0.000010920               0.000065692               1.000000000              -0.000000023              -0.000000312               1.000000000              -0.000000013              -0.000000135               1.000000000               0.000000030               0.000000108               1.000000000              -0.000000030               0.000000915               1.000000000               0.000000003               0.000002317               1.000000000               0.000000009               0.000004252               1.000000000               0.000000032               0.000006764               1.000000000               0.000000031               0.000009868               1.000000000              -0.000000008               0.000013498               1.000000000              -0.000000089               0.000017631               1.000000000              -0.000000233               0.000022267               1.000000000              -0.000000519               0.000027448               1.000000000              -0.000001034               0.000033253               1.000000000              -0.000001819               0.000039775               1.000000000              -0.000002882               0.000047053               1.000000000              -0.000004218               0.000055166               1.000000000              -0.000005808               0.000064099               1.000000000               0.000000010              -0.000000377               1.000000000              -0.000000055              -0.000000153               1.000000000               0.000000050               0.000000320               1.000000000              -0.000000021               0.000001160               1.000000000              -0.000000024               0.000002655               1.000000000              -0.000000007               0.000004693               1.000000000               0.000000013               0.000007240               1.000000000               0.000000035               0.000010389               1.000000000               0.000000025               0.000014067               1.000000000              -0.000000002               0.000018295               1.000000000              -0.000000050               0.000023001               1.000000000              -0.000000126               0.000028246               1.000000000              -0.000000286               0.000034011               1.000000000              -0.000000577               0.000040398               1.000000000              -0.000001021               0.000047398               1.000000000              -0.000001614               0.000055103               1.000000000              -0.000002334               0.000063485               1.000000000               0.000000022              -0.000000408               1.000000000              -0.000000077              -0.000000173               1.000000000               0.000000038               0.000000490               1.000000000               0.000000014               0.000001446               1.000000000              -0.000000017               0.000002961               1.000000000               0.000000001               0.000005082               1.000000000              -0.000000000               0.000007661               1.000000000               0.000000016               0.000010801               1.000000000               0.000000024               0.000014494               1.000000000               0.000000020               0.000018736               1.000000000               0.000000014               0.000023494               1.000000000               0.000000012               0.000028776               1.000000000               0.000000004               0.000034551               1.000000000              -0.000000034               0.000040881               1.000000000              -0.000000136               0.000047754               1.000000000              -0.000000308               0.000055238               1.000000000              -0.000000543               0.000063305               1.000000000               0.000000026              -0.000000421               1.000000000              -0.000000065              -0.000000136               1.000000000               0.000000011               0.000000594               1.000000000               0.000000021               0.000001669               1.000000000              -0.000000012               0.000003203               1.000000000              -0.000000000               0.000005359               1.000000000              -0.000000006               0.000008047               1.000000000              -0.000000005               0.000011175               1.000000000               0.000000010               0.000014873               1.000000000               0.000000015               0.000019092               1.000000000               0.000000017               0.000023838               1.000000000               0.000000023               0.000029109               1.000000000               0.000000041               0.000034883               1.000000000               0.000000069               0.000041170               1.000000000               0.000000094               0.000047971               1.000000000               0.000000093               0.000055316               1.000000000               0.000000051               0.000063204               1.000000000               0.000000014              -0.000000471               1.000000000              -0.000000041              -0.000000114               1.000000000              -0.000000008               0.000000687               1.000000000               0.000000019               0.000001840               1.000000000              -0.000000011               0.000003421               1.000000000              -0.000000007               0.000005555               1.000000000               0.000000003               0.000008280               1.000000000               0.000000001               0.000011437               1.000000000               0.000000008               0.000015134               1.000000000               0.000000011               0.000019336               1.000000000               0.000000007               0.000024063               1.000000000               0.000000003               0.000029302               1.000000000               0.000000008               0.000035068               1.000000000               0.000000023               0.000041329               1.000000000               0.000000049               0.000048098               1.000000000               0.000000079               0.000055365               1.000000000               0.000000098               0.000063152               1.000000000              -0.000000003              -0.000000475               1.000000000              -0.000000009              -0.000000116               1.000000000              -0.000000005               0.000000734               1.000000000               0.000000022               0.000001969               1.000000000               0.000000000               0.000003569               1.000000000               0.000000002               0.000005699               1.000000000               0.000000006               0.000008444               1.000000000              -0.000000010               0.000011616               1.000000000              -0.000000019               0.000015311               1.000000000              -0.000000013               0.000019509               1.000000000              -0.000000004               0.000024224               1.000000000              -0.000000003               0.000029439               1.000000000              -0.000000013               0.000035187               1.000000000              -0.000000025               0.000041428               1.000000000              -0.000000034               0.000048185               1.000000000              -0.000000033               0.000055433               1.000000000              -0.000000023               0.000063193               1.000000000               0.000000000              -0.000000416               1.000000000              -0.000000000              -0.000000076               1.000000000               0.000000000               0.000000729               1.000000000              -0.000000000               0.000001963               1.000000000              -0.000000000               0.000003590               1.000000000              -0.000000000               0.000005734               1.000000000              -0.000000000               0.000008476               1.000000000              -0.000000000               0.000011651               1.000000000               0.000000000               0.000015360               1.000000000               0.000000000               0.000019582               1.000000000               0.000000000               0.000024307               1.000000000               0.000000000               0.000029503               1.000000000               0.000000000               0.000035221               1.000000000              -0.000000000               0.000041436               1.000000000              -0.000000000               0.000048182               1.000000000              -0.000000000               0.000055431               1.000000000              -0.000000000               0.000063198               1.000000000              -0.000000003               0.000000000               1.000000000               0.000000034               0.000000000               1.000000000               0.000000080              -0.000000000               1.000000000               0.000000046              -0.000000000               1.000000000              -0.000000033               0.000000000               1.000000000              -0.000000101               0.000000000               1.000000000              -0.000000143              -0.000000000               1.000000000              -0.000000129              -0.000000000               1.000000000              -0.000000062               0.000000000               1.000000000               0.000000031               0.000000000               1.000000000               0.000000134              -0.000000000               1.000000000               0.000000219              -0.000000000               1.000000000               0.000000253               0.000000000               1.000000000               0.000000217               0.000000000               1.000000000               0.000000129              -0.000000000               1.000000000               0.000000038              -0.000000000               1.000000000              -0.000000008               0.000000000               1.000000000               0.000000009               0.000000023               1.000000000              -0.000000021               0.000000029               1.000000000              -0.000000065               0.000000045               1.000000000              -0.000000047               0.000000030               1.000000000               0.000000008               0.000000025               1.000000000               0.000000055              -0.000000025               1.000000000               0.000000091              -0.000000073               1.000000000               0.000000101              -0.000000105               1.000000000               0.000000086              -0.000000119               1.000000000               0.000000060              -0.000000103               1.000000000               0.000000018              -0.000000073               1.000000000              -0.000000043              -0.000000061               1.000000000              -0.000000107              -0.000000068               1.000000000              -0.000000151              -0.000000066               1.000000000              -0.000000153              -0.000000019               1.000000000              -0.000000105               0.000000083               1.000000000              -0.000000021               0.000000190               1.000000000              -0.000000006               0.000000046               1.000000000              -0.000000004               0.000000005               1.000000000               0.000000016               0.000000014               1.000000000               0.000000033              -0.000000020               1.000000000               0.000000027              -0.000000060               1.000000000               0.000000025              -0.000000067               1.000000000               0.000000020              -0.000000047               1.000000000              -0.000000001               0.000000003               1.000000000              -0.000000040               0.000000091               1.000000000              -0.000000106               0.000000179               1.000000000              -0.000000190               0.000000233               1.000000000              -0.000000258               0.000000275               1.000000000              -0.000000268               0.000000339               1.000000000              -0.000000191               0.000000458               1.000000000              -0.000000039               0.000000628               1.000000000               0.000000126               0.000000808               1.000000000               0.000000215               0.000000938               1.000000000              -0.000000017               0.000000045               1.000000000               0.000000019              -0.000000018               1.000000000               0.000000032              -0.000000058               1.000000000              -0.000000010              -0.000000071               1.000000000              -0.000000022              -0.000000048               1.000000000              -0.000000034               0.000000030               1.000000000              -0.000000060               0.000000133               1.000000000              -0.000000078               0.000000245               1.000000000              -0.000000090               0.000000309               1.000000000              -0.000000086               0.000000293               1.000000000              -0.000000042               0.000000235               1.000000000               0.000000067               0.000000187               1.000000000               0.000000246               0.000000179               1.000000000               0.000000446               0.000000185               1.000000000               0.000000565               0.000000102               1.000000000               0.000000476              -0.000000216               1.000000000               0.000000049              -0.000000927               1.000000000               0.000000018              -0.000000027               1.000000000              -0.000000017              -0.000000039               1.000000000              -0.000000030              -0.000000066               1.000000000               0.000000006               0.000000005               1.000000000               0.000000008               0.000000106               1.000000000              -0.000000004               0.000000206               1.000000000              -0.000000013               0.000000257               1.000000000              -0.000000015               0.000000198               1.000000000               0.000000008              -0.000000003               1.000000000               0.000000061              -0.000000313               1.000000000               0.000000167              -0.000000661               1.000000000               0.000000312              -0.000001013               1.000000000               0.000000415              -0.000001409               1.000000000               0.000000347              -0.000001988               1.000000000              -0.000000033              -0.000002937               1.000000000              -0.000000841              -0.000004449               1.000000000              -0.000002152              -0.000006702               1.000000000               0.000000018              -0.000000118               1.000000000              -0.000000017              -0.000000037               1.000000000               0.000000005               0.000000012               1.000000000               0.000000003               0.000000159               1.000000000              -0.000000022               0.000000225               1.000000000              -0.000000008               0.000000164               1.000000000               0.000000020              -0.000000096               1.000000000               0.000000074              -0.000000578               1.000000000               0.000000124              -0.000001264               1.000000000               0.000000193              -0.000002070               1.000000000               0.000000254              -0.000002940               1.000000000               0.000000209              -0.000003917               1.000000000              -0.000000076              -0.000005141               1.000000000              -0.000000748              -0.000006823               1.000000000              -0.000001911              -0.000009144               1.000000000              -0.000003622              -0.000012251               1.000000000              -0.000005876              -0.000016241               1.000000000              -0.000000002              -0.000000154               1.000000000               0.000000008               0.000000045               1.000000000              -0.000000002               0.000000152               1.000000000               0.000000002               0.000000199               1.000000000               0.000000024               0.000000041               1.000000000               0.000000015              -0.000000401               1.000000000               0.000000056              -0.000001169               1.000000000               0.000000083              -0.000002259               1.000000000               0.000000111              -0.000003618               1.000000000               0.000000098              -0.000005142               1.000000000              -0.000000046              -0.000006855               1.000000000              -0.000000467              -0.000008868               1.000000000              -0.000001323              -0.000011405               1.000000000              -0.000002725              -0.000014635               1.000000000              -0.000004719              -0.000018691               1.000000000              -0.000007291              -0.000023637               1.000000000              -0.000010375              -0.000029475               1.000000000              -0.000000001              -0.000000105               1.000000000               0.000000027               0.000000142               1.000000000              -0.000000012               0.000000211               1.000000000              -0.000000001               0.000000040               1.000000000              -0.000000004              -0.000000505               1.000000000               0.000000033              -0.000001549               1.000000000               0.000000088              -0.000003025               1.000000000               0.000000091              -0.000004953               1.000000000               0.000000047              -0.000007184               1.000000000              -0.000000136              -0.000009718               1.000000000              -0.000000584              -0.000012626               1.000000000              -0.000001481              -0.000016121               1.000000000              -0.000002938              -0.000020384               1.000000000              -0.000005019              -0.000025548               1.000000000              -0.000007702              -0.000031666               1.000000000              -0.000010928              -0.000038683               1.000000000              -0.000014613              -0.000046491               1.000000000              -0.000000018               0.000000034               1.000000000               0.000000035               0.000000175               1.000000000              -0.000000021               0.000000154               1.000000000              -0.000000009              -0.000000416               1.000000000               0.000000015              -0.000001573               1.000000000               0.000000038              -0.000003311               1.000000000               0.000000052              -0.000005682               1.000000000              -0.000000000              -0.000008552               1.000000000              -0.000000149              -0.000011916               1.000000000              -0.000000527              -0.000015762               1.000000000              -0.000001305              -0.000020289               1.000000000              -0.000002645              -0.000025664               1.000000000              -0.000004607              -0.000032066               1.000000000              -0.000007182              -0.000039537               1.000000000              -0.000010291              -0.000048057               1.000000000              -0.000013843              -0.000057494               1.000000000              -0.000017707              -0.000067638               1.000000000              -0.000000043               0.000000197               1.000000000               0.000000025               0.000000146               1.000000000              -0.000000002               0.000000059               1.000000000              -0.000000026              -0.000000662               1.000000000              -0.000000004              -0.000001932               1.000000000               0.000000017              -0.000003789               1.000000000               0.000000061              -0.000006265               1.000000000               0.000000032              -0.000009282               1.000000000              -0.000000057              -0.000012806               1.000000000              -0.000000240              -0.000016798               1.000000000              -0.000000617              -0.000021335               1.000000000              -0.000001319              -0.000026524               1.000000000              -0.000002432              -0.000032510               1.000000000              -0.000003977              -0.000039378               1.000000000              -0.000005948              -0.000047203               1.000000000              -0.000008275              -0.000055973               1.000000000              -0.000010920              -0.000065692               1.000000000              -0.000000023               0.000000312               1.000000000              -0.000000013               0.000000135               1.000000000               0.000000030              -0.000000108               1.000000000              -0.000000030              -0.000000915               1.000000000               0.000000003              -0.000002317               1.000000000               0.000000009              -0.000004252               1.000000000               0.000000032              -0.000006764               1.000000000               0.000000031              -0.000009868               1.000000000              -0.000000008              -0.000013498               1.000000000              -0.000000089              -0.000017631               1.000000000              -0.000000233              -0.000022267               1.000000000              -0.000000519              -0.000027448               1.000000000              -0.000001034              -0.000033253               1.000000000              -0.000001819              -0.000039775               1.000000000              -0.000002882              -0.000047053               1.000000000              -0.000004218              -0.000055166               1.000000000              -0.000005808              -0.000064099               1.000000000               0.000000010               0.000000377               1.000000000              -0.000000055               0.000000153               1.000000000               0.000000050              -0.000000320               1.000000000              -0.000000021              -0.000001160               1.000000000              -0.000000024              -0.000002655               1.000000000              -0.000000007              -0.000004693               1.000000000               0.000000013              -0.000007240               1.000000000               0.000000035              -0.000010389               1.000000000               0.000000025              -0.000014067               1.000000000              -0.000000002              -0.000018295               1.000000000              -0.000000050              -0.000023001               1.000000000              -0.000000126              -0.000028246               1.000000000              -0.000000286              -0.000034011               1.000000000              -0.000000577              -0.000040398               1.000000000              -0.000001021              -0.000047398               1.000000000              -0.000001614              -0.000055103               1.000000000              -0.000002334              -0.000063485               1.000000000               0.000000022               0.000000408               1.000000000              -0.000000077               0.000000173               1.000000000               0.000000038              -0.000000490               1.000000000               0.000000014              -0.000001446               1.000000000              -0.000000017              -0.000002961               1.000000000               0.000000001              -0.000005082               1.000000000              -0.000000000              -0.000007661               1.000000000               0.000000016              -0.000010801               1.000000000               0.000000024              -0.000014494               1.000000000               0.000000020              -0.000018736               1.000000000               0.000000014              -0.000023494               1.000000000               0.000000012              -0.000028776               1.000000000               0.000000004              -0.000034551               1.000000000              -0.000000034              -0.000040881               1.000000000              -0.000000136              -0.000047754               1.000000000              -0.000000308              -0.000055238               1.000000000              -0.000000543              -0.000063305               1.000000000               0.000000026               0.000000421               1.000000000              -0.000000065               0.000000136               1.000000000               0.000000011              -0.000000594               1.000000000               0.000000021              -0.000001669               1.000000000              -0.000000012              -0.000003203               1.000000000              -0.000000000              -0.000005359               1.000000000              -0.000000006              -0.000008047               1.000000000              -0.000000005              -0.000011175               1.000000000               0.000000010              -0.000014873               1.000000000               0.000000015              -0.000019092               1.000000000               0.000000017              -0.000023838               1.000000000               0.000000023              -0.000029109               1.000000000               0.000000041              -0.000034883               1.000000000               0.000000069              -0.000041170               1.000000000               0.000000094              -0.000047971               1.000000000               0.000000093              -0.000055316               1.000000000               0.000000051              -0.000063204               1.000000000               0.000000014               0.000000471               1.000000000              -0.000000041               0.000000114               1.000000000              -0.000000008              -0.000000687               1.000000000               0.000000019              -0.000001840               1.000000000              -0.000000011              -0.000003421               1.000000000              -0.000000007              -0.000005555               1.000000000               0.000000003              -0.000008280               1.000000000               0.000000001              -0.000011437               1.000000000               0.000000008              -0.000015134               1.000000000               0.000000011              -0.000019336               1.000000000               0.000000007              -0.000024063               1.000000000               0.000000003              -0.000029302               1.000000000               0.000000008              -0.000035068               1.000000000               0.000000023              -0.000041329               1.000000000               0.000000049              -0.000048098               1.000000000               0.000000079              -0.000055365               1.000000000               0.000000098              -0.000063152               1.000000000              -0.000000003               0.000000475               1.000000000              -0.000000009               0.000000116               1.000000000              -0.000000005              -0.000000734               1.000000000               0.000000022              -0.000001969               1.000000000               0.000000000              -0.000003569               1.000000000               0.000000002              -0.000005699               1.000000000               0.000000006              -0.000008444               1.000000000              -0.000000010              -0.000011616               1.000000000              -0.000000019              -0.000015311               1.000000000              -0.000000013              -0.000019509               1.000000000              -0.000000004              -0.000024224               1.000000000              -0.000000003              -0.000029439               1.000000000              -0.000000013              -0.000035187               1.000000000              -0.000000025              -0.000041428               1.000000000              -0.000000034              -0.000048185               1.000000000              -0.000000033              -0.000055433               1.000000000              -0.000000023              -0.000063193               1.000000000               0.000000000               0.000000416               1.000000000               0.000000000               0.000000076               1.000000000              -0.000000000              -0.000000729               1.000000000              -0.000000000              -0.000001963               1.000000000               0.000000000              -0.000003590               1.000000000               0.000000000              -0.000005734               1.000000000              -0.000000000              -0.000008476               1.000000000               0.000000000              -0.000011651               1.000000000              -0.000000000              -0.000015360               1.000000000              -0.000000000              -0.000019582               1.000000000              -0.000000000              -0.000024307               1.000000000              -0.000000000              -0.000029503               1.000000000              -0.000000000              -0.000035221               1.000000000               0.000000000              -0.000041436               1.000000000               0.000000000              -0.000048182               1.000000000              -0.000000000              -0.000055431               1.000000000               0.000000000              -0.000063198               1.000000000               0.000000003              -0.000000000               1.000000000              -0.000000034              -0.000000000               1.000000000              -0.000000080               0.000000000               1.000000000              -0.000000046               0.000000000               1.000000000               0.000000033               0.000000000               1.000000000               0.000000101              -0.000000000               1.000000000               0.000000143               0.000000000               1.000000000               0.000000129               0.000000000               1.000000000               0.000000062              -0.000000000               1.000000000              -0.000000031              -0.000000000               1.000000000              -0.000000134               0.000000000               1.000000000              -0.000000219              -0.000000000               1.000000000              -0.000000253              -0.000000000               1.000000000              -0.000000217              -0.000000000               1.000000000              -0.000000129              -0.000000000               1.000000000              -0.000000038              -0.000000000               1.000000000               0.000000008              -0.000000000               1.000000000              -0.000000009               0.000000023               1.000000000               0.000000021               0.000000029               1.000000000               0.000000065               0.000000045               1.000000000               0.000000047               0.000000030               1.000000000              -0.000000008               0.000000025               1.000000000              -0.000000055              -0.000000025               1.000000000              -0.000000091              -0.000000073               1.000000000              -0.000000101              -0.000000105               1.000000000              -0.000000086              -0.000000119               1.000000000              -0.000000060              -0.000000103               1.000000000              -0.000000018              -0.000000073               1.000000000               0.000000043              -0.000000061               1.000000000               0.000000107              -0.000000068               1.000000000               0.000000151              -0.000000066               1.000000000               0.000000153              -0.000000019               1.000000000               0.000000105               0.000000083               1.000000000               0.000000021               0.000000190               1.000000000               0.000000006               0.000000046               1.000000000               0.000000004               0.000000005               1.000000000              -0.000000016               0.000000014               1.000000000              -0.000000033              -0.000000020               1.000000000              -0.000000027              -0.000000060               1.000000000              -0.000000025              -0.000000067               1.000000000              -0.000000020              -0.000000047               1.000000000               0.000000001               0.000000003               1.000000000               0.000000040               0.000000091               1.000000000               0.000000106               0.000000179               1.000000000               0.000000190               0.000000233               1.000000000               0.000000258               0.000000275               1.000000000               0.000000268               0.000000339               1.000000000               0.000000191               0.000000458               1.000000000               0.000000039               0.000000628               1.000000000              -0.000000126               0.000000808               1.000000000              -0.000000215               0.000000938               1.000000000               0.000000017               0.000000045               1.000000000              -0.000000019              -0.000000018               1.000000000              -0.000000032              -0.000000058               1.000000000               0.000000010              -0.000000071               1.000000000               0.000000022              -0.000000048               1.000000000               0.000000034               0.000000030               1.000000000               0.000000060               0.000000133               1.000000000               0.000000078               0.000000245               1.000000000               0.000000090               0.000000309               1.000000000               0.000000086               0.000000293               1.000000000               0.000000042               0.000000235               1.000000000              -0.000000067               0.000000187               1.000000000              -0.000000246               0.000000179               1.000000000              -0.000000446               0.000000185               1.000000000              -0.000000565               0.000000102               1.000000000              -0.000000476              -0.000000216               1.000000000              -0.000000049              -0.000000927               1.000000000              -0.000000018              -0.000000027               1.000000000               0.000000017              -0.000000039               1.000000000               0.000000030              -0.000000066               1.000000000              -0.000000006               0.000000005               1.000000000              -0.000000008               0.000000106               1.000000000               0.000000004               0.000000206               1.000000000               0.000000013               0.000000257               1.000000000               0.000000015               0.000000198               1.000000000              -0.000000008              -0.000000003               1.000000000              -0.000000061              -0.000000313               1.000000000              -0.000000167              -0.000000661               1.000000000              -0.000000312              -0.000001013               1.000000000              -0.000000415              -0.000001409               1.000000000              -0.000000347              -0.000001988               1.000000000               0.000000033              -0.000002937               1.000000000               0.000000841              -0.000004449               1.000000000               0.000002152              -0.000006702               1.000000000              -0.000000018              -0.000000118               1.000000000               0.000000017              -0.000000037               1.000000000              -0.000000005               0.000000012               1.000000000              -0.000000003               0.000000159               1.000000000               0.000000022               0.000000225               1.000000000               0.000000008               0.000000164               1.000000000              -0.000000020              -0.000000096               1.000000000              -0.000000074              -0.000000578               1.000000000              -0.000000124              -0.000001264               1.000000000              -0.000000193              -0.000002070               1.000000000              -0.000000254              -0.000002940               1.000000000              -0.000000209              -0.000003917               1.000000000               0.000000076              -0.000005141               1.000000000               0.000000748              -0.000006823               1.000000000               0.000001911              -0.000009144               1.000000000               0.000003622              -0.000012251               1.000000000               0.000005876              -0.000016241               1.000000000               0.000000002              -0.000000154               1.000000000              -0.000000008               0.000000045               1.000000000               0.000000002               0.000000152               1.000000000              -0.000000002               0.000000199               1.000000000              -0.000000024               0.000000041               1.000000000              -0.000000015              -0.000000401               1.000000000              -0.000000056              -0.000001169               1.000000000              -0.000000083              -0.000002259               1.000000000              -0.000000111              -0.000003618               1.000000000              -0.000000098              -0.000005142               1.000000000               0.000000046              -0.000006855               1.000000000               0.000000467              -0.000008868               1.000000000               0.000001323              -0.000011405               1.000000000               0.000002725              -0.000014635               1.000000000               0.000004719              -0.000018691               1.000000000               0.000007291              -0.000023637               1.000000000               0.000010375              -0.000029475               1.000000000               0.000000001              -0.000000105               1.000000000              -0.000000027               0.000000142               1.000000000               0.000000012               0.000000211               1.000000000               0.000000001               0.000000040               1.000000000               0.000000004              -0.000000505               1.000000000              -0.000000033              -0.000001549               1.000000000              -0.000000088              -0.000003025               1.000000000              -0.000000091              -0.000004953               1.000000000              -0.000000047              -0.000007184               1.000000000               0.000000136              -0.000009718               1.000000000               0.000000584              -0.000012626               1.000000000               0.000001481              -0.000016121               1.000000000               0.000002938              -0.000020384               1.000000000               0.000005019              -0.000025548               1.000000000               0.000007702              -0.000031666               1.000000000               0.000010928              -0.000038683               1.000000000               0.000014613              -0.000046491               1.000000000               0.000000018               0.000000034               1.000000000              -0.000000035               0.000000175               1.000000000               0.000000021               0.000000154               1.000000000               0.000000009              -0.000000416               1.000000000              -0.000000015              -0.000001573               1.000000000              -0.000000038              -0.000003311               1.000000000              -0.000000052              -0.000005682               1.000000000               0.000000000              -0.000008552               1.000000000               0.000000149              -0.000011916               1.000000000               0.000000527              -0.000015762               1.000000000               0.000001305              -0.000020289               1.000000000               0.000002645              -0.000025664               1.000000000               0.000004607              -0.000032066               1.000000000               0.000007182              -0.000039537               1.000000000               0.000010291              -0.000048057               1.000000000               0.000013843              -0.000057494               1.000000000               0.000017707              -0.000067638               1.000000000               0.000000043               0.000000197               1.000000000              -0.000000025               0.000000146               1.000000000               0.000000002               0.000000059               1.000000000               0.000000026              -0.000000662               1.000000000               0.000000004              -0.000001932               1.000000000              -0.000000017              -0.000003789               1.000000000              -0.000000061              -0.000006265               1.000000000              -0.000000032              -0.000009282               1.000000000               0.000000057              -0.000012806               1.000000000               0.000000240              -0.000016798               1.000000000               0.000000617              -0.000021335               1.000000000               0.000001319              -0.000026524               1.000000000               0.000002432              -0.000032510               1.000000000               0.000003977              -0.000039378               1.000000000               0.000005948              -0.000047203               1.000000000               0.000008275              -0.000055973               1.000000000               0.000010920              -0.000065692               1.000000000               0.000000023               0.000000312               1.000000000               0.000000013               0.000000135               1.000000000              -0.000000030              -0.000000108               1.000000000               0.000000030              -0.000000915               1.000000000              -0.000000003              -0.000002317               1.000000000              -0.000000009              -0.000004252               1.000000000              -0.000000032              -0.000006764               1.000000000              -0.000000031              -0.000009868               1.000000000               0.000000008              -0.000013498               1.000000000               0.000000089              -0.000017631               1.000000000               0.000000233              -0.000022267               1.000000000               0.000000519              -0.000027448               1.000000000               0.000001034              -0.000033253               1.000000000               0.000001819              -0.000039775               1.000000000               0.000002882              -0.000047053               1.000000000               0.000004218              -0.000055166               1.000000000               0.000005808              -0.000064099               1.000000000              -0.000000010               0.000000377               1.000000000               0.000000055               0.000000153               1.000000000              -0.000000050              -0.000000320               1.000000000               0.000000021              -0.000001160               1.000000000               0.000000024              -0.000002655               1.000000000               0.000000007              -0.000004693               1.000000000              -0.000000013              -0.000007240               1.000000000              -0.000000035              -0.000010389               1.000000000              -0.000000025              -0.000014067               1.000000000               0.000000002              -0.000018295               1.000000000               0.000000050              -0.000023001               1.000000000               0.000000126              -0.000028246               1.000000000               0.000000286              -0.000034011               1.000000000               0.000000577              -0.000040398               1.000000000               0.000001021              -0.000047398               1.000000000               0.000001614              -0.000055103               1.000000000               0.000002334              -0.000063485               1.000000000              -0.000000022               0.000000408               1.000000000               0.000000077               0.000000173               1.000000000              -0.000000038              -0.000000490               1.000000000              -0.000000014              -0.000001446               1.000000000               0.000000017              -0.000002961               1.000000000              -0.000000001              -0.000005082               1.000000000               0.000000000              -0.000007661               1.000000000              -0.000000016              -0.000010801               1.000000000              -0.000000024              -0.000014494               1.000000000              -0.000000020              -0.000018736               1.000000000              -0.000000014              -0.000023494               1.000000000              -0.000000012              -0.000028776               1.000000000              -0.000000004              -0.000034551               1.000000000               0.000000034              -0.000040881               1.000000000               0.000000136              -0.000047754               1.000000000               0.000000308              -0.000055238               1.000000000               0.000000543              -0.000063305               1.000000000              -0.000000026               0.000000421               1.000000000               0.000000065               0.000000136               1.000000000              -0.000000011              -0.000000594               1.000000000              -0.000000021              -0.000001669               1.000000000               0.000000012              -0.000003203               1.000000000               0.000000000              -0.000005359               1.000000000               0.000000006              -0.000008047               1.000000000               0.000000005              -0.000011175               1.000000000              -0.000000010              -0.000014873               1.000000000              -0.000000015              -0.000019092               1.000000000              -0.000000017              -0.000023838               1.000000000              -0.000000023              -0.000029109               1.000000000              -0.000000041              -0.000034883               1.000000000              -0.000000069              -0.000041170               1.000000000              -0.000000094              -0.000047971               1.000000000              -0.000000093              -0.000055316               1.000000000              -0.000000051              -0.000063204               1.000000000              -0.000000014               0.000000471               1.000000000               0.000000041               0.000000114               1.000000000               0.000000008              -0.000000687               1.000000000              -0.000000019              -0.000001840               1.000000000               0.000000011              -0.000003421               1.000000000               0.000000007              -0.000005555               1.000000000              -0.000000003              -0.000008280               1.000000000              -0.000000001              -0.000011437               1.000000000              -0.000000008              -0.000015134               1.000000000              -0.000000011              -0.000019336               1.000000000              -0.000000007              -0.000024063               1.000000000              -0.000000003              -0.000029302               1.000000000              -0.000000008              -0.000035068               1.000000000              -0.000000023              -0.000041329               1.000000000              -0.000000049              -0.000048098               1.000000000              -0.000000079              -0.000055365               1.000000000              -0.000000098              -0.000063152               1.000000000               0.000000003               0.000000475               1.000000000               0.000000009               0.000000116               1.000000000               0.000000005              -0.000000734               1.000000000              -0.000000022              -0.000001969               1.000000000              -0.000000000              -0.000003569               1.000000000              -0.000000002              -0.000005699               1.000000000              -0.000000006              -0.000008444               1.000000000               0.000000010              -0.000011616               1.000000000               0.000000019              -0.000015311               1.000000000               0.000000013              -0.000019509               1.000000000               0.000000004              -0.000024224               1.000000000               0.000000003              -0.000029439               1.000000000               0.000000013              -0.000035187               1.000000000               0.000000025              -0.000041428               1.000000000               0.000000034              -0.000048185               1.000000000               0.000000033              -0.000055433               1.000000000               0.000000023              -0.000063193               1.000000000               0.000000000               0.000000416               1.000000000               0.000000000               0.000000076               1.000000000              -0.000000000              -0.000000729               1.000000000              -0.000000000              -0.000001963               1.000000000               0.000000000              -0.000003590               1.000000000               0.000000000              -0.000005734               1.000000000              -0.000000000              -0.000008476               1.000000000               0.000000000              -0.000011651               1.000000000              -0.000000000              -0.000015360               1.000000000              -0.000000000              -0.000019582               1.000000000              -0.000000000              -0.000024307               1.000000000              -0.000000000              -0.000029503               1.000000000              -0.000000000              -0.000035221               1.000000000               0.000000000              -0.000041436               1.000000000               0.000000000              -0.000048182               1.000000000              -0.000000000              -0.000055431               1.000000000               0.000000000              -0.000063198               1.000000000               0.000000003              -0.000000000               1.000000000              -0.000000034              -0.000000000               1.000000000              -0.000000080               0.000000000               1.000000000              -0.000000046               0.000000000               1.000000000               0.000000033               0.000000000               1.000000000               0.000000101              -0.000000000               1.000000000               0.000000143               0.000000000               1.000000000               0.000000129               0.000000000               1.000000000               0.000000062              -0.000000000               1.000000000              -0.000000031              -0.000000000               1.000000000              -0.000000134               0.000000000               1.000000000              -0.000000219              -0.000000000               1.000000000              -0.000000253              -0.000000000               1.000000000              -0.000000217              -0.000000000               1.000000000              -0.000000129              -0.000000000               1.000000000              -0.000000038              -0.000000000               1.000000000               0.000000008              -0.000000000               1.000000000              -0.000000009              -0.000000023               1.000000000               0.000000021              -0.000000029               1.000000000               0.000000065              -0.000000045               1.000000000               0.000000047              -0.000000030               1.000000000              -0.000000008              -0.000000025               1.000000000              -0.000000055               0.000000025               1.000000000              -0.000000091               0.000000073               1.000000000              -0.000000101               0.000000105               1.000000000              -0.000000086               0.000000119               1.000000000              -0.000000060               0.000000103               1.000000000              -0.000000018               0.000000073               1.000000000               0.000000043               0.000000061               1.000000000               0.000000107               0.000000068               1.000000000               0.000000151               0.000000066               1.000000000               0.000000153               0.000000019               1.000000000               0.000000105              -0.000000083               1.000000000               0.000000021              -0.000000190               1.000000000               0.000000006              -0.000000046               1.000000000               0.000000004              -0.000000005               1.000000000              -0.000000016              -0.000000014               1.000000000              -0.000000033               0.000000020               1.000000000              -0.000000027               0.000000060               1.000000000              -0.000000025               0.000000067               1.000000000              -0.000000020               0.000000047               1.000000000               0.000000001              -0.000000003               1.000000000               0.000000040              -0.000000091               1.000000000               0.000000106              -0.000000179               1.000000000               0.000000190              -0.000000233               1.000000000               0.000000258              -0.000000275               1.000000000               0.000000268              -0.000000339               1.000000000               0.000000191              -0.000000458               1.000000000               0.000000039              -0.000000628               1.000000000              -0.000000126              -0.000000808               1.000000000              -0.000000215              -0.000000938               1.000000000               0.000000017              -0.000000045               1.000000000              -0.000000019               0.000000018               1.000000000              -0.000000032               0.000000058               1.000000000               0.000000010               0.000000071               1.000000000               0.000000022               0.000000048               1.000000000               0.000000034              -0.000000030               1.000000000               0.000000060              -0.000000133               1.000000000               0.000000078              -0.000000245               1.000000000               0.000000090              -0.000000309               1.000000000               0.000000086              -0.000000293               1.000000000               0.000000042              -0.000000235               1.000000000              -0.000000067              -0.000000187               1.000000000              -0.000000246              -0.000000179               1.000000000              -0.000000446              -0.000000185               1.000000000              -0.000000565              -0.000000102               1.000000000              -0.000000476               0.000000216               1.000000000              -0.000000049               0.000000927               1.000000000              -0.000000018               0.000000027               1.000000000               0.000000017               0.000000039               1.000000000               0.000000030               0.000000066               1.000000000              -0.000000006              -0.000000005               1.000000000              -0.000000008              -0.000000106               1.000000000               0.000000004              -0.000000206               1.000000000               0.000000013              -0.000000257               1.000000000               0.000000015              -0.000000198               1.000000000              -0.000000008               0.000000003               1.000000000              -0.000000061               0.000000313               1.000000000              -0.000000167               0.000000661               1.000000000              -0.000000312               0.000001013               1.000000000              -0.000000415               0.000001409               1.000000000              -0.000000347               0.000001988               1.000000000               0.000000033               0.000002937               1.000000000               0.000000841               0.000004449               1.000000000               0.000002152               0.000006702               1.000000000              -0.000000018               0.000000118               1.000000000               0.000000017               0.000000037               1.000000000              -0.000000005              -0.000000012               1.000000000              -0.000000003              -0.000000159               1.000000000               0.000000022              -0.000000225               1.000000000               0.000000008              -0.000000164               1.000000000              -0.000000020               0.000000096               1.000000000              -0.000000074               0.000000578               1.000000000              -0.000000124               0.000001264               1.000000000              -0.000000193               0.000002070               1.000000000              -0.000000254               0.000002940               1.000000000              -0.000000209               0.000003917               1.000000000               0.000000076               0.000005141               1.000000000               0.000000748               0.000006823               1.000000000               0.000001911               0.000009144               1.000000000               0.000003622               0.000012251               1.000000000               0.000005876               0.000016241               1.000000000               0.000000002               0.000000154               1.000000000              -0.000000008              -0.000000045               1.000000000               0.000000002              -0.000000152               1.000000000              -0.000000002              -0.000000199               1.000000000              -0.000000024              -0.000000041               1.000000000              -0.000000015               0.000000401               1.000000000              -0.000000056               0.000001169               1.000000000              -0.000000083               0.000002259               1.000000000              -0.000000111               0.000003618               1.000000000              -0.000000098               0.000005142               1.000000000               0.000000046               0.000006855               1.000000000               0.000000467               0.000008868               1.000000000               0.000001323               0.000011405               1.000000000               0.000002725               0.000014635               1.000000000               0.000004719               0.000018691               1.000000000               0.000007291               0.000023637               1.000000000               0.000010375               0.000029475               1.000000000               0.000000001               0.000000105               1.000000000              -0.000000027              -0.000000142               1.000000000               0.000000012              -0.000000211               1.000000000               0.000000001              -0.000000040               1.000000000               0.000000004               0.000000505               1.000000000              -0.000000033               0.000001549               1.000000000              -0.000000088               0.000003025               1.000000000              -0.000000091               0.000004953               1.000000000              -0.000000047               0.000007184               1.000000000               0.000000136               0.000009718               1.000000000               0.000000584               0.000012626               1.000000000               0.000001481               0.000016121               1.000000000               0.000002938               0.000020384               1.000000000               0.000005019               0.000025548               1.000000000               0.000007702               0.000031666               1.000000000               0.000010928               0.000038683               1.000000000               0.000014613               0.000046491               1.000000000               0.000000018              -0.000000034               1.000000000              -0.000000035              -0.000000175               1.000000000               0.000000021              -0.000000154               1.000000000               0.000000009               0.000000416               1.000000000              -0.000000015               0.000001573               1.000000000              -0.000000038               0.000003311               1.000000000              -0.000000052               0.000005682               1.000000000               0.000000000               0.000008552               1.000000000               0.000000149               0.000011916               1.000000000               0.000000527               0.000015762               1.000000000               0.000001305               0.000020289               1.000000000               0.000002645               0.000025664               1.000000000               0.000004607               0.000032066               1.000000000               0.000007182               0.000039537               1.000000000               0.000010291               0.000048057               1.000000000               0.000013843               0.000057494               1.000000000               0.000017707               0.000067638               1.000000000               0.000000043              -0.000000197               1.000000000              -0.000000025              -0.000000146               1.000000000               0.000000002              -0.000000059               1.000000000               0.000000026               0.000000662               1.000000000               0.000000004               0.000001932               1.000000000              -0.000000017               0.000003789               1.000000000              -0.000000061               0.000006265               1.000000000              -0.000000032               0.000009282               1.000000000               0.000000057               0.000012806               1.000000000               0.000000240               0.000016798               1.000000000               0.000000617               0.000021335               1.000000000               0.000001319               0.000026524               1.000000000               0.000002432               0.000032510               1.000000000               0.000003977               0.000039378               1.000000000               0.000005948               0.000047203               1.000000000               0.000008275               0.000055973               1.000000000               0.000010920               0.000065692               1.000000000               0.000000023              -0.000000312               1.000000000               0.000000013              -0.000000135               1.000000000              -0.000000030               0.000000108               1.000000000               0.000000030               0.000000915               1.000000000              -0.000000003               0.000002317               1.000000000              -0.000000009               0.000004252               1.000000000              -0.000000032               0.000006764               1.000000000              -0.000000031               0.000009868               1.000000000               0.000000008               0.000013498               1.000000000               0.000000089               0.000017631               1.000000000               0.000000233               0.000022267               1.000000000               0.000000519               0.000027448               1.000000000               0.000001034               0.000033253               1.000000000               0.000001819               0.000039775               1.000000000               0.000002882               0.000047053               1.000000000               0.000004218               0.000055166               1.000000000               0.000005808               0.000064099               1.000000000              -0.000000010              -0.000000377               1.000000000               0.000000055              -0.000000153               1.000000000              -0.000000050               0.000000320               1.000000000               0.000000021               0.000001160               1.000000000               0.000000024               0.000002655               1.000000000               0.000000007               0.000004693               1.000000000              -0.000000013               0.000007240               1.000000000              -0.000000035               0.000010389               1.000000000              -0.000000025               0.000014067               1.000000000               0.000000002               0.000018295               1.000000000               0.000000050               0.000023001               1.000000000               0.000000126               0.000028246               1.000000000               0.000000286               0.000034011               1.000000000               0.000000577               0.000040398               1.000000000               0.000001021               0.000047398               1.000000000               0.000001614               0.000055103               1.000000000               0.000002334               0.000063485               1.000000000              -0.000000022              -0.000000408               1.000000000               0.000000077              -0.000000173               1.000000000              -0.000000038               0.000000490               1.000000000              -0.000000014               0.000001446               1.000000000               0.000000017               0.000002961               1.000000000              -0.000000001               0.000005082               1.000000000               0.000000000               0.000007661               1.000000000              -0.000000016               0.000010801               1.000000000              -0.000000024               0.000014494               1.000000000              -0.000000020               0.000018736               1.000000000              -0.000000014               0.000023494               1.000000000              -0.000000012               0.000028776               1.000000000              -0.000000004               0.000034551               1.000000000               0.000000034               0.000040881               1.000000000               0.000000136               0.000047754               1.000000000               0.000000308               0.000055238               1.000000000               0.000000543               0.000063305               1.000000000              -0.000000026              -0.000000421               1.000000000               0.000000065              -0.000000136               1.000000000              -0.000000011               0.000000594               1.000000000              -0.000000021               0.000001669               1.000000000               0.000000012               0.000003203               1.000000000               0.000000000               0.000005359               1.000000000               0.000000006               0.000008047               1.000000000               0.000000005               0.000011175               1.000000000              -0.000000010               0.000014873               1.000000000              -0.000000015               0.000019092               1.000000000              -0.000000017               0.000023838               1.000000000              -0.000000023               0.000029109               1.000000000              -0.000000041               0.000034883               1.000000000              -0.000000069               0.000041170               1.000000000              -0.000000094               0.000047971               1.000000000              -0.000000093               0.000055316               1.000000000              -0.000000051               0.000063204               1.000000000              -0.000000014              -0.000000471               1.000000000               0.000000041              -0.000000114               1.000000000               0.000000008               0.000000687               1.000000000              -0.000000019               0.000001840               1.000000000               0.000000011               0.000003421               1.000000000               0.000000007               0.000005555               1.000000000              -0.000000003               0.000008280               1.000000000              -0.000000001               0.000011437               1.000000000              -0.000000008               0.000015134               1.000000000              -0.000000011               0.000019336               1.000000000              -0.000000007               0.000024063               1.000000000              -0.000000003               0.000029302               1.000000000              -0.000000008               0.000035068               1.000000000              -0.000000023               0.000041329               1.000000000              -0.000000049               0.000048098               1.000000000              -0.000000079               0.000055365               1.000000000              -0.000000098               0.000063152               1.000000000               0.000000003              -0.000000475               1.000000000               0.000000009              -0.000000116               1.000000000               0.000000005               0.000000734               1.000000000              -0.000000022               0.000001969               1.000000000              -0.000000000               0.000003569               1.000000000              -0.000000002               0.000005699               1.000000000              -0.000000006               0.000008444               1.000000000               0.000000010               0.000011616               1.000000000               0.000000019               0.000015311               1.000000000               0.000000013               0.000019509               1.000000000               0.000000004               0.000024224               1.000000000               0.000000003               0.000029439               1.000000000               0.000000013               0.000035187               1.000000000               0.000000025               0.000041428               1.000000000               0.000000034               0.000048185               1.000000000               0.000000033               0.000055433               1.000000000               0.000000023               0.000063193               1.000000000               0.000000000              -0.000000416               1.000000000              -0.000000000              -0.000000076               1.000000000               0.000000000               0.000000729               1.000000000              -0.000000000               0.000001963               1.000000000              -0.000000000               0.000003590               1.000000000              -0.000000000               0.000005734               1.000000000              -0.000000000               0.000008476               1.000000000              -0.000000000               0.000011651               1.000000000               0.000000000               0.000015360               1.000000000               0.000000000               0.000019582               1.000000000               0.000000000               0.000024307               1.000000000               0.000000000               0.000029503               1.000000000               0.000000000               0.000035221               1.000000000              -0.000000000               0.000041436               1.000000000              -0.000000000               0.000048182               1.000000000              -0.000000000               0.000055431               1.000000000              -0.000000000               0.000063198               1.000000000 </DataArray>
<DataArray type="Float64"                                    Name="stress"                                                      NumberOfComponents="10" format="ascii">
              0.000000291              -0.000004674              -0.000000000               0.000000693              -0.000001789              -0.000001096               0.000000000               0.000000000               0.000000000               0.000000000               0.000000616              -0.000004927               0.000000000               0.000000847              -0.000001925              -0.000001078               0.000000000               0.000000000               0.000000000               0.000000000              -0.000001422              -0.000006049              -0.000000000               0.000000223              -0.000002091              -0.000001868               0.000000000               0.000000000               0.000000000               0.000000000              -0.000004358              -0.000005255              -0.000000000              -0.000000977              -0.000001426              -0.000002403               0.000000000               0.000000000               0.000000000               0.000000000              -0.000005027              -0.000003462               0.000000000              -0.000001452              -0.000000670              -0.000002122               0.000000000               0.000000000               0.000000000               0.000000000              -0.000002793               0.000001413               0.000000000              -0.000001224               0.000000879              -0.000000345               0.000000000               0.000000000               0.000000000               0.000000000               0.000001139               0.000006312              -0.000000000              -0.000000362               0.000002225               0.000001863               0.000000000               0.000000000               0.000000000               0.000000000               0.000005574               0.000009705              -0.000000000               0.000000877               0.000002943               0.000003820               0.000000000               0.000000000               0.000000000               0.000000000               0.000008593               0.000010927              -0.000000000               0.000001856               0.000003024               0.000004880               0.000000000               0.000000000               0.000000000               0.000000000               0.000009436               0.000009720              -0.000000000               0.000002323               0.000002466               0.000004789               0.000000000               0.000000000               0.000000000               0.000000000               0.000008048               0.000007305              -0.000000000               0.000002105               0.000001733               0.000003838               0.000000000               0.000000000               0.000000000               0.000000000               0.000004511               0.000005156              -0.000000000               0.000001047               0.000001370               0.000002417               0.000000000               0.000000000               0.000000000               0.000000000              -0.000000281               0.000003448               0.000000000              -0.000000536               0.000001328               0.000000792               0.000000000               0.000000000               0.000000000               0.000000000              -0.000004405               0.000001476               0.000000000              -0.000001836               0.000001104              -0.000000732               0.000000000               0.000000000               0.000000000               0.000000000              -0.000005915              -0.000001498               0.000000000              -0.000002031               0.000000177              -0.000001853               0.000000000               0.000000000               0.000000000               0.000000000              -0.000004130              -0.000005151               0.000000000              -0.000000905              -0.000001415              -0.000002320               0.000000000               0.000000000               0.000000000               0.000000000              -0.000002732              -0.000007604               0.000000000              -0.000000074              -0.000002510              -0.000002584               0.000000000               0.000000000               0.000000000               0.000000000              -0.000002574              -0.000003815              -0.000000339              -0.000000488              -0.000001109              -0.000001597               0.000000000               0.000000000               0.000000000               0.000000000              -0.000002336              -0.000001889              -0.000001408              -0.000000640              -0.000000416              -0.000001056               0.000000000               0.000000000               0.000000000               0.000000000              -0.000000795              -0.000000697              -0.000001281              -0.000000211              -0.000000162              -0.000000373               0.000000000               0.000000000               0.000000000               0.000000000               0.000002193               0.000002059               0.000000263               0.000000565               0.000000498               0.000001063               0.000000000               0.000000000               0.000000000               0.000000000               0.000003387               0.000004080               0.000001975               0.000000760               0.000001107               0.000001867               0.000000000               0.000000000               0.000000000               0.000000000               0.000003014               0.000004037               0.000003339               0.000000626               0.000001137               0.000001763               0.000000000               0.000000000               0.000000000               0.000000000               0.000001734               0.000002399               0.000003262               0.000000350               0.000000683               0.000001033               0.000000000               0.000000000               0.000000000               0.000000000              -0.000000188              -0.000000445               0.000001978              -0.000000015              -0.000000144              -0.000000158               0.000000000               0.000000000               0.000000000               0.000000000              -0.000002043              -0.000003955              -0.000000167              -0.000000272              -0.000001228              -0.000001500               0.000000000               0.000000000               0.000000000               0.000000000              -0.000003633              -0.000006933              -0.000002446              -0.000000496              -0.000002146              -0.000002641               0.000000000               0.000000000               0.000000000               0.000000000              -0.000005109              -0.000008753              -0.000004037              -0.000000822              -0.000002644              -0.000003466               0.000000000               0.000000000               0.000000000               0.000000000              -0.000006040              -0.000009929              -0.000004757              -0.000001024              -0.000002968              -0.000003992               0.000000000               0.000000000               0.000000000               0.000000000              -0.000005752              -0.000011198              -0.000004847              -0.000000757              -0.000003480              -0.000004238               0.000000000               0.000000000               0.000000000               0.000000000              -0.000004140              -0.000013097              -0.000004557               0.000000085              -0.000004394              -0.000004309               0.000000000               0.000000000               0.000000000               0.000000000              -0.000001903              -0.000015587              -0.000003907               0.000001235              -0.000005607              -0.000004373               0.000000000               0.000000000               0.000000000               0.000000000              -0.000000341              -0.000018092              -0.000002431               0.000002134              -0.000006742              -0.000004608               0.000000000               0.000000000               0.000000000               0.000000000               0.000000049              -0.000019413              -0.000001382               0.000002445              -0.000007286              -0.000004841               0.000000000               0.000000000               0.000000000               0.000000000               0.000000777               0.000001174               0.000001372               0.000000145               0.000000343               0.000000488               0.000000000               0.000000000               0.000000000               0.000000000               0.000001300               0.000004441               0.000001484              -0.000000068               0.000001503               0.000001435               0.000000000               0.000000000               0.000000000               0.000000000               0.000002075               0.000007249               0.000001877              -0.000000128               0.000002459               0.000002331               0.000000000               0.000000000               0.000000000               0.000000000               0.000002585               0.000006822               0.000001287               0.000000117               0.000002235               0.000002352               0.000000000               0.000000000               0.000000000               0.000000000               0.000002209               0.000003711              -0.000000276               0.000000364               0.000001115               0.000001480               0.000000000               0.000000000               0.000000000               0.000000000               0.000000412              -0.000002728              -0.000001672               0.000000495              -0.000001074              -0.000000579               0.000000000               0.000000000               0.000000000               0.000000000              -0.000002578              -0.000009673              -0.000002833               0.000000242              -0.000003305              -0.000003063               0.000000000               0.000000000               0.000000000               0.000000000              -0.000006004              -0.000015234              -0.000003602              -0.000000347              -0.000004962              -0.000005310               0.000000000               0.000000000               0.000000000               0.000000000              -0.000008882              -0.000017584              -0.000003553              -0.000001133              -0.000005484              -0.000006616               0.000000000               0.000000000               0.000000000               0.000000000              -0.000010429              -0.000016158              -0.000002458              -0.000001891              -0.000004756              -0.000006647               0.000000000               0.000000000               0.000000000               0.000000000              -0.000009650              -0.000012717              -0.000000889              -0.000002029              -0.000003562              -0.000005592               0.000000000               0.000000000               0.000000000               0.000000000              -0.000006035              -0.000009337               0.000000487              -0.000001096              -0.000002747              -0.000003843               0.000000000               0.000000000               0.000000000               0.000000000              -0.000000278              -0.000006723               0.000001344               0.000000736              -0.000002486              -0.000001750               0.000000000               0.000000000               0.000000000               0.000000000               0.000005514              -0.000003939               0.000001624               0.000002560              -0.000002167               0.000000394               0.000000000               0.000000000               0.000000000               0.000000000               0.000008490               0.000001112               0.000001587               0.000003045              -0.000000644               0.000002400               0.000000000               0.000000000               0.000000000               0.000000000               0.000006231               0.000010365               0.000001394               0.000001041               0.000003108               0.000004149               0.000000000               0.000000000               0.000000000               0.000000000               0.000005852               0.000020387              -0.000000138              -0.000000354               0.000006914               0.000006560               0.000000000               0.000000000               0.000000000               0.000000000               0.000004268               0.000008433               0.000001640               0.000000547               0.000002629               0.000003175               0.000000000               0.000000000               0.000000000               0.000000000               0.000004212               0.000006651               0.000000664               0.000000748               0.000001967               0.000002716               0.000000000               0.000000000               0.000000000               0.000000000               0.000002144               0.000004748              -0.000000852               0.000000210               0.000001513               0.000001723               0.000000000               0.000000000               0.000000000               0.000000000              -0.000001738              -0.000002576              -0.000000821              -0.000000330              -0.000000749              -0.000001078               0.000000000               0.000000000               0.000000000               0.000000000              -0.000004165              -0.000010172              -0.000001080              -0.000000290              -0.000003294              -0.000003584               0.000000000               0.000000000               0.000000000               0.000000000              -0.000006282              -0.000014772              -0.000001780              -0.000000509              -0.000004754              -0.000005263               0.000000000               0.000000000               0.000000000               0.000000000              -0.000006489              -0.000014418              -0.000002007              -0.000000631              -0.000004596              -0.000005227               0.000000000               0.000000000               0.000000000               0.000000000              -0.000004251              -0.000007910              -0.000001367              -0.000000605              -0.000002435              -0.000003040               0.000000000               0.000000000               0.000000000               0.000000000              -0.000000241               0.000004021               0.000000403              -0.000000593               0.000001538               0.000000945               0.000000000               0.000000000               0.000000000               0.000000000               0.000005483               0.000018179               0.000002299              -0.000000216               0.000006132               0.000005916               0.000000000               0.000000000               0.000000000               0.000000000               0.000012883               0.000031593               0.000003303               0.000000882               0.000010237               0.000011119               0.000000000               0.000000000               0.000000000               0.000000000               0.000021140               0.000043974               0.000003008               0.000002431               0.000013848               0.000016278               0.000000000               0.000000000               0.000000000               0.000000000               0.000027953               0.000056930               0.000001553               0.000003366               0.000017854               0.000021221               0.000000000               0.000000000               0.000000000               0.000000000               0.000030455               0.000073342              -0.000000216               0.000002253               0.000023696               0.000025949               0.000000000               0.000000000               0.000000000               0.000000000               0.000026506               0.000095831              -0.000001272              -0.000002039               0.000032623               0.000030584               0.000000000               0.000000000               0.000000000               0.000000000               0.000015278               0.000126071              -0.000000898              -0.000010029               0.000045366               0.000035337               0.000000000               0.000000000               0.000000000               0.000000000               0.000013610               0.000153385              -0.000003609              -0.000014069               0.000055818               0.000041748               0.000000000               0.000000000               0.000000000               0.000000000               0.000000755               0.000010070              -0.000001688              -0.000000976               0.000003682               0.000002706               0.000000000               0.000000000               0.000000000               0.000000000               0.000000434               0.000002476              -0.000000735              -0.000000147               0.000000874               0.000000727               0.000000000               0.000000000               0.000000000               0.000000000              -0.000000825              -0.000006259              -0.000000398               0.000000473              -0.000002244              -0.000001771               0.000000000               0.000000000               0.000000000               0.000000000              -0.000004530              -0.000014897              -0.000000391               0.000000163              -0.000005020              -0.000004857               0.000000000               0.000000000               0.000000000               0.000000000              -0.000005802              -0.000015254              -0.000000529              -0.000000269              -0.000004995              -0.000005264               0.000000000               0.000000000               0.000000000               0.000000000              -0.000003320              -0.000005845              -0.000000344              -0.000000514              -0.000001777              -0.000002291               0.000000000               0.000000000               0.000000000               0.000000000               0.000002333               0.000012391               0.000000708              -0.000000674               0.000004355               0.000003681               0.000000000               0.000000000               0.000000000               0.000000000               0.000010854               0.000037132               0.000002361              -0.000000571               0.000012567               0.000011996               0.000000000               0.000000000               0.000000000               0.000000000               0.000021235               0.000064001               0.000003467              -0.000000037               0.000021346               0.000021309               0.000000000               0.000000000               0.000000000               0.000000000               0.000032664               0.000089172               0.000002817               0.000001103               0.000029356               0.000030459               0.000000000               0.000000000               0.000000000               0.000000000               0.000044295               0.000112472              -0.000000031               0.000002551               0.000036640               0.000039191               0.000000000               0.000000000               0.000000000               0.000000000               0.000053229               0.000136039              -0.000004565               0.000002956               0.000044361               0.000047317               0.000000000               0.000000000               0.000000000               0.000000000               0.000056288               0.000163053              -0.000009262               0.000000726               0.000054109               0.000054835               0.000000000               0.000000000               0.000000000               0.000000000               0.000051827               0.000196106              -0.000012324              -0.000005078               0.000067061               0.000061983               0.000000000               0.000000000               0.000000000               0.000000000               0.000039805               0.000235500              -0.000012320              -0.000014511               0.000083336               0.000068825               0.000000000               0.000000000               0.000000000               0.000000000               0.000021484               0.000280088              -0.000008102              -0.000026954               0.000102346               0.000075392               0.000000000               0.000000000               0.000000000               0.000000000               0.000018133               0.000315134              -0.000008930              -0.000032592               0.000115908               0.000083316               0.000000000               0.000000000               0.000000000               0.000000000              -0.000001979               0.000000338              -0.000004268              -0.000000784               0.000000374              -0.000000410               0.000000000               0.000000000               0.000000000               0.000000000              -0.000004510              -0.000009051              -0.000000384              -0.000000560              -0.000002830              -0.000003390               0.000000000               0.000000000               0.000000000               0.000000000              -0.000005481              -0.000016089               0.000000639              -0.000000044              -0.000005348              -0.000005393               0.000000000               0.000000000               0.000000000               0.000000000              -0.000004488              -0.000011670              -0.000000646              -0.000000224              -0.000003815              -0.000004039               0.000000000               0.000000000               0.000000000               0.000000000               0.000001391               0.000006683              -0.000000098              -0.000000314               0.000002332               0.000002018               0.000000000               0.000000000               0.000000000               0.000000000               0.000012805               0.000036355               0.000000626               0.000000257               0.000012033               0.000012290               0.000000000               0.000000000               0.000000000               0.000000000               0.000025908               0.000072903               0.000001936               0.000000603               0.000024100               0.000024702               0.000000000               0.000000000               0.000000000               0.000000000               0.000039339               0.000111562               0.000002675               0.000000807               0.000036918               0.000037725               0.000000000               0.000000000               0.000000000               0.000000000               0.000052763               0.000148621               0.000001316               0.000001208               0.000049137               0.000050346               0.000000000               0.000000000               0.000000000               0.000000000               0.000065787               0.000182870              -0.000002923               0.000001811               0.000060352               0.000062164               0.000000000               0.000000000               0.000000000               0.000000000               0.000075520               0.000216650              -0.000009452               0.000001239               0.000071803               0.000073042               0.000000000               0.000000000               0.000000000               0.000000000               0.000079008               0.000253238              -0.000016403              -0.000002027               0.000085087               0.000083061               0.000000000               0.000000000               0.000000000               0.000000000               0.000074691               0.000295298              -0.000021480              -0.000008903               0.000101400               0.000092496               0.000000000               0.000000000               0.000000000               0.000000000               0.000062650               0.000342188              -0.000023003              -0.000019280               0.000120488               0.000101209               0.000000000               0.000000000               0.000000000               0.000000000               0.000044604               0.000391653              -0.000020056              -0.000032230               0.000141293               0.000109063               0.000000000               0.000000000               0.000000000               0.000000000               0.000022964               0.000440665              -0.000012106              -0.000046471               0.000162377               0.000115906               0.000000000               0.000000000               0.000000000               0.000000000               0.000018378               0.000475150              -0.000010796              -0.000052502               0.000175882               0.000123381               0.000000000               0.000000000               0.000000000               0.000000000              -0.000004867              -0.000015303              -0.000003492               0.000000088              -0.000005130              -0.000005043               0.000000000               0.000000000               0.000000000               0.000000000              -0.000007666              -0.000018645              -0.000000362              -0.000000544              -0.000006034              -0.000006578               0.000000000               0.000000000               0.000000000               0.000000000              -0.000003845              -0.000011603               0.000000402               0.000000009              -0.000003871              -0.000003862               0.000000000               0.000000000               0.000000000               0.000000000               0.000005020               0.000012763               0.000000054               0.000000287               0.000004159               0.000004446               0.000000000               0.000000000               0.000000000               0.000000000               0.000016894               0.000050659               0.000000898               0.000000003               0.000016885               0.000016888               0.000000000               0.000000000               0.000000000               0.000000000               0.000033630               0.000098528               0.000001617               0.000000295               0.000032744               0.000033039               0.000000000               0.000000000               0.000000000               0.000000000               0.000051293               0.000148948               0.000002126               0.000000616               0.000049443               0.000050060               0.000000000               0.000000000               0.000000000               0.000000000               0.000068239               0.000198471               0.000000648               0.000000781               0.000065896               0.000066677               0.000000000               0.000000000               0.000000000               0.000000000               0.000083726               0.000244190              -0.000003689               0.000000873               0.000081105               0.000081978               0.000000000               0.000000000               0.000000000               0.000000000               0.000095511               0.000288360              -0.000011019              -0.000000228               0.000096195               0.000095967               0.000000000               0.000000000               0.000000000               0.000000000               0.000100674               0.000334566              -0.000019359              -0.000004068               0.000112877               0.000108809               0.000000000               0.000000000               0.000000000               0.000000000               0.000097310               0.000385618              -0.000026155              -0.000011711               0.000132442               0.000120731               0.000000000               0.000000000               0.000000000               0.000000000               0.000085433               0.000440954              -0.000029345              -0.000023082               0.000154677               0.000131595               0.000000000               0.000000000               0.000000000               0.000000000               0.000067197               0.000497880              -0.000028217              -0.000037036               0.000178304               0.000141268               0.000000000               0.000000000               0.000000000               0.000000000               0.000045414               0.000553179              -0.000022608              -0.000052117               0.000201764               0.000149647               0.000000000               0.000000000               0.000000000               0.000000000               0.000022687               0.000603244              -0.000012971              -0.000066897               0.000223378               0.000156481               0.000000000               0.000000000               0.000000000               0.000000000               0.000017088               0.000635606              -0.000010644              -0.000073042               0.000236214               0.000163172               0.000000000               0.000000000               0.000000000               0.000000000              -0.000006170              -0.000024763              -0.000000843               0.000000782              -0.000008515              -0.000007733               0.000000000               0.000000000               0.000000000               0.000000000              -0.000006355              -0.000015722              -0.000000794              -0.000000418              -0.000005101              -0.000005519               0.000000000               0.000000000               0.000000000               0.000000000               0.000002197               0.000007762               0.000000187              -0.000000146               0.000002636               0.000002490               0.000000000               0.000000000               0.000000000               0.000000000               0.000018598               0.000052240               0.000000328               0.000000444               0.000017265               0.000017709               0.000000000               0.000000000               0.000000000               0.000000000               0.000037964               0.000109212               0.000000908               0.000000585               0.000036209               0.000036794               0.000000000               0.000000000               0.000000000               0.000000000               0.000059606               0.000170285               0.000001877               0.000001067               0.000056406               0.000057472               0.000000000               0.000000000               0.000000000               0.000000000               0.000079543               0.000231155               0.000001034               0.000000934               0.000076740               0.000077674               0.000000000               0.000000000               0.000000000               0.000000000               0.000096868               0.000288233              -0.000002163               0.000000297               0.000095978               0.000096274               0.000000000               0.000000000               0.000000000               0.000000000               0.000111465               0.000343126              -0.000008750              -0.000001091               0.000114738               0.000113647               0.000000000               0.000000000               0.000000000               0.000000000               0.000119743               0.000399115              -0.000017182              -0.000004986               0.000134699               0.000129713               0.000000000               0.000000000               0.000000000               0.000000000               0.000119062               0.000459473              -0.000024999              -0.000012786               0.000157418               0.000144632               0.000000000               0.000000000               0.000000000               0.000000000               0.000109107               0.000524283              -0.000029663              -0.000024620               0.000182966               0.000158346               0.000000000               0.000000000               0.000000000               0.000000000               0.000091973               0.000591158              -0.000030074              -0.000039405               0.000210186               0.000170781               0.000000000               0.000000000               0.000000000               0.000000000               0.000070343               0.000656703              -0.000026156              -0.000055709               0.000237469               0.000181760               0.000000000               0.000000000               0.000000000               0.000000000               0.000047087               0.000717749              -0.000019018              -0.000072061               0.000263267               0.000191207               0.000000000               0.000000000               0.000000000               0.000000000               0.000023819               0.000771063              -0.000010216              -0.000087450               0.000286169               0.000198718               0.000000000               0.000000000               0.000000000               0.000000000               0.000015954               0.000803766              -0.000008353              -0.000094488               0.000299415               0.000204928               0.000000000               0.000000000               0.000000000               0.000000000              -0.000002412              -0.000021322               0.000002873               0.000001761              -0.000007694              -0.000005934               0.000000000               0.000000000               0.000000000               0.000000000              -0.000001176              -0.000004561              -0.000000712               0.000000129              -0.000001563              -0.000001434               0.000000000               0.000000000               0.000000000               0.000000000               0.000009339               0.000031522               0.000000317              -0.000000438               0.000010653               0.000010215               0.000000000               0.000000000               0.000000000               0.000000000               0.000032553               0.000093298               0.000001729               0.000000545               0.000030917               0.000031462               0.000000000               0.000000000               0.000000000               0.000000000               0.000054914               0.000160261               0.000002268               0.000000560               0.000053233               0.000053793               0.000000000               0.000000000               0.000000000               0.000000000               0.000078415               0.000229061               0.000002833               0.000000773               0.000076095               0.000076868               0.000000000               0.000000000               0.000000000               0.000000000               0.000099672               0.000296455               0.000001364               0.000000320               0.000098710               0.000099031               0.000000000               0.000000000               0.000000000               0.000000000               0.000117758               0.000359354              -0.000002498              -0.000000760               0.000120037               0.000119277               0.000000000               0.000000000               0.000000000               0.000000000               0.000131997               0.000421728              -0.000008794              -0.000003217               0.000141647               0.000138430               0.000000000               0.000000000               0.000000000               0.000000000               0.000138380               0.000486619              -0.000016082              -0.000008935               0.000165183               0.000156248               0.000000000               0.000000000               0.000000000               0.000000000               0.000135864               0.000557274              -0.000022365              -0.000018710               0.000191993               0.000173283               0.000000000               0.000000000               0.000000000               0.000000000               0.000125159               0.000632065              -0.000025507              -0.000032073               0.000221377               0.000189304               0.000000000               0.000000000               0.000000000               0.000000000               0.000109191               0.000708374              -0.000024573              -0.000047600               0.000251989               0.000204389               0.000000000               0.000000000               0.000000000               0.000000000               0.000090094               0.000782324              -0.000019828              -0.000064005               0.000282107               0.000218102               0.000000000               0.000000000               0.000000000               0.000000000               0.000070099               0.000851382              -0.000012707              -0.000080136               0.000310503               0.000230367               0.000000000               0.000000000               0.000000000               0.000000000               0.000050503               0.000913425              -0.000005285              -0.000095239               0.000336218               0.000240979               0.000000000               0.000000000               0.000000000               0.000000000               0.000039101               0.000945855              -0.000002134              -0.000103569               0.000349805               0.000246236               0.000000000               0.000000000               0.000000000               0.000000000               0.000001430              -0.000007957               0.000006200               0.000001531              -0.000003162              -0.000001632               0.000000000               0.000000000               0.000000000               0.000000000               0.000005139               0.000008425               0.000000320               0.000000874               0.000002517               0.000003391               0.000000000               0.000000000               0.000000000               0.000000000               0.000015118               0.000051538              -0.000000931              -0.000000773               0.000017437               0.000016664               0.000000000               0.000000000               0.000000000               0.000000000               0.000040177               0.000119432               0.000000515               0.000000137               0.000039764               0.000039902               0.000000000               0.000000000               0.000000000               0.000000000               0.000064036               0.000188330               0.000001109               0.000000472               0.000062619               0.000063091               0.000000000               0.000000000               0.000000000               0.000000000               0.000088243               0.000260067               0.000001380               0.000000583               0.000086494               0.000087076               0.000000000               0.000000000               0.000000000               0.000000000               0.000110642               0.000330203               0.000000471               0.000000215               0.000109995               0.000110210               0.000000000               0.000000000               0.000000000               0.000000000               0.000130294               0.000397707              -0.000003062              -0.000000853               0.000132852               0.000131999               0.000000000               0.000000000               0.000000000               0.000000000               0.000146924               0.000462829              -0.000007658              -0.000002757               0.000155194               0.000152437               0.000000000               0.000000000               0.000000000               0.000000000               0.000158089               0.000528798              -0.000013135              -0.000006817               0.000178536               0.000171720               0.000000000               0.000000000               0.000000000               0.000000000               0.000161628               0.000597747              -0.000018310              -0.000014108               0.000203950               0.000189842               0.000000000               0.000000000               0.000000000               0.000000000               0.000157589               0.000670380              -0.000021821              -0.000024701               0.000231691               0.000206990               0.000000000               0.000000000               0.000000000               0.000000000               0.000147987               0.000745605              -0.000022150              -0.000037705               0.000261101               0.000223396               0.000000000               0.000000000               0.000000000               0.000000000               0.000134855               0.000821731              -0.000019113              -0.000052146               0.000291290               0.000239144               0.000000000               0.000000000               0.000000000               0.000000000               0.000120167               0.000896999              -0.000013134              -0.000067062               0.000321351               0.000254288               0.000000000               0.000000000               0.000000000               0.000000000               0.000106077               0.000971601              -0.000005899              -0.000081671               0.000351087               0.000269416               0.000000000               0.000000000               0.000000000               0.000000000               0.000092499               0.001004573               0.000000283              -0.000090884               0.000365149               0.000274265               0.000000000               0.000000000               0.000000000               0.000000000               0.000001621               0.000005599               0.000006575              -0.000000092               0.000001897               0.000001805               0.000000000               0.000000000               0.000000000               0.000000000               0.000010816               0.000022207               0.000002260               0.000001280               0.000006976               0.000008256               0.000000000               0.000000000               0.000000000               0.000000000               0.000021475               0.000069030              -0.000001386              -0.000000576               0.000023202               0.000022626               0.000000000               0.000000000               0.000000000               0.000000000               0.000044352               0.000135686              -0.000000111              -0.000000329               0.000045338               0.000045009               0.000000000               0.000000000               0.000000000               0.000000000               0.000069829               0.000205983               0.000000820               0.000000438               0.000068514               0.000068952               0.000000000               0.000000000               0.000000000               0.000000000               0.000093149               0.000274999               0.000000658               0.000000556               0.000091480               0.000092036               0.000000000               0.000000000               0.000000000               0.000000000               0.000116671               0.000345254               0.000000798               0.000000595               0.000114885               0.000115480               0.000000000               0.000000000               0.000000000               0.000000000               0.000137492               0.000414149              -0.000000659              -0.000000209               0.000138118               0.000137909               0.000000000               0.000000000               0.000000000               0.000000000               0.000156208               0.000480272              -0.000003208              -0.000001456               0.000160574               0.000159118               0.000000000               0.000000000               0.000000000               0.000000000               0.000172640               0.000546319              -0.000006661              -0.000003550               0.000183288               0.000179738               0.000000000               0.000000000               0.000000000               0.000000000               0.000184481               0.000612905              -0.000010383              -0.000007433               0.000206777               0.000199344               0.000000000               0.000000000               0.000000000               0.000000000               0.000190362               0.000681779              -0.000014032              -0.000013837               0.000231870               0.000218033               0.000000000               0.000000000               0.000000000               0.000000000               0.000190896               0.000753408              -0.000016127              -0.000022590               0.000258664               0.000236074               0.000000000               0.000000000               0.000000000               0.000000000               0.000187439               0.000826659              -0.000015835              -0.000033043               0.000286564               0.000253522               0.000000000               0.000000000               0.000000000               0.000000000               0.000181285               0.000900617              -0.000012597              -0.000044595               0.000315068               0.000270472               0.000000000               0.000000000               0.000000000               0.000000000               0.000173708               0.000974427              -0.000006995              -0.000056663               0.000343694               0.000287031               0.000000000               0.000000000               0.000000000               0.000000000               0.000162008               0.001004352              -0.000000690              -0.000064791               0.000356377               0.000291587               0.000000000               0.000000000               0.000000000               0.000000000               0.000002010               0.000015021               0.000003963              -0.000001124               0.000005381               0.000004258               0.000000000               0.000000000               0.000000000               0.000000000               0.000015542               0.000037397               0.000003993               0.000001154               0.000012081               0.000013235               0.000000000               0.000000000               0.000000000               0.000000000               0.000029059               0.000086006              -0.000000538               0.000000146               0.000028620               0.000028766               0.000000000               0.000000000               0.000000000               0.000000000               0.000047379               0.000148734              -0.000001591              -0.000000825               0.000049852               0.000049028               0.000000000               0.000000000               0.000000000               0.000000000               0.000074243               0.000221199               0.000000469               0.000000191               0.000073669               0.000073860               0.000000000               0.000000000               0.000000000               0.000000000               0.000097111               0.000288658               0.000000352               0.000000334               0.000096107               0.000096441               0.000000000               0.000000000               0.000000000               0.000000000               0.000120402               0.000357481               0.000000667               0.000000466               0.000119004               0.000119470               0.000000000               0.000000000               0.000000000               0.000000000               0.000142715               0.000426939               0.000000610               0.000000151               0.000142261               0.000142412               0.000000000               0.000000000               0.000000000               0.000000000               0.000163417               0.000494635              -0.000000501              -0.000000548               0.000165059               0.000164511               0.000000000               0.000000000               0.000000000               0.000000000               0.000182823               0.000560828              -0.000002141              -0.000001545               0.000187456               0.000185911               0.000000000               0.000000000               0.000000000               0.000000000               0.000200432               0.000626919              -0.000004138              -0.000003203               0.000210039               0.000206836               0.000000000               0.000000000               0.000000000               0.000000000               0.000214725               0.000693802              -0.000006451              -0.000006203               0.000233333               0.000227129               0.000000000               0.000000000               0.000000000               0.000000000               0.000224874               0.000762488              -0.000008527              -0.000010983               0.000257821               0.000246838               0.000000000               0.000000000               0.000000000               0.000000000               0.000231279               0.000832734              -0.000009614              -0.000017362               0.000283363               0.000266000               0.000000000               0.000000000               0.000000000               0.000000000               0.000235026               0.000904390              -0.000008899              -0.000024914               0.000309765               0.000284851               0.000000000               0.000000000               0.000000000               0.000000000               0.000236512               0.000976237              -0.000005837              -0.000033337               0.000336522               0.000303184               0.000000000               0.000000000               0.000000000               0.000000000               0.000230857               0.001006619              -0.000001762              -0.000039256               0.000348622               0.000309366               0.000000000               0.000000000               0.000000000               0.000000000               0.000003781               0.000022868               0.000000784              -0.000001441               0.000008103               0.000006662               0.000000000               0.000000000               0.000000000               0.000000000               0.000018411               0.000052340               0.000003819               0.000000362               0.000017326               0.000017688               0.000000000               0.000000000               0.000000000               0.000000000               0.000036554               0.000102717               0.000001657               0.000000868               0.000033949               0.000034817               0.000000000               0.000000000               0.000000000               0.000000000               0.000051459               0.000159894              -0.000001910              -0.000000690               0.000053527               0.000052838               0.000000000               0.000000000               0.000000000               0.000000000               0.000076317               0.000231555               0.000000209              -0.000000325               0.000077293               0.000076967               0.000000000               0.000000000               0.000000000               0.000000000               0.000099985               0.000299979               0.000000566              -0.000000003               0.000099993               0.000099990               0.000000000               0.000000000               0.000000000               0.000000000               0.000122972               0.000366433              -0.000000188               0.000000311               0.000122040               0.000122350               0.000000000               0.000000000               0.000000000               0.000000000               0.000146473               0.000435500               0.000000421               0.000000490               0.000145002               0.000145492               0.000000000               0.000000000               0.000000000               0.000000000               0.000168655               0.000504490               0.000000349               0.000000184               0.000168100               0.000168284               0.000000000               0.000000000               0.000000000               0.000000000               0.000189766               0.000571400               0.000000061              -0.000000263               0.000190552               0.000190290               0.000000000               0.000000000               0.000000000               0.000000000               0.000210497               0.000638182              -0.000000532              -0.000000836               0.000213004               0.000212168               0.000000000               0.000000000               0.000000000               0.000000000               0.000229907               0.000703923              -0.000001289              -0.000001775               0.000235230               0.000233455               0.000000000               0.000000000               0.000000000               0.000000000               0.000247485               0.000770715              -0.000002263              -0.000003533               0.000258080               0.000254547               0.000000000               0.000000000               0.000000000               0.000000000               0.000262497               0.000838420              -0.000003074              -0.000006366               0.000281593               0.000275227               0.000000000               0.000000000               0.000000000               0.000000000               0.000275463               0.000907662              -0.000003371              -0.000010159               0.000305937               0.000295778               0.000000000               0.000000000               0.000000000               0.000000000               0.000286998               0.000977408              -0.000002442              -0.000014552               0.000330650               0.000316098               0.000000000               0.000000000               0.000000000               0.000000000               0.000289375               0.001009030              -0.000000799              -0.000017613               0.000342211               0.000324598               0.000000000               0.000000000               0.000000000               0.000000000               0.000007419               0.000031547               0.000000528              -0.000001161               0.000010903               0.000009742               0.000000000               0.000000000               0.000000000               0.000000000               0.000019826               0.000063570               0.000002823              -0.000000512               0.000021360               0.000020849               0.000000000               0.000000000               0.000000000               0.000000000               0.000041166               0.000116309               0.000002477               0.000000899               0.000038470               0.000039368               0.000000000               0.000000000               0.000000000               0.000000000               0.000056592               0.000169816              -0.000001238              -0.000000005               0.000056606               0.000056601               0.000000000               0.000000000               0.000000000               0.000000000               0.000079235               0.000238593              -0.000000442              -0.000000111               0.000079567               0.000079456               0.000000000               0.000000000               0.000000000               0.000000000               0.000103823               0.000310764               0.000000859               0.000000088               0.000103558               0.000103646               0.000000000               0.000000000               0.000000000               0.000000000               0.000125132               0.000375157              -0.000000160               0.000000030               0.000125041               0.000125071               0.000000000               0.000000000               0.000000000               0.000000000               0.000147562               0.000441172               0.000000069               0.000000189               0.000146993               0.000147182               0.000000000               0.000000000               0.000000000               0.000000000               0.000170695               0.000510475               0.000000346               0.000000201               0.000170090               0.000170291               0.000000000               0.000000000               0.000000000               0.000000000               0.000192769               0.000577371               0.000000416               0.000000117               0.000192416               0.000192533               0.000000000               0.000000000               0.000000000               0.000000000               0.000215116               0.000644691               0.000000493               0.000000082               0.000214867               0.000214949               0.000000000               0.000000000               0.000000000               0.000000000               0.000237191               0.000711028               0.000000586               0.000000068               0.000236984               0.000237052               0.000000000               0.000000000               0.000000000               0.000000000               0.000258787               0.000777176               0.000000443              -0.000000102               0.000259090               0.000258988               0.000000000               0.000000000               0.000000000               0.000000000               0.000279409               0.000843441               0.000000304              -0.000000652               0.000281362               0.000280710               0.000000000               0.000000000               0.000000000               0.000000000               0.000298896               0.000910801               0.000000006              -0.000001764               0.000304185               0.000302421               0.000000000               0.000000000               0.000000000               0.000000000               0.000317317               0.000978717              -0.000000114              -0.000003346               0.000327351               0.000324005               0.000000000               0.000000000               0.000000000               0.000000000               0.000324995               0.001011284               0.000000187              -0.000004537               0.000338604               0.000334066               0.000000000               0.000000000               0.000000000               0.000000000               0.000012762               0.000041414               0.000001400              -0.000000391               0.000013935               0.000013544               0.000000000               0.000000000               0.000000000               0.000000000               0.000021700               0.000072818               0.000002656              -0.000000965               0.000024594               0.000023629               0.000000000               0.000000000               0.000000000               0.000000000               0.000042895               0.000127177               0.000002202               0.000000188               0.000042329               0.000042518               0.000000000               0.000000000               0.000000000               0.000000000               0.000059660               0.000179101              -0.000001089              -0.000000015               0.000059705               0.000059690               0.000000000               0.000000000               0.000000000               0.000000000               0.000080407               0.000242949              -0.000001337              -0.000000216               0.000081054               0.000080838               0.000000000               0.000000000               0.000000000               0.000000000               0.000105255               0.000316419               0.000000488              -0.000000082               0.000105499               0.000105418               0.000000000               0.000000000               0.000000000               0.000000000               0.000127038               0.000382034               0.000000212              -0.000000115               0.000127382               0.000127267               0.000000000               0.000000000               0.000000000               0.000000000               0.000148871               0.000445907              -0.000000118               0.000000088               0.000148605               0.000148693               0.000000000               0.000000000               0.000000000               0.000000000               0.000172205               0.000514002               0.000000119               0.000000326               0.000171224               0.000171550               0.000000000               0.000000000               0.000000000               0.000000000               0.000194437               0.000580721               0.000000152               0.000000324               0.000193464               0.000193787               0.000000000               0.000000000               0.000000000               0.000000000               0.000216601               0.000647775               0.000000197               0.000000253               0.000215838               0.000216092               0.000000000               0.000000000               0.000000000               0.000000000               0.000239159               0.000714940               0.000000426               0.000000317               0.000238205               0.000238522               0.000000000               0.000000000               0.000000000               0.000000000               0.000262003               0.000781539               0.000000507               0.000000559               0.000260324               0.000260883               0.000000000               0.000000000               0.000000000               0.000000000               0.000284831               0.000847452               0.000000558               0.000000880               0.000282188               0.000283068               0.000000000               0.000000000               0.000000000               0.000000000               0.000307458               0.000913651               0.000000465               0.000001090               0.000304184               0.000305274               0.000000000               0.000000000               0.000000000               0.000000000               0.000329354               0.000980140               0.000000272               0.000000990               0.000326380               0.000327370               0.000000000               0.000000000               0.000000000               0.000000000               0.000339668               0.001013082               0.000000211               0.000000740               0.000337444               0.000338184               0.000000000               0.000000000               0.000000000               0.000000000               0.000014740               0.000045954              -0.000000898              -0.000000217               0.000015390               0.000015174               0.000000000               0.000000000               0.000000000               0.000000000               0.000023920               0.000078311               0.000000668              -0.000000819               0.000026376               0.000025557               0.000000000               0.000000000               0.000000000               0.000000000               0.000044420               0.000134801               0.000001863              -0.000000193               0.000044997               0.000044805               0.000000000               0.000000000               0.000000000               0.000000000               0.000062429               0.000185561               0.000000226               0.000000216               0.000061781               0.000061997               0.000000000               0.000000000               0.000000000               0.000000000               0.000081359               0.000245099              -0.000000498              -0.000000128               0.000081742               0.000081614               0.000000000               0.000000000               0.000000000               0.000000000               0.000106180               0.000319384               0.000000259              -0.000000106               0.000106496               0.000106390               0.000000000               0.000000000               0.000000000               0.000000000               0.000128900               0.000386595              -0.000000015               0.000000013               0.000128859               0.000128873               0.000000000               0.000000000               0.000000000               0.000000000               0.000149801               0.000449141              -0.000000345               0.000000033               0.000149701               0.000149734               0.000000000               0.000000000               0.000000000               0.000000000               0.000172439               0.000516507              -0.000000148               0.000000101               0.000172133               0.000172235               0.000000000               0.000000000               0.000000000               0.000000000               0.000194736               0.000583184              -0.000000142               0.000000128               0.000194350               0.000194478               0.000000000               0.000000000               0.000000000               0.000000000               0.000216615               0.000649159              -0.000000262               0.000000086               0.000216356               0.000216441               0.000000000               0.000000000               0.000000000               0.000000000               0.000238801               0.000715990              -0.000000245               0.000000052               0.000238644               0.000238695               0.000000000               0.000000000               0.000000000               0.000000000               0.000261165               0.000782704              -0.000000152               0.000000099               0.000260866               0.000260965               0.000000000               0.000000000               0.000000000               0.000000000               0.000283573               0.000848847              -0.000000001               0.000000234               0.000282868               0.000283102               0.000000000               0.000000000               0.000000000               0.000000000               0.000306191               0.000915033               0.000000086               0.000000442               0.000304861               0.000305303               0.000000000               0.000000000               0.000000000               0.000000000               0.000328754               0.000981068               0.000000083               0.000000649               0.000326803               0.000327452               0.000000000               0.000000000               0.000000000               0.000000000               0.000340039               0.001014162               0.000000010               0.000000744               0.000337802               0.000338547               0.000000000               0.000000000               0.000000000               0.000000000               0.000014123               0.000045313              -0.000000000              -0.000000368               0.000015227               0.000014859               0.000000000               0.000000000               0.000000000               0.000000000               0.000024765               0.000077941               0.000000000              -0.000000456               0.000026132               0.000025676               0.000000000               0.000000000               0.000000000               0.000000000               0.000044977               0.000135479               0.000000000              -0.000000069               0.000045182               0.000045114               0.000000000               0.000000000               0.000000000               0.000000000               0.000064313               0.000187967              -0.000000000               0.000000622               0.000062448               0.000063069               0.000000000               0.000000000               0.000000000               0.000000000               0.000082768               0.000247014               0.000000000               0.000000161               0.000082284               0.000082445               0.000000000               0.000000000               0.000000000               0.000000000               0.000107086               0.000320585               0.000000000               0.000000084               0.000106833               0.000106917               0.000000000               0.000000000               0.000000000               0.000000000               0.000129457               0.000387644              -0.000000000               0.000000091               0.000129183               0.000129274               0.000000000               0.000000000               0.000000000               0.000000000               0.000149418               0.000450227               0.000000000              -0.000000246               0.000150156               0.000149910               0.000000000               0.000000000               0.000000000               0.000000000               0.000171522               0.000517988              -0.000000000              -0.000000428               0.000172804               0.000172376               0.000000000               0.000000000               0.000000000               0.000000000               0.000194084               0.000584616              -0.000000000              -0.000000295               0.000194968               0.000194673               0.000000000               0.000000000               0.000000000               0.000000000               0.000216131               0.000649316               0.000000000              -0.000000116               0.000216475               0.000216360               0.000000000               0.000000000               0.000000000               0.000000000               0.000238086               0.000715070               0.000000000              -0.000000101               0.000238388               0.000238287               0.000000000               0.000000000               0.000000000               0.000000000               0.000259813               0.000781530               0.000000000              -0.000000261               0.000260595               0.000260333               0.000000000               0.000000000               0.000000000               0.000000000               0.000281462               0.000848087               0.000000000              -0.000000462               0.000282847               0.000282385               0.000000000               0.000000000               0.000000000               0.000000000               0.000303421               0.000914883               0.000000000              -0.000000578               0.000305151               0.000304573               0.000000000               0.000000000               0.000000000               0.000000000               0.000325659               0.000981240               0.000000000              -0.000000533               0.000327255               0.000326722               0.000000000               0.000000000               0.000000000               0.000000000               0.000337026               0.001014486               0.000000000              -0.000000426               0.000338301               0.000337875               0.000000000               0.000000000               0.000000000               0.000000000               0.000000000               0.000000000               0.000000000               0.000000000               0.000000000               0.000000000               0.000000000               0.000000000               0.000000000               0.000000000               0.000000000               0.000000000               0.000000000               0.000000000               0.000000000               0.000000000               0.000000000               0.000000000               0.000000000               0.000000000               0.000000000               0.000000000               0.000000000               0.000000000               0.000000000               0.000000000               0.000000000               0.000000000               0.000000000               0.000000000               0.000000000               0.000000000               0.000000000               0.000000000               0.000000000               0.000000000               0.000000000               0.000000000               0.000000000               0.000000000               0.000000000               0.000000000               0.000000000               0.000000000               0.000000000               0.000000000               0.000000000               0.000000000               0.000000000               0.000000000               0.000000000               0.000000000               0.000000000               0.000000000               0.000000000               0.000000000               0.000000000               0.000000000               0.000000000               0.000000000               0.000000000               0.000000000               0.000000000               0.000000000               0.000000000               0.000000000               0.000000000               0.000000000               0.000000000               0.000000000               0.000000000               0.000000000               0.000000000               0.000000000               0.000000000               0.000000000               0.000000000               0.000000000               0.000000000               0.000000000               0.000000000               0.000000000               0.000000000               0.000000000               0.000000000               0.000000000               0.000000000               0.000000000               0.000000000               0.000000000               0.000000000               0.000000000               0.000000000               0.000000000               0.000000000               0.000000000               0.000000000               0.000000000               0.000000000               0.000000000               0.000000000               0.000000000               0.000000000               0.000000000               0.000000000               0.000000000               0.000000000               0.000000000               0.000000000               0.000000000               0.000000000               0.000000000               0.000000000               0.000000000               0.000000000               0.000000000               0.000000000               0.000000000               0.000000000               0.000000000               0.000000000               0.000000000               0.000000000               0.000000000               0.000000000               0.000000000               0.000000000               0.000000000               0.000000000               0.000000000               0.000000000               0.000000000               0.000000000               0.000000000               0.000000000               0.000000000               0.000000000               0.000000000               0.000000000               0.000000000               0.000000000               0.000000000               0.000000000               0.000000000               0.000000000               0.000000000               0.000000000               0.000000000               0.000000000               0.000000000               0.000000000               0.000000000               0.000000000               0.000000000               0.000000000               0.000000000               0.000000000               0.000000000               0.000000000               0.000000000               0.000000000               0.000000000               0.000000000               0.000000000               0.000000000               0.000000000               0.000000000               0.000000000               0.000000000               0.000000000              -0.000002574              -0.000003815               0.000000339              -0.000000488              -0.000001109              -0.000001597               0.000000000               0.000000000               0.000000000               0.000000000              -0.000002336              -0.000001889               0.000001408              -0.000000640              -0.000000416              -0.000001056               0.000000000               0.000000000               0.000000000               0.000000000              -0.000000795              -0.000000697               0.000001281              -0.000000211              -0.000000162              -0.000000373               0.000000000               0.000000000               0.000000000               0.000000000               0.000002193               0.000002059              -0.000000263               0.000000565               0.000000498               0.000001063               0.000000000               0.000000000               0.000000000               0.000000000               0.000003387               0.000004080              -0.000001975               0.000000760               0.000001107               0.000001867               0.000000000               0.000000000               0.000000000               0.000000000               0.000003014               0.000004037              -0.000003339               0.000000626               0.000001137               0.000001763               0.000000000               0.000000000               0.000000000               0.000000000               0.000001734               0.000002399              -0.000003262               0.000000350               0.000000683               0.000001033               0.000000000               0.000000000               0.000000000               0.000000000              -0.000000188              -0.000000445              -0.000001978              -0.000000015              -0.000000144              -0.000000158               0.000000000               0.000000000               0.000000000               0.000000000              -0.000002043              -0.000003955               0.000000167              -0.000000272              -0.000001228              -0.000001500               0.000000000               0.000000000               0.000000000               0.000000000              -0.000003633              -0.000006933               0.000002446              -0.000000496              -0.000002146              -0.000002641               0.000000000               0.000000000               0.000000000               0.000000000              -0.000005109              -0.000008753               0.000004037              -0.000000822              -0.000002644              -0.000003466               0.000000000               0.000000000               0.000000000               0.000000000              -0.000006040              -0.000009929               0.000004757              -0.000001024              -0.000002968              -0.000003992               0.000000000               0.000000000               0.000000000               0.000000000              -0.000005752              -0.000011198               0.000004847              -0.000000757              -0.000003480              -0.000004238               0.000000000               0.000000000               0.000000000               0.000000000              -0.000004140              -0.000013097               0.000004557               0.000000085              -0.000004394              -0.000004309               0.000000000               0.000000000               0.000000000               0.000000000              -0.000001903              -0.000015587               0.000003907               0.000001235              -0.000005607              -0.000004373               0.000000000               0.000000000               0.000000000               0.000000000              -0.000000341              -0.000018092               0.000002431               0.000002134              -0.000006742              -0.000004608               0.000000000               0.000000000               0.000000000               0.000000000               0.000000049              -0.000019413               0.000001382               0.000002445              -0.000007286              -0.000004841               0.000000000               0.000000000               0.000000000               0.000000000               0.000000777               0.000001174              -0.000001372               0.000000145               0.000000343               0.000000488               0.000000000               0.000000000               0.000000000               0.000000000               0.000001300               0.000004441              -0.000001484              -0.000000068               0.000001503               0.000001435               0.000000000               0.000000000               0.000000000               0.000000000               0.000002075               0.000007249              -0.000001877              -0.000000128               0.000002459               0.000002331               0.000000000               0.000000000               0.000000000               0.000000000               0.000002585               0.000006822              -0.000001287               0.000000117               0.000002235               0.000002352               0.000000000               0.000000000               0.000000000               0.000000000               0.000002209               0.000003711               0.000000276               0.000000364               0.000001115               0.000001480               0.000000000               0.000000000               0.000000000               0.000000000               0.000000412              -0.000002728               0.000001672               0.000000495              -0.000001074              -0.000000579               0.000000000               0.000000000               0.000000000               0.000000000              -0.000002578              -0.000009673               0.000002833               0.000000242              -0.000003305              -0.000003063               0.000000000               0.000000000               0.000000000               0.000000000              -0.000006004              -0.000015234               0.000003602              -0.000000347              -0.000004962              -0.000005310               0.000000000               0.000000000               0.000000000               0.000000000              -0.000008882              -0.000017584               0.000003553              -0.000001133              -0.000005484              -0.000006616               0.000000000               0.000000000               0.000000000               0.000000000              -0.000010429              -0.000016158               0.000002458              -0.000001891              -0.000004756              -0.000006647               0.000000000               0.000000000               0.000000000               0.000000000              -0.000009650              -0.000012717               0.000000889              -0.000002029              -0.000003562              -0.000005592               0.000000000               0.000000000               0.000000000               0.000000000              -0.000006035              -0.000009337              -0.000000487              -0.000001096              -0.000002747              -0.000003843               0.000000000               0.000000000               0.000000000               0.000000000              -0.000000278              -0.000006723              -0.000001344               0.000000736              -0.000002486              -0.000001750               0.000000000               0.000000000               0.000000000               0.000000000               0.000005514              -0.000003939              -0.000001624               0.000002560              -0.000002167               0.000000394               0.000000000               0.000000000               0.000000000               0.000000000               0.000008490               0.000001112              -0.000001587               0.000003045              -0.000000644               0.000002400               0.000000000               0.000000000               0.000000000               0.000000000               0.000006231               0.000010365              -0.000001394               0.000001041               0.000003108               0.000004149               0.000000000               0.000000000               0.000000000               0.000000000               0.000005852               0.000020387               0.000000138              -0.000000354               0.000006914               0.000006560               0.000000000               0.000000000               0.000000000               0.000000000               0.000004268               0.000008433              -0.000001640               0.000000547               0.000002629               0.000003175               0.000000000               0.000000000               0.000000000               0.000000000               0.000004212               0.000006651              -0.000000664               0.000000748               0.000001967               0.000002716               0.000000000               0.000000000               0.000000000               0.000000000               0.000002144               0.000004748               0.000000852               0.000000210               0.000001513               0.000001723               0.000000000               0.000000000               0.000000000               0.000000000              -0.000001738              -0.000002576               0.000000821              -0.000000330              -0.000000749              -0.000001078               0.000000000               0.000000000               0.000000000               0.000000000              -0.000004165              -0.000010172               0.000001080              -0.000000290              -0.000003294              -0.000003584               0.000000000               0.000000000               0.000000000               0.000000000              -0.000006282              -0.000014772               0.000001780              -0.000000509              -0.000004754              -0.000005263               0.000000000               0.000000000               0.000000000               0.000000000              -0.000006489              -0.000014418               0.000002007              -0.000000631              -0.000004596              -0.000005227               0.000000000               0.000000000               0.000000000               0.000000000              -0.000004251              -0.000007910               0.000001367              -0.000000605              -0.000002435              -0.000003040               0.000000000               0.000000000               0.000000000               0.000000000              -0.000000241               0.000004021              -0.000000403              -0.000000593               0.000001538               0.000000945               0.000000000               0.000000000               0.000000000               0.000000000               0.000005483               0.000018179              -0.000002299              -0.000000216               0.000006132               0.000005916               0.000000000               0.000000000               0.000000000               0.000000000               0.000012883               0.000031593              -0.000003303               0.000000882               0.000010237               0.000011119               0.000000000               0.000000000               0.000000000               0.000000000               0.000021140               0.000043974              -0.000003008               0.000002431               0.000013848               0.000016278               0.000000000               0.000000000               0.000000000               0.000000000               0.000027953               0.000056930              -0.000001553               0.000003366               0.000017854               0.000021221               0.000000000               0.000000000               0.000000000               0.000000000               0.000030455               0.000073342               0.000000216               0.000002253               0.000023696               0.000025949               0.000000000               0.000000000               0.000000000               0.000000000               0.000026506               0.000095831               0.000001272              -0.000002039               0.000032623               0.000030584               0.000000000               0.000000000               0.000000000               0.000000000               0.000015278               0.000126071               0.000000898              -0.000010029               0.000045366               0.000035337               0.000000000               0.000000000               0.000000000               0.000000000               0.000013610               0.000153385               0.000003609              -0.000014069               0.000055818               0.000041748               0.000000000               0.000000000               0.000000000               0.000000000               0.000000755               0.000010070               0.000001688              -0.000000976               0.000003682               0.000002706               0.000000000               0.000000000               0.000000000               0.000000000               0.000000434               0.000002476               0.000000735              -0.000000147               0.000000874               0.000000727               0.000000000               0.000000000               0.000000000               0.000000000              -0.000000825              -0.000006259               0.000000398               0.000000473              -0.000002244              -0.000001771               0.000000000               0.000000000               0.000000000               0.000000000              -0.000004530              -0.000014897               0.000000391               0.000000163              -0.000005020              -0.000004857               0.000000000               0.000000000               0.000000000               0.000000000              -0.000005802              -0.000015254               0.000000529              -0.000000269              -0.000004995              -0.000005264               0.000000000               0.000000000               0.000000000               0.000000000              -0.000003320              -0.000005845               0.000000344              -0.000000514              -0.000001777              -0.000002291               0.000000000               0.000000000               0.000000000               0.000000000               0.000002333               0.000012391              -0.000000708              -0.000000674               0.000004355               0.000003681               0.000000000               0.000000000               0.000000000               0.000000000               0.000010854               0.000037132              -0.000002361              -0.000000571               0.000012567               0.000011996               0.000000000               0.000000000               0.000000000               0.000000000               0.000021235               0.000064001              -0.000003467              -0.000000037               0.000021346               0.000021309               0.000000000               0.000000000               0.000000000               0.000000000               0.000032664               0.000089172              -0.000002817               0.000001103               0.000029356               0.000030459               0.000000000               0.000000000               0.000000000               0.000000000               0.000044295               0.000112472               0.000000031               0.000002551               0.000036640               0.000039191               0.000000000               0.000000000               0.000000000               0.000000000               0.000053229               0.000136039               0.000004565               0.000002956               0.000044361               0.000047317               0.000000000               0.000000000               0.000000000               0.000000000               0.000056288               0.000163053               0.000009262               0.000000726               0.000054109               0.000054835               0.000000000               0.000000000               0.000000000               0.000000000               0.000051827               0.000196106               0.000012324              -0.000005078               0.000067061               0.000061983               0.000000000               0.000000000               0.000000000               0.000000000               0.000039805               0.000235500               0.000012320              -0.000014511               0.000083336               0.000068825               0.000000000               0.000000000               0.000000000               0.000000000               0.000021484               0.000280088               0.000008102              -0.000026954               0.000102346               0.000075392               0.000000000               0.000000000               0.000000000               0.000000000               0.000018133               0.000315134               0.000008930              -0.000032592               0.000115908               0.000083316               0.000000000               0.000000000               0.000000000               0.000000000              -0.000001979               0.000000338               0.000004268              -0.000000784               0.000000374              -0.000000410               0.000000000               0.000000000               0.000000000               0.000000000              -0.000004510              -0.000009051               0.000000384              -0.000000560              -0.000002830              -0.000003390               0.000000000               0.000000000               0.000000000               0.000000000              -0.000005481              -0.000016089              -0.000000639              -0.000000044              -0.000005348              -0.000005393               0.000000000               0.000000000               0.000000000               0.000000000              -0.000004488              -0.000011670               0.000000646              -0.000000224              -0.000003815              -0.000004039               0.000000000               0.000000000               0.000000000               0.000000000               0.000001391               0.000006683               0.000000098              -0.000000314               0.000002332               0.000002018               0.000000000               0.000000000               0.000000000               0.000000000               0.000012805               0.000036355              -0.000000626               0.000000257               0.000012033               0.000012290               0.000000000               0.000000000               0.000000000               0.000000000               0.000025908               0.000072903              -0.000001936               0.000000603               0.000024100               0.000024702               0.000000000               0.000000000               0.000000000               0.000000000               0.000039339               0.000111562              -0.000002675               0.000000807               0.000036918               0.000037725               0.000000000               0.000000000               0.000000000               0.000000000               0.000052763               0.000148621              -0.000001316               0.000001208               0.000049137               0.000050346               0.000000000               0.000000000               0.000000000               0.000000000               0.000065787               0.000182870               0.000002923               0.000001811               0.000060352               0.000062164               0.000000000               0.000000000               0.000000000               0.000000000               0.000075520               0.000216650               0.000009452               0.000001239               0.000071803               0.000073042               0.000000000               0.000000000               0.000000000               0.000000000               0.000079008               0.000253238               0.000016403              -0.000002027               0.000085087               0.000083061               0.000000000               0.000000000               0.000000000               0.000000000               0.000074691               0.000295298               0.000021480              -0.000008903               0.000101400               0.000092496               0.000000000               0.000000000               0.000000000               0.000000000               0.000062650               0.000342188               0.000023003              -0.000019280               0.000120488               0.000101209               0.000000000               0.000000000               0.000000000               0.000000000               0.000044604               0.000391653               0.000020056              -0.000032230               0.000141293               0.000109063               0.000000000               0.000000000               0.000000000               0.000000000               0.000022964               0.000440665               0.000012106              -0.000046471               0.000162377               0.000115906               0.000000000               0.000000000               0.000000000               0.000000000               0.000018378               0.000475150               0.000010796              -0.000052502               0.000175882               0.000123381               0.000000000               0.000000000               0.000000000               0.000000000              -0.000004867              -0.000015303               0.000003492               0.000000088              -0.000005130              -0.000005043               0.000000000               0.000000000               0.000000000               0.000000000              -0.000007666              -0.000018645               0.000000362              -0.000000544              -0.000006034              -0.000006578               0.000000000               0.000000000               0.000000000               0.000000000              -0.000003845              -0.000011603              -0.000000402               0.000000009              -0.000003871              -0.000003862               0.000000000               0.000000000               0.000000000               0.000000000               0.000005020               0.000012763              -0.000000054               0.000000287               0.000004159               0.000004446               0.000000000               0.000000000               0.000000000               0.000000000               0.000016894               0.000050659              -0.000000898               0.000000003               0.000016885               0.000016888               0.000000000               0.000000000               0.000000000               0.000000000               0.000033630               0.000098528              -0.000001617               0.000000295               0.000032744               0.000033039               0.000000000               0.000000000               0.000000000               0.000000000               0.000051293               0.000148948              -0.000002126               0.000000616               0.000049443               0.000050060               0.000000000               0.000000000               0.000000000               0.000000000               0.000068239               0.000198471              -0.000000648               0.000000781               0.000065896               0.000066677               0.000000000               0.000000000               0.000000000               0.000000000               0.000083726               0.000244190               0.000003689               0.000000873               0.000081105               0.000081978               0.000000000               0.000000000               0.000000000               0.000000000               0.000095511               0.000288360               0.000011019              -0.000000228               0.000096195               0.000095967               0.000000000               0.000000000               0.000000000               0.000000000               0.000100674               0.000334566               0.000019359              -0.000004068               0.000112877               0.000108809               0.000000000               0.000000000               0.000000000               0.000000000               0.000097310               0.000385618               0.000026155              -0.000011711               0.000132442               0.000120731               0.000000000               0.000000000               0.000000000               0.000000000               0.000085433               0.000440954               0.000029345              -0.000023082               0.000154677               0.000131595               0.000000000               0.000000000               0.000000000               0.000000000               0.000067197               0.000497880               0.000028217              -0.000037036               0.000178304               0.000141268               0.000000000               0.000000000               0.000000000               0.000000000               0.000045414               0.000553179               0.000022608              -0.000052117               0.000201764               0.000149647               0.000000000               0.000000000               0.000000000               0.000000000               0.000022687               0.000603244               0.000012971              -0.000066897               0.000223378               0.000156481               0.000000000               0.000000000               0.000000000               0.000000000               0.000017088               0.000635606               0.000010644              -0.000073042               0.000236214               0.000163172               0.000000000               0.000000000               0.000000000               0.000000000              -0.000006170              -0.000024763               0.000000843               0.000000782              -0.000008515              -0.000007733               0.000000000               0.000000000               0.000000000               0.000000000              -0.000006355              -0.000015722               0.000000794              -0.000000418              -0.000005101              -0.000005519               0.000000000               0.000000000               0.000000000               0.000000000               0.000002197               0.000007762              -0.000000187              -0.000000146               0.000002636               0.000002490               0.000000000               0.000000000               0.000000000               0.000000000               0.000018598               0.000052240              -0.000000328               0.000000444               0.000017265               0.000017709               0.000000000               0.000000000               0.000000000               0.000000000               0.000037964               0.000109212              -0.000000908               0.000000585               0.000036209               0.000036794               0.000000000               0.000000000               0.000000000               0.000000000               0.000059606               0.000170285              -0.000001877               0.000001067               0.000056406               0.000057472               0.000000000               0.000000000               0.000000000               0.000000000               0.000079543               0.000231155              -0.000001034               0.000000934               0.000076740               0.000077674               0.000000000               0.000000000               0.000000000               0.000000000               0.000096868               0.000288233               0.000002163               0.000000297               0.000095978               0.000096274               0.000000000               0.000000000               0.000000000               0.000000000               0.000111465               0.000343126               0.000008750              -0.000001091               0.000114738               0.000113647               0.000000000               0.000000000               0.000000000               0.000000000               0.000119743               0.000399115               0.000017182              -0.000004986               0.000134699               0.000129713               0.000000000               0.000000000               0.000000000               0.000000000               0.000119062               0.000459473               0.000024999              -0.000012786               0.000157418               0.000144632               0.000000000               0.000000000               0.000000000               0.000000000               0.000109107               0.000524283               0.000029663              -0.000024620               0.000182966               0.000158346               0.000000000               0.000000000               0.000000000               0.000000000               0.000091973               0.000591158               0.000030074              -0.000039405               0.000210186               0.000170781               0.000000000               0.000000000               0.000000000               0.000000000               0.000070343               0.000656703               0.000026156              -0.000055709               0.000237469               0.000181760               0.000000000               0.000000000               0.000000000               0.000000000               0.000047087               0.000717749               0.000019018              -0.000072061               0.000263267               0.000191207               0.000000000               0.000000000               0.000000000               0.000000000               0.000023819               0.000771063               0.000010216              -0.000087450               0.000286169               0.000198718               0.000000000               0.000000000               0.000000000               0.000000000               0.000015954               0.000803766               0.000008353              -0.000094488               0.000299415               0.000204928               0.000000000               0.000000000               0.000000000               0.000000000              -0.000002412              -0.000021322              -0.000002873               0.000001761              -0.000007694              -0.000005934               0.000000000               0.000000000               0.000000000               0.000000000              -0.000001176              -0.000004561               0.000000712               0.000000129              -0.000001563              -0.000001434               0.000000000               0.000000000               0.000000000               0.000000000               0.000009339               0.000031522              -0.000000317              -0.000000438               0.000010653               0.000010215               0.000000000               0.000000000               0.000000000               0.000000000               0.000032553               0.000093298              -0.000001729               0.000000545               0.000030917               0.000031462               0.000000000               0.000000000               0.000000000               0.000000000               0.000054914               0.000160261              -0.000002268               0.000000560               0.000053233               0.000053793               0.000000000               0.000000000               0.000000000               0.000000000               0.000078415               0.000229061              -0.000002833               0.000000773               0.000076095               0.000076868               0.000000000               0.000000000               0.000000000               0.000000000               0.000099672               0.000296455              -0.000001364               0.000000320               0.000098710               0.000099031               0.000000000               0.000000000               0.000000000               0.000000000               0.000117758               0.000359354               0.000002498              -0.000000760               0.000120037               0.000119277               0.000000000               0.000000000               0.000000000               0.000000000               0.000131997               0.000421728               0.000008794              -0.000003217               0.000141647               0.000138430               0.000000000               0.000000000               0.000000000               0.000000000               0.000138380               0.000486619               0.000016082              -0.000008935               0.000165183               0.000156248               0.000000000               0.000000000               0.000000000               0.000000000               0.000135864               0.000557274               0.000022365              -0.000018710               0.000191993               0.000173283               0.000000000               0.000000000               0.000000000               0.000000000               0.000125159               0.000632065               0.000025507              -0.000032073               0.000221377               0.000189304               0.000000000               0.000000000               0.000000000               0.000000000               0.000109191               0.000708374               0.000024573              -0.000047600               0.000251989               0.000204389               0.000000000               0.000000000               0.000000000               0.000000000               0.000090094               0.000782324               0.000019828              -0.000064005               0.000282107               0.000218102               0.000000000               0.000000000               0.000000000               0.000000000               0.000070099               0.000851382               0.000012707              -0.000080136               0.000310503               0.000230367               0.000000000               0.000000000               0.000000000               0.000000000               0.000050503               0.000913425               0.000005285              -0.000095239               0.000336218               0.000240979               0.000000000               0.000000000               0.000000000               0.000000000               0.000039101               0.000945855               0.000002134              -0.000103569               0.000349805               0.000246236               0.000000000               0.000000000               0.000000000               0.000000000               0.000001430              -0.000007957              -0.000006200               0.000001531              -0.000003162              -0.000001632               0.000000000               0.000000000               0.000000000               0.000000000               0.000005139               0.000008425              -0.000000320               0.000000874               0.000002517               0.000003391               0.000000000               0.000000000               0.000000000               0.000000000               0.000015118               0.000051538               0.000000931              -0.000000773               0.000017437               0.000016664               0.000000000               0.000000000               0.000000000               0.000000000               0.000040177               0.000119432              -0.000000515               0.000000137               0.000039764               0.000039902               0.000000000               0.000000000               0.000000000               0.000000000               0.000064036               0.000188330              -0.000001109               0.000000472               0.000062619               0.000063091               0.000000000               0.000000000               0.000000000               0.000000000               0.000088243               0.000260067              -0.000001380               0.000000583               0.000086494               0.000087076               0.000000000               0.000000000               0.000000000               0.000000000               0.000110642               0.000330203              -0.000000471               0.000000215               0.000109995               0.000110210               0.000000000               0.000000000               0.000000000               0.000000000               0.000130294               0.000397707               0.000003062              -0.000000853               0.000132852               0.000131999               0.000000000               0.000000000               0.000000000               0.000000000               0.000146924               0.000462829               0.000007658              -0.000002757               0.000155194               0.000152437               0.000000000               0.000000000               0.000000000               0.000000000               0.000158089               0.000528798               0.000013135              -0.000006817               0.000178536               0.000171720               0.000000000               0.000000000               0.000000000               0.000000000               0.000161628               0.000597747               0.000018310              -0.000014108               0.000203950               0.000189842               0.000000000               0.000000000               0.000000000               0.000000000               0.000157589               0.000670380               0.000021821              -0.000024701               0.000231691               0.000206990               0.000000000               0.000000000               0.000000000               0.000000000               0.000147987               0.000745605               0.000022150              -0.000037705               0.000261101               0.000223396               0.000000000               0.000000000               0.000000000               0.000000000               0.000134855               0.000821731               0.000019113              -0.000052146               0.000291290               0.000239144               0.000000000               0.000000000               0.000000000               0.000000000               0.000120167               0.000896999               0.000013134              -0.000067062               0.000321351               0.000254288               0.000000000               0.000000000               0.000000000               0.000000000               0.000106077               0.000971601               0.000005899              -0.000081671               0.000351087               0.000269416               0.000000000               0.000000000               0.000000000               0.000000000               0.000092499               0.001004573              -0.000000283              -0.000090884               0.000365149               0.000274265               0.000000000               0.000000000               0.000000000               0.000000000               0.000001621               0.000005599              -0.000006575              -0.000000092               0.000001897               0.000001805               0.000000000               0.000000000               0.000000000               0.000000000               0.000010816               0.000022207              -0.000002260               0.000001280               0.000006976               0.000008256               0.000000000               0.000000000               0.000000000               0.000000000               0.000021475               0.000069030               0.000001386              -0.000000576               0.000023202               0.000022626               0.000000000               0.000000000               0.000000000               0.000000000               0.000044352               0.000135686               0.000000111              -0.000000329               0.000045338               0.000045009               0.000000000               0.000000000               0.000000000               0.000000000               0.000069829               0.000205983              -0.000000820               0.000000438               0.000068514               0.000068952               0.000000000               0.000000000               0.000000000               0.000000000               0.000093149               0.000274999              -0.000000658               0.000000556               0.000091480               0.000092036               0.000000000               0.000000000               0.000000000               0.000000000               0.000116671               0.000345254              -0.000000798               0.000000595               0.000114885               0.000115480               0.000000000               0.000000000               0.000000000               0.000000000               0.000137492               0.000414149               0.000000659              -0.000000209               0.000138118               0.000137909               0.000000000               0.000000000               0.000000000               0.000000000               0.000156208               0.000480272               0.000003208              -0.000001456               0.000160574               0.000159118               0.000000000               0.000000000               0.000000000               0.000000000               0.000172640               0.000546319               0.000006661              -0.000003550               0.000183288               0.000179738               0.000000000               0.000000000               0.000000000               0.000000000               0.000184481               0.000612905               0.000010383              -0.000007433               0.000206777               0.000199344               0.000000000               0.000000000               0.000000000               0.000000000               0.000190362               0.000681779               0.000014032              -0.000013837               0.000231870               0.000218033               0.000000000               0.000000000               0.000000000               0.000000000               0.000190896               0.000753408               0.000016127              -0.000022590               0.000258664               0.000236074               0.000000000               0.000000000               0.000000000               0.000000000               0.000187439               0.000826659               0.000015835              -0.000033043               0.000286564               0.000253522               0.000000000               0.000000000               0.000000000               0.000000000               0.000181285               0.000900617               0.000012597              -0.000044595               0.000315068               0.000270472               0.000000000               0.000000000               0.000000000               0.000000000               0.000173708               0.000974427               0.000006995              -0.000056663               0.000343694               0.000287031               0.000000000               0.000000000               0.000000000               0.000000000               0.000162008               0.001004352               0.000000690              -0.000064791               0.000356377               0.000291587               0.000000000               0.000000000               0.000000000               0.000000000               0.000002010               0.000015021              -0.000003963              -0.000001124               0.000005381               0.000004258               0.000000000               0.000000000               0.000000000               0.000000000               0.000015542               0.000037397              -0.000003993               0.000001154               0.000012081               0.000013235               0.000000000               0.000000000               0.000000000               0.000000000               0.000029059               0.000086006               0.000000538               0.000000146               0.000028620               0.000028766               0.000000000               0.000000000               0.000000000               0.000000000               0.000047379               0.000148734               0.000001591              -0.000000825               0.000049852               0.000049028               0.000000000               0.000000000               0.000000000               0.000000000               0.000074243               0.000221199              -0.000000469               0.000000191               0.000073669               0.000073860               0.000000000               0.000000000               0.000000000               0.000000000               0.000097111               0.000288658              -0.000000352               0.000000334               0.000096107               0.000096441               0.000000000               0.000000000               0.000000000               0.000000000               0.000120402               0.000357481              -0.000000667               0.000000466               0.000119004               0.000119470               0.000000000               0.000000000               0.000000000               0.000000000               0.000142715               0.000426939              -0.000000610               0.000000151               0.000142261               0.000142412               0.000000000               0.000000000               0.000000000               0.000000000               0.000163417               0.000494635               0.000000501              -0.000000548               0.000165059               0.000164511               0.000000000               0.000000000               0.000000000               0.000000000               0.000182823               0.000560828               0.000002141              -0.000001545               0.000187456               0.000185911               0.000000000               0.000000000               0.000000000               0.000000000               0.000200432               0.000626919               0.000004138              -0.000003203               0.000210039               0.000206836               0.000000000               0.000000000               0.000000000               0.000000000               0.000214725               0.000693802               0.000006451              -0.000006203               0.000233333               0.000227129               0.000000000               0.000000000               0.000000000               0.000000000               0.000224874               0.000762488               0.000008527              -0.000010983               0.000257821               0.000246838               0.000000000               0.000000000               0.000000000               0.000000000               0.000231279               0.000832734               0.000009614              -0.000017362               0.000283363               0.000266000               0.000000000               0.000000000               0.000000000               0.000000000               0.000235026               0.000904390               0.000008899              -0.000024914               0.000309765               0.000284851               0.000000000               0.000000000               0.000000000               0.000000000               0.000236512               0.000976237               0.000005837              -0.000033337               0.000336522               0.000303184               0.000000000               0.000000000               0.000000000               0.000000000               0.000230857               0.001006619               0.000001762              -0.000039256               0.000348622               0.000309366               0.000000000               0.000000000               0.000000000               0.000000000               0.000003781               0.000022868              -0.000000784              -0.000001441               0.000008103               0.000006662               0.000000000               0.000000000               0.000000000               0.000000000               0.000018411               0.000052340              -0.000003819               0.000000362               0.000017326               0.000017688               0.000000000               0.000000000               0.000000000               0.000000000               0.000036554               0.000102717              -0.000001657               0.000000868               0.000033949               0.000034817               0.000000000               0.000000000               0.000000000               0.000000000               0.000051459               0.000159894               0.000001910              -0.000000690               0.000053527               0.000052838               0.000000000               0.000000000               0.000000000               0.000000000               0.000076317               0.000231555              -0.000000209              -0.000000325               0.000077293               0.000076967               0.000000000               0.000000000               0.000000000               0.000000000               0.000099985               0.000299979              -0.000000566              -0.000000003               0.000099993               0.000099990               0.000000000               0.000000000               0.000000000               0.000000000               0.000122972               0.000366433               0.000000188               0.000000311               0.000122040               0.000122350               0.000000000               0.000000000               0.000000000               0.000000000               0.000146473               0.000435500              -0.000000421               0.000000490               0.000145002               0.000145492               0.000000000               0.000000000               0.000000000               0.000000000               0.000168655               0.000504490              -0.000000349               0.000000184               0.000168100               0.000168284               0.000000000               0.000000000               0.000000000               0.000000000               0.000189766               0.000571400              -0.000000061              -0.000000263               0.000190552               0.000190290               0.000000000               0.000000000               0.000000000               0.000000000               0.000210497               0.000638182               0.000000532              -0.000000836               0.000213004               0.000212168               0.000000000               0.000000000               0.000000000               0.000000000               0.000229907               0.000703923               0.000001289              -0.000001775               0.000235230               0.000233455               0.000000000               0.000000000               0.000000000               0.000000000               0.000247485               0.000770715               0.000002263              -0.000003533               0.000258080               0.000254547               0.000000000               0.000000000               0.000000000               0.000000000               0.000262497               0.000838420               0.000003074              -0.000006366               0.000281593               0.000275227               0.000000000               0.000000000               0.000000000               0.000000000               0.000275463               0.000907662               0.000003371              -0.000010159               0.000305937               0.000295778               0.000000000               0.000000000               0.000000000               0.000000000               0.000286998               0.000977408               0.000002442              -0.000014552               0.000330650               0.000316098               0.000000000               0.000000000               0.000000000               0.000000000               0.000289375               0.001009030               0.000000799              -0.000017613               0.000342211               0.000324598               0.000000000               0.000000000               0.000000000               0.000000000               0.000007419               0.000031547              -0.000000528              -0.000001161               0.000010903               0.000009742               0.000000000               0.000000000               0.000000000               0.000000000               0.000019826               0.000063570              -0.000002823              -0.000000512               0.000021360               0.000020849               0.000000000               0.000000000               0.000000000               0.000000000               0.000041166               0.000116309              -0.000002477               0.000000899               0.000038470               0.000039368               0.000000000               0.000000000               0.000000000               0.000000000               0.000056592               0.000169816               0.000001238              -0.000000005               0.000056606               0.000056601               0.000000000               0.000000000               0.000000000               0.000000000               0.000079235               0.000238593               0.000000442              -0.000000111               0.000079567               0.000079456               0.000000000               0.000000000               0.000000000               0.000000000               0.000103823               0.000310764              -0.000000859               0.000000088               0.000103558               0.000103646               0.000000000               0.000000000               0.000000000               0.000000000               0.000125132               0.000375157               0.000000160               0.000000030               0.000125041               0.000125071               0.000000000               0.000000000               0.000000000               0.000000000               0.000147562               0.000441172              -0.000000069               0.000000189               0.000146993               0.000147182               0.000000000               0.000000000               0.000000000               0.000000000               0.000170695               0.000510475              -0.000000346               0.000000201               0.000170090               0.000170291               0.000000000               0.000000000               0.000000000               0.000000000               0.000192769               0.000577371              -0.000000416               0.000000117               0.000192416               0.000192533               0.000000000               0.000000000               0.000000000               0.000000000               0.000215116               0.000644691              -0.000000493               0.000000082               0.000214867               0.000214949               0.000000000               0.000000000               0.000000000               0.000000000               0.000237191               0.000711028              -0.000000586               0.000000068               0.000236984               0.000237052               0.000000000               0.000000000               0.000000000               0.000000000               0.000258787               0.000777176              -0.000000443              -0.000000102               0.000259090               0.000258988               0.000000000               0.000000000               0.000000000               0.000000000               0.000279409               0.000843441              -0.000000304              -0.000000652               0.000281362               0.000280710               0.000000000               0.000000000               0.000000000               0.000000000               0.000298896               0.000910801              -0.000000006              -0.000001764               0.000304185               0.000302421               0.000000000               0.000000000               0.000000000               0.000000000               0.000317317               0.000978717               0.000000114              -0.000003346               0.000327351               0.000324005               0.000000000               0.000000000               0.000000000               0.000000000               0.000324995               0.001011284              -0.000000187              -0.000004537               0.000338604               0.000334066               0.000000000               0.000000000               0.000000000               0.000000000               0.000012762               0.000041414              -0.000001400              -0.000000391               0.000013935               0.000013544               0.000000000               0.000000000               0.000000000               0.000000000               0.000021700               0.000072818              -0.000002656              -0.000000965               0.000024594               0.000023629               0.000000000               0.000000000               0.000000000               0.000000000               0.000042895               0.000127177              -0.000002202               0.000000188               0.000042329               0.000042518               0.000000000               0.000000000               0.000000000               0.000000000               0.000059660               0.000179101               0.000001089              -0.000000015               0.000059705               0.000059690               0.000000000               0.000000000               0.000000000               0.000000000               0.000080407               0.000242949               0.000001337              -0.000000216               0.000081054               0.000080838               0.000000000               0.000000000               0.000000000               0.000000000               0.000105255               0.000316419              -0.000000488              -0.000000082               0.000105499               0.000105418               0.000000000               0.000000000               0.000000000               0.000000000               0.000127038               0.000382034              -0.000000212              -0.000000115               0.000127382               0.000127267               0.000000000               0.000000000               0.000000000               0.000000000               0.000148871               0.000445907               0.000000118               0.000000088               0.000148605               0.000148693               0.000000000               0.000000000               0.000000000               0.000000000               0.000172205               0.000514002              -0.000000119               0.000000326               0.000171224               0.000171550               0.000000000               0.000000000               0.000000000               0.000000000               0.000194437               0.000580721              -0.000000152               0.000000324               0.000193464               0.000193787               0.000000000               0.000000000               0.000000000               0.000000000               0.000216601               0.000647775              -0.000000197               0.000000253               0.000215838               0.000216092               0.000000000               0.000000000               0.000000000               0.000000000               0.000239159               0.000714940              -0.000000426               0.000000317               0.000238205               0.000238522               0.000000000               0.000000000               0.000000000               0.000000000               0.000262003               0.000781539              -0.000000507               0.000000559               0.000260324               0.000260883               0.000000000               0.000000000               0.000000000               0.000000000               0.000284831               0.000847452              -0.000000558               0.000000880               0.000282188               0.000283068               0.000000000               0.000000000               0.000000000               0.000000000               0.000307458               0.000913651              -0.000000465               0.000001090               0.000304184               0.000305274               0.000000000               0.000000000               0.000000000               0.000000000               0.000329354               0.000980140              -0.000000272               0.000000990               0.000326380               0.000327370               0.000000000               0.000000000               0.000000000               0.000000000               0.000339668               0.001013082              -0.000000211               0.000000740               0.000337444               0.000338184               0.000000000               0.000000000               0.000000000               0.000000000               0.000014740               0.000045954               0.000000898              -0.000000217               0.000015390               0.000015174               0.000000000               0.000000000               0.000000000               0.000000000               0.000023920               0.000078311              -0.000000668              -0.000000819               0.000026376               0.000025557               0.000000000               0.000000000               0.000000000               0.000000000               0.000044420               0.000134801              -0.000001863              -0.000000193               0.000044997               0.000044805               0.000000000               0.000000000               0.000000000               0.000000000               0.000062429               0.000185561              -0.000000226               0.000000216               0.000061781               0.000061997               0.000000000               0.000000000               0.000000000               0.000000000               0.000081359               0.000245099               0.000000498              -0.000000128               0.000081742               0.000081614               0.000000000               0.000000000               0.000000000               0.000000000               0.000106180               0.000319384              -0.000000259              -0.000000106               0.000106496               0.000106390               0.000000000               0.000000000               0.000000000               0.000000000               0.000128900               0.000386595               0.000000015               0.000000013               0.000128859               0.000128873               0.000000000               0.000000000               0.000000000               0.000000000               0.000149801               0.000449141               0.000000345               0.000000033               0.000149701               0.000149734               0.000000000               0.000000000               0.000000000               0.000000000               0.000172439               0.000516507               0.000000148               0.000000101               0.000172133               0.000172235               0.000000000               0.000000000               0.000000000               0.000000000               0.000194736               0.000583184               0.000000142               0.000000128               0.000194350               0.000194478               0.000000000               0.000000000               0.000000000               0.000000000               0.000216615               0.000649159               0.000000262               0.000000086               0.000216356               0.000216441               0.000000000               0.000000000               0.000000000               0.000000000               0.000238801               0.000715990               0.000000245               0.000000052               0.000238644               0.000238695               0.000000000               0.000000000               0.000000000               0.000000000               0.000261165               0.000782704               0.000000152               0.000000099               0.000260866               0.000260965               0.000000000               0.000000000               0.000000000               0.000000000               0.000283573               0.000848847               0.000000001               0.000000234               0.000282868               0.000283102               0.000000000               0.000000000               0.000000000               0.000000000               0.000306191               0.000915033              -0.000000086               0.000000442               0.000304861               0.000305303               0.000000000               0.000000000               0.000000000               0.000000000               0.000328754               0.000981068              -0.000000083               0.000000649               0.000326803               0.000327452               0.000000000               0.000000000               0.000000000               0.000000000               0.000340039               0.001014162              -0.000000010               0.000000744               0.000337802               0.000338547               0.000000000               0.000000000               0.000000000               0.000000000               0.000014123               0.000045313              -0.000000000              -0.000000368               0.000015227               0.000014859               0.000000000               0.000000000               0.000000000               0.000000000               0.000024765               0.000077941               0.000000000              -0.000000456               0.000026132               0.000025676               0.000000000               0.000000000               0.000000000               0.000000000               0.000044977               0.000135479               0.000000000              -0.000000069               0.000045182               0.000045114               0.000000000               0.000000000               0.000000000               0.000000000               0.000064313               0.000187967              -0.000000000               0.000000622               0.000062448               0.000063069               0.000000000               0.000000000               0.000000000               0.000000000               0.000082768               0.000247014              -0.000000000               0.000000161               0.000082284               0.000082445               0.000000000               0.000000000               0.000000000               0.000000000               0.000107086               0.000320585               0.000000000               0.000000084               0.000106833               0.000106917               0.000000000               0.000000000               0.000000000               0.000000000               0.000129457               0.000387644               0.000000000               0.000000091               0.000129183               0.000129274               0.000000000               0.000000000               0.000000000               0.000000000               0.000149418               0.000450227               0.000000000              -0.000000246               0.000150156               0.000149910               0.000000000               0.000000000               0.000000000               0.000000000               0.000171522               0.000517988               0.000000000              -0.000000428               0.000172804               0.000172376               0.000000000               0.000000000               0.000000000               0.000000000               0.000194084               0.000584616               0.000000000              -0.000000295               0.000194968               0.000194673               0.000000000               0.000000000               0.000000000               0.000000000               0.000216131               0.000649316               0.000000000              -0.000000116               0.000216475               0.000216360               0.000000000               0.000000000               0.000000000               0.000000000               0.000238086               0.000715070               0.000000000              -0.000000101               0.000238388               0.000238287               0.000000000               0.000000000               0.000000000               0.000000000               0.000259813               0.000781530              -0.000000000              -0.000000261               0.000260595               0.000260333               0.000000000               0.000000000               0.000000000               0.000000000               0.000281462               0.000848087              -0.000000000              -0.000000462               0.000282847               0.000282385               0.000000000               0.000000000               0.000000000               0.000000000               0.000303421               0.000914883               0.000000000              -0.000000578               0.000305151               0.000304573               0.000000000               0.000000000               0.000000000               0.000000000               0.000325659               0.000981240               0.000000000              -0.000000533               0.000327255               0.000326722               0.000000000               0.000000000               0.000000000               0.000000000               0.000337026               0.001014486              -0.000000000              -0.000000426               0.000338301               0.000337875               0.000000000               0.000000000               0.000000000               0.000000000               0.000000291              -0.000004674              -0.000000000               0.000000693              -0.000001789              -0.000001096               0.000000000               0.000000000               0.000000000               0.000000000               0.000000616              -0.000004927               0.000000000               0.000000847              -0.000001925              -0.000001078               0.000000000               0.000000000               0.000000000               0.000000000              -0.000001422              -0.000006049               0.000000000               0.000000223              -0.000002091              -0.000001868               0.000000000               0.000000000               0.000000000               0.000000000              -0.000004358              -0.000005255               0.000000000              -0.000000977              -0.000001426              -0.000002403               0.000000000               0.000000000               0.000000000               0.000000000              -0.000005027              -0.000003462               0.000000000              -0.000001452              -0.000000670              -0.000002122               0.000000000               0.000000000               0.000000000               0.000000000              -0.000002793               0.000001413              -0.000000000              -0.000001224               0.000000879              -0.000000345               0.000000000               0.000000000               0.000000000               0.000000000               0.000001139               0.000006312              -0.000000000              -0.000000362               0.000002225               0.000001863               0.000000000               0.000000000               0.000000000               0.000000000               0.000005574               0.000009705               0.000000000               0.000000877               0.000002943               0.000003820               0.000000000               0.000000000               0.000000000               0.000000000               0.000008593               0.000010927               0.000000000               0.000001856               0.000003024               0.000004880               0.000000000               0.000000000               0.000000000               0.000000000               0.000009436               0.000009720               0.000000000               0.000002323               0.000002466               0.000004789               0.000000000               0.000000000               0.000000000               0.000000000               0.000008048               0.000007305              -0.000000000               0.000002105               0.000001733               0.000003838               0.000000000               0.000000000               0.000000000               0.000000000               0.000004511               0.000005156               0.000000000               0.000001047               0.000001370               0.000002417               0.000000000               0.000000000               0.000000000               0.000000000              -0.000000281               0.000003448               0.000000000              -0.000000536               0.000001328               0.000000792               0.000000000               0.000000000               0.000000000               0.000000000              -0.000004405               0.000001476               0.000000000              -0.000001836               0.000001104              -0.000000732               0.000000000               0.000000000               0.000000000               0.000000000              -0.000005915              -0.000001498               0.000000000              -0.000002031               0.000000177              -0.000001853               0.000000000               0.000000000               0.000000000               0.000000000              -0.000004130              -0.000005151               0.000000000              -0.000000905              -0.000001415              -0.000002320               0.000000000               0.000000000               0.000000000               0.000000000              -0.000002732              -0.000007604              -0.000000000              -0.000000074              -0.000002510              -0.000002584               0.000000000               0.000000000               0.000000000               0.000000000              -0.000002574              -0.000003815              -0.000000339              -0.000000488              -0.000001109              -0.000001597               0.000000000               0.000000000               0.000000000               0.000000000              -0.000002336              -0.000001889              -0.000001408              -0.000000640              -0.000000416              -0.000001056               0.000000000               0.000000000               0.000000000               0.000000000              -0.000000795              -0.000000697              -0.000001281              -0.000000211              -0.000000162              -0.000000373               0.000000000               0.000000000               0.000000000               0.000000000               0.000002193               0.000002059               0.000000263               0.000000565               0.000000498               0.000001063               0.000000000               0.000000000               0.000000000               0.000000000               0.000003387               0.000004080               0.000001975               0.000000760               0.000001107               0.000001867               0.000000000               0.000000000               0.000000000               0.000000000               0.000003014               0.000004037               0.000003339               0.000000626               0.000001137               0.000001763               0.000000000               0.000000000               0.000000000               0.000000000               0.000001734               0.000002399               0.000003262               0.000000350               0.000000683               0.000001033               0.000000000               0.000000000               0.000000000               0.000000000              -0.000000188              -0.000000445               0.000001978              -0.000000015              -0.000000144              -0.000000158               0.000000000               0.000000000               0.000000000               0.000000000              -0.000002043              -0.000003955              -0.000000167              -0.000000272              -0.000001228              -0.000001500               0.000000000               0.000000000               0.000000000               0.000000000              -0.000003633              -0.000006933              -0.000002446              -0.000000496              -0.000002146              -0.000002641               0.000000000               0.000000000               0.000000000               0.000000000              -0.000005109              -0.000008753              -0.000004037              -0.000000822              -0.000002644              -0.000003466               0.000000000               0.000000000               0.000000000               0.000000000              -0.000006040              -0.000009929              -0.000004757              -0.000001024              -0.000002968              -0.000003992               0.000000000               0.000000000               0.000000000               0.000000000              -0.000005752              -0.000011198              -0.000004847              -0.000000757              -0.000003480              -0.000004238               0.000000000               0.000000000               0.000000000               0.000000000              -0.000004140              -0.000013097              -0.000004557               0.000000085              -0.000004394              -0.000004309               0.000000000               0.000000000               0.000000000               0.000000000              -0.000001903              -0.000015587              -0.000003907               0.000001235              -0.000005607              -0.000004373               0.000000000               0.000000000               0.000000000               0.000000000              -0.000000341              -0.000018092              -0.000002431               0.000002134              -0.000006742              -0.000004608               0.000000000               0.000000000               0.000000000               0.000000000               0.000000049              -0.000019413              -0.000001382               0.000002445              -0.000007286              -0.000004841               0.000000000               0.000000000               0.000000000               0.000000000               0.000000777               0.000001174               0.000001372               0.000000145               0.000000343               0.000000488               0.000000000               0.000000000               0.000000000               0.000000000               0.000001300               0.000004441               0.000001484              -0.000000068               0.000001503               0.000001435               0.000000000               0.000000000               0.000000000               0.000000000               0.000002075               0.000007249               0.000001877              -0.000000128               0.000002459               0.000002331               0.000000000               0.000000000               0.000000000               0.000000000               0.000002585               0.000006822               0.000001287               0.000000117               0.000002235               0.000002352               0.000000000               0.000000000               0.000000000               0.000000000               0.000002209               0.000003711              -0.000000276               0.000000364               0.000001115               0.000001480               0.000000000               0.000000000               0.000000000               0.000000000               0.000000412              -0.000002728              -0.000001672               0.000000495              -0.000001074              -0.000000579               0.000000000               0.000000000               0.000000000               0.000000000              -0.000002578              -0.000009673              -0.000002833               0.000000242              -0.000003305              -0.000003063               0.000000000               0.000000000               0.000000000               0.000000000              -0.000006004              -0.000015234              -0.000003602              -0.000000347              -0.000004962              -0.000005310               0.000000000               0.000000000               0.000000000               0.000000000              -0.000008882              -0.000017584              -0.000003553              -0.000001133              -0.000005484              -0.000006616               0.000000000               0.000000000               0.000000000               0.000000000              -0.000010429              -0.000016158              -0.000002458              -0.000001891              -0.000004756              -0.000006647               0.000000000               0.000000000               0.000000000               0.000000000              -0.000009650              -0.000012717              -0.000000889              -0.000002029              -0.000003562              -0.000005592               0.000000000               0.000000000               0.000000000               0.000000000              -0.000006035              -0.000009337               0.000000487              -0.000001096              -0.000002747              -0.000003843               0.000000000               0.000000000               0.000000000               0.000000000              -0.000000278              -0.000006723               0.000001344               0.000000736              -0.000002486              -0.000001750               0.000000000               0.000000000               0.000000000               0.000000000               0.000005514              -0.000003939               0.000001624               0.000002560              -0.000002167               0.000000394               0.000000000               0.000000000               0.000000000               0.000000000               0.000008490               0.000001112               0.000001587               0.000003045              -0.000000644               0.000002400               0.000000000               0.000000000               0.000000000               0.000000000               0.000006231               0.000010365               0.000001394               0.000001041               0.000003108               0.000004149               0.000000000               0.000000000               0.000000000               0.000000000               0.000005852               0.000020387              -0.000000138              -0.000000354               0.000006914               0.000006560               0.000000000               0.000000000               0.000000000               0.000000000               0.000004268               0.000008433               0.000001640               0.000000547               0.000002629               0.000003175               0.000000000               0.000000000               0.000000000               0.000000000               0.000004212               0.000006651               0.000000664               0.000000748               0.000001967               0.000002716               0.000000000               0.000000000               0.000000000               0.000000000               0.000002144               0.000004748              -0.000000852               0.000000210               0.000001513               0.000001723               0.000000000               0.000000000               0.000000000               0.000000000              -0.000001738              -0.000002576              -0.000000821              -0.000000330              -0.000000749              -0.000001078               0.000000000               0.000000000               0.000000000               0.000000000              -0.000004165              -0.000010172              -0.000001080              -0.000000290              -0.000003294              -0.000003584               0.000000000               0.000000000               0.000000000               0.000000000              -0.000006282              -0.000014772              -0.000001780              -0.000000509              -0.000004754              -0.000005263               0.000000000               0.000000000               0.000000000               0.000000000              -0.000006489              -0.000014418              -0.000002007              -0.000000631              -0.000004596              -0.000005227               0.000000000               0.000000000               0.000000000               0.000000000              -0.000004251              -0.000007910              -0.000001367              -0.000000605              -0.000002435              -0.000003040               0.000000000               0.000000000               0.000000000               0.000000000              -0.000000241               0.000004021               0.000000403              -0.000000593               0.000001538               0.000000945               0.000000000               0.000000000               0.000000000               0.000000000               0.000005483               0.000018179               0.000002299              -0.000000216               0.000006132               0.000005916               0.000000000               0.000000000               0.000000000               0.000000000               0.000012883               0.000031593               0.000003303               0.000000882               0.000010237               0.000011119               0.000000000               0.000000000               0.000000000               0.000000000               0.000021140               0.000043974               0.000003008               0.000002431               0.000013848               0.000016278               0.000000000               0.000000000               0.000000000               0.000000000               0.000027953               0.000056930               0.000001553               0.000003366               0.000017854               0.000021221               0.000000000               0.000000000               0.000000000               0.000000000               0.000030455               0.000073342              -0.000000216               0.000002253               0.000023696               0.000025949               0.000000000               0.000000000               0.000000000               0.000000000               0.000026506               0.000095831              -0.000001272              -0.000002039               0.000032623               0.000030584               0.000000000               0.000000000               0.000000000               0.000000000               0.000015278               0.000126071              -0.000000898              -0.000010029               0.000045366               0.000035337               0.000000000               0.000000000               0.000000000               0.000000000               0.000013610               0.000153385              -0.000003609              -0.000014069               0.000055818               0.000041748               0.000000000               0.000000000               0.000000000               0.000000000               0.000000755               0.000010070              -0.000001688              -0.000000976               0.000003682               0.000002706               0.000000000               0.000000000               0.000000000               0.000000000               0.000000434               0.000002476              -0.000000735              -0.000000147               0.000000874               0.000000727               0.000000000               0.000000000               0.000000000               0.000000000              -0.000000825              -0.000006259              -0.000000398               0.000000473              -0.000002244              -0.000001771               0.000000000               0.000000000               0.000000000               0.000000000              -0.000004530              -0.000014897              -0.000000391               0.000000163              -0.000005020              -0.000004857               0.000000000               0.000000000               0.000000000               0.000000000              -0.000005802              -0.000015254              -0.000000529              -0.000000269              -0.000004995              -0.000005264               0.000000000               0.000000000               0.000000000               0.000000000              -0.000003320              -0.000005845              -0.000000344              -0.000000514              -0.000001777              -0.000002291               0.000000000               0.000000000               0.000000000               0.000000000               0.000002333               0.000012391               0.000000708              -0.000000674               0.000004355               0.000003681               0.000000000               0.000000000               0.000000000               0.000000000               0.000010854               0.000037132               0.000002361              -0.000000571               0.000012567               0.000011996               0.000000000               0.000000000               0.000000000               0.000000000               0.000021235               0.000064001               0.000003467              -0.000000037               0.000021346               0.000021309               0.000000000               0.000000000               0.000000000               0.000000000               0.000032664               0.000089172               0.000002817               0.000001103               0.000029356               0.000030459               0.000000000               0.000000000               0.000000000               0.000000000               0.000044295               0.000112472              -0.000000031               0.000002551               0.000036640               0.000039191               0.000000000               0.000000000               0.000000000               0.000000000               0.000053229               0.000136039              -0.000004565               0.000002956               0.000044361               0.000047317               0.000000000               0.000000000               0.000000000               0.000000000               0.000056288               0.000163053              -0.000009262               0.000000726               0.000054109               0.000054835               0.000000000               0.000000000               0.000000000               0.000000000               0.000051827               0.000196106              -0.000012324              -0.000005078               0.000067061               0.000061983               0.000000000               0.000000000               0.000000000               0.000000000               0.000039805               0.000235500              -0.000012320              -0.000014511               0.000083336               0.000068825               0.000000000               0.000000000               0.000000000               0.000000000               0.000021484               0.000280088              -0.000008102              -0.000026954               0.000102346               0.000075392               0.000000000               0.000000000               0.000000000               0.000000000               0.000018133               0.000315134              -0.000008930              -0.000032592               0.000115908               0.000083316               0.000000000               0.000000000               0.000000000               0.000000000              -0.000001979               0.000000338              -0.000004268              -0.000000784               0.000000374              -0.000000410               0.000000000               0.000000000               0.000000000               0.000000000              -0.000004510              -0.000009051              -0.000000384              -0.000000560              -0.000002830              -0.000003390               0.000000000               0.000000000               0.000000000               0.000000000              -0.000005481              -0.000016089               0.000000639              -0.000000044              -0.000005348              -0.000005393               0.000000000               0.000000000               0.000000000               0.000000000              -0.000004488              -0.000011670              -0.000000646              -0.000000224              -0.000003815              -0.000004039               0.000000000               0.000000000               0.000000000               0.000000000               0.000001391               0.000006683              -0.000000098              -0.000000314               0.000002332               0.000002018               0.000000000               0.000000000               0.000000000               0.000000000               0.000012805               0.000036355               0.000000626               0.000000257               0.000012033               0.000012290               0.000000000               0.000000000               0.000000000               0.000000000               0.000025908               0.000072903               0.000001936               0.000000603               0.000024100               0.000024702               0.000000000               0.000000000               0.000000000               0.000000000               0.000039339               0.000111562               0.000002675               0.000000807               0.000036918               0.000037725               0.000000000               0.000000000               0.000000000               0.000000000               0.000052763               0.000148621               0.000001316               0.000001208               0.000049137               0.000050346               0.000000000               0.000000000               0.000000000               0.000000000               0.000065787               0.000182870              -0.000002923               0.000001811               0.000060352               0.000062164               0.000000000               0.000000000               0.000000000               0.000000000               0.000075520               0.000216650              -0.000009452               0.000001239               0.000071803               0.000073042               0.000000000               0.000000000               0.000000000               0.000000000               0.000079008               0.000253238              -0.000016403              -0.000002027               0.000085087               0.000083061               0.000000000               0.000000000               0.000000000               0.000000000               0.000074691               0.000295298              -0.000021480              -0.000008903               0.000101400               0.000092496               0.000000000               0.000000000               0.000000000               0.000000000               0.000062650               0.000342188              -0.000023003              -0.000019280               0.000120488               0.000101209               0.000000000               0.000000000               0.000000000               0.000000000               0.000044604               0.000391653              -0.000020056              -0.000032230               0.000141293               0.000109063               0.000000000               0.000000000               0.000000000               0.000000000               0.000022964               0.000440665              -0.000012106              -0.000046471               0.000162377               0.000115906               0.000000000               0.000000000               0.000000000               0.000000000               0.000018378               0.000475150              -0.000010796              -0.000052502               0.000175882               0.000123381               0.000000000               0.000000000               0.000000000               0.000000000              -0.000004867              -0.000015303              -0.000003492               0.000000088              -0.000005130              -0.000005043               0.000000000               0.000000000               0.000000000               0.000000000              -0.000007666              -0.000018645              -0.000000362              -0.000000544              -0.000006034              -0.000006578               0.000000000               0.000000000               0.000000000               0.000000000              -0.000003845              -0.000011603               0.000000402               0.000000009              -0.000003871              -0.000003862               0.000000000               0.000000000               0.000000000               0.000000000               0.000005020               0.000012763               0.000000054               0.000000287               0.000004159               0.000004446               0.000000000               0.000000000               0.000000000               0.000000000               0.000016894               0.000050659               0.000000898               0.000000003               0.000016885               0.000016888               0.000000000               0.000000000               0.000000000               0.000000000               0.000033630               0.000098528               0.000001617               0.000000295               0.000032744               0.000033039               0.000000000               0.000000000               0.000000000               0.000000000               0.000051293               0.000148948               0.000002126               0.000000616               0.000049443               0.000050060               0.000000000               0.000000000               0.000000000               0.000000000               0.000068239               0.000198471               0.000000648               0.000000781               0.000065896               0.000066677               0.000000000               0.000000000               0.000000000               0.000000000               0.000083726               0.000244190              -0.000003689               0.000000873               0.000081105               0.000081978               0.000000000               0.000000000               0.000000000               0.000000000               0.000095511               0.000288360              -0.000011019              -0.000000228               0.000096195               0.000095967               0.000000000               0.000000000               0.000000000               0.000000000               0.000100674               0.000334566              -0.000019359              -0.000004068               0.000112877               0.000108809               0.000000000               0.000000000               0.000000000               0.000000000               0.000097310               0.000385618              -0.000026155              -0.000011711               0.000132442               0.000120731               0.000000000               0.000000000               0.000000000               0.000000000               0.000085433               0.000440954              -0.000029345              -0.000023082               0.000154677               0.000131595               0.000000000               0.000000000               0.000000000               0.000000000               0.000067197               0.000497880              -0.000028217              -0.000037036               0.000178304               0.000141268               0.000000000               0.000000000               0.000000000               0.000000000               0.000045414               0.000553179              -0.000022608              -0.000052117               0.000201764               0.000149647               0.000000000               0.000000000               0.000000000               0.000000000               0.000022687               0.000603244              -0.000012971              -0.000066897               0.000223378               0.000156481               0.000000000               0.000000000               0.000000000               0.000000000               0.000017088               0.000635606              -0.000010644              -0.000073042               0.000236214               0.000163172               0.000000000               0.000000000               0.000000000               0.000000000              -0.000006170              -0.000024763              -0.000000843               0.000000782              -0.000008515              -0.000007733               0.000000000               0.000000000               0.000000000               0.000000000              -0.000006355              -0.000015722              -0.000000794              -0.000000418              -0.000005101              -0.000005519               0.000000000               0.000000000               0.000000000               0.000000000               0.000002197               0.000007762               0.000000187              -0.000000146               0.000002636               0.000002490               0.000000000               0.000000000               0.000000000               0.000000000               0.000018598               0.000052240               0.000000328               0.000000444               0.000017265               0.000017709               0.000000000               0.000000000               0.000000000               0.000000000               0.000037964               0.000109212               0.000000908               0.000000585               0.000036209               0.000036794               0.000000000               0.000000000               0.000000000               0.000000000               0.000059606               0.000170285               0.000001877               0.000001067               0.000056406               0.000057472               0.000000000               0.000000000               0.000000000               0.000000000               0.000079543               0.000231155               0.000001034               0.000000934               0.000076740               0.000077674               0.000000000               0.000000000               0.000000000               0.000000000               0.000096868               0.000288233              -0.000002163               0.000000297               0.000095978               0.000096274               0.000000000               0.000000000               0.000000000               0.000000000               0.000111465               0.000343126              -0.000008750              -0.000001091               0.000114738               0.000113647               0.000000000               0.000000000               0.000000000               0.000000000               0.000119743               0.000399115              -0.000017182              -0.000004986               0.000134699               0.000129713               0.000000000               0.000000000               0.000000000               0.000000000               0.000119062               0.000459473              -0.000024999              -0.000012786               0.000157418               0.000144632               0.000000000               0.000000000               0.000000000               0.000000000               0.000109107               0.000524283              -0.000029663              -0.000024620               0.000182966               0.000158346               0.000000000               0.000000000               0.000000000               0.000000000               0.000091973               0.000591158              -0.000030074              -0.000039405               0.000210186               0.000170781               0.000000000               0.000000000               0.000000000               0.000000000               0.000070343               0.000656703              -0.000026156              -0.000055709               0.000237469               0.000181760               0.000000000               0.000000000               0.000000000               0.000000000               0.000047087               0.000717749              -0.000019018              -0.000072061               0.000263267               0.000191207               0.000000000               0.000000000               0.000000000               0.000000000               0.000023819               0.000771063              -0.000010216              -0.000087450               0.000286169               0.000198718               0.000000000               0.000000000               0.000000000               0.000000000               0.000015954               0.000803766              -0.000008353              -0.000094488               0.000299415               0.000204928               0.000000000               0.000000000               0.000000000               0.000000000              -0.000002412              -0.000021322               0.000002873               0.000001761              -0.000007694              -0.000005934               0.000000000               0.000000000               0.000000000               0.000000000              -0.000001176              -0.000004561              -0.000000712               0.000000129              -0.000001563              -0.000001434               0.000000000               0.000000000               0.000000000               0.000000000               0.000009339               0.000031522               0.000000317              -0.000000438               0.000010653               0.000010215               0.000000000               0.000000000               0.000000000               0.000000000               0.000032553               0.000093298               0.000001729               0.000000545               0.000030917               0.000031462               0.000000000               0.000000000               0.000000000               0.000000000               0.000054914               0.000160261               0.000002268               0.000000560               0.000053233               0.000053793               0.000000000               0.000000000               0.000000000               0.000000000               0.000078415               0.000229061               0.000002833               0.000000773               0.000076095               0.000076868               0.000000000               0.000000000               0.000000000               0.000000000               0.000099672               0.000296455               0.000001364               0.000000320               0.000098710               0.000099031               0.000000000               0.000000000               0.000000000               0.000000000               0.000117758               0.000359354              -0.000002498              -0.000000760               0.000120037               0.000119277               0.000000000               0.000000000               0.000000000               0.000000000               0.000131997               0.000421728              -0.000008794              -0.000003217               0.000141647               0.000138430               0.000000000               0.000000000               0.000000000               0.000000000               0.000138380               0.000486619              -0.000016082              -0.000008935               0.000165183               0.000156248               0.000000000               0.000000000               0.000000000               0.000000000               0.000135864               0.000557274              -0.000022365              -0.000018710               0.000191993               0.000173283               0.000000000               0.000000000               0.000000000               0.000000000               0.000125159               0.000632065              -0.000025507              -0.000032073               0.000221377               0.000189304               0.000000000               0.000000000               0.000000000               0.000000000               0.000109191               0.000708374              -0.000024573              -0.000047600               0.000251989               0.000204389               0.000000000               0.000000000               0.000000000               0.000000000               0.000090094               0.000782324              -0.000019828              -0.000064005               0.000282107               0.000218102               0.000000000               0.000000000               0.000000000               0.000000000               0.000070099               0.000851382              -0.000012707              -0.000080136               0.000310503               0.000230367               0.000000000               0.000000000               0.000000000               0.000000000               0.000050503               0.000913425              -0.000005285              -0.000095239               0.000336218               0.000240979               0.000000000               0.000000000               0.000000000               0.000000000               0.000039101               0.000945855              -0.000002134              -0.000103569               0.000349805               0.000246236               0.000000000               0.000000000               0.000000000               0.000000000               0.000001430              -0.000007957               0.000006200               0.000001531              -0.000003162              -0.000001632               0.000000000               0.000000000               0.000000000               0.000000000               0.000005139               0.000008425               0.000000320               0.000000874               0.000002517               0.000003391               0.000000000               0.000000000               0.000000000               0.000000000               0.000015118               0.000051538              -0.000000931              -0.000000773               0.000017437               0.000016664               0.000000000               0.000000000               0.000000000               0.000000000               0.000040177               0.000119432               0.000000515               0.000000137               0.000039764               0.000039902               0.000000000               0.000000000               0.000000000               0.000000000               0.000064036               0.000188330               0.000001109               0.000000472               0.000062619               0.000063091               0.000000000               0.000000000               0.000000000               0.000000000               0.000088243               0.000260067               0.000001380               0.000000583               0.000086494               0.000087076               0.000000000               0.000000000               0.000000000               0.000000000               0.000110642               0.000330203               0.000000471               0.000000215               0.000109995               0.000110210               0.000000000               0.000000000               0.000000000               0.000000000               0.000130294               0.000397707              -0.000003062              -0.000000853               0.000132852               0.000131999               0.000000000               0.000000000               0.000000000               0.000000000               0.000146924               0.000462829              -0.000007658              -0.000002757               0.000155194               0.000152437               0.000000000               0.000000000               0.000000000               0.000000000               0.000158089               0.000528798              -0.000013135              -0.000006817               0.000178536               0.000171720               0.000000000               0.000000000               0.000000000               0.000000000               0.000161628               0.000597747              -0.000018310              -0.000014108               0.000203950               0.000189842               0.000000000               0.000000000               0.000000000               0.000000000               0.000157589               0.000670380              -0.000021821              -0.000024701               0.000231691               0.000206990               0.000000000               0.000000000               0.000000000               0.000000000               0.000147987               0.000745605              -0.000022150              -0.000037705               0.000261101               0.000223396               0.000000000               0.000000000               0.000000000               0.000000000               0.000134855               0.000821731              -0.000019113              -0.000052146               0.000291290               0.000239144               0.000000000               0.000000000               0.000000000               0.000000000               0.000120167               0.000896999              -0.000013134              -0.000067062               0.000321351               0.000254288               0.000000000               0.000000000               0.000000000               0.000000000               0.000106077               0.000971601              -0.000005899              -0.000081671               0.000351087               0.000269416               0.000000000               0.000000000               0.000000000               0.000000000               0.000092499               0.001004573               0.000000283              -0.000090884               0.000365149               0.000274265               0.000000000               0.000000000               0.000000000               0.000000000               0.000001621               0.000005599               0.000006575              -0.000000092               0.000001897               0.000001805               0.000000000               0.000000000               0.000000000               0.000000000               0.000010816               0.000022207               0.000002260               0.000001280               0.000006976               0.000008256               0.000000000               0.000000000               0.000000000               0.000000000               0.000021475               0.000069030              -0.000001386              -0.000000576               0.000023202               0.000022626               0.000000000               0.000000000               0.000000000               0.000000000               0.000044352               0.000135686              -0.000000111              -0.000000329               0.000045338               0.000045009               0.000000000               0.000000000               0.000000000               0.000000000               0.000069829               0.000205983               0.000000820               0.000000438               0.000068514               0.000068952               0.000000000               0.000000000               0.000000000               0.000000000               0.000093149               0.000274999               0.000000658               0.000000556               0.000091480               0.000092036               0.000000000               0.000000000               0.000000000               0.000000000               0.000116671               0.000345254               0.000000798               0.000000595               0.000114885               0.000115480               0.000000000               0.000000000               0.000000000               0.000000000               0.000137492               0.000414149              -0.000000659              -0.000000209               0.000138118               0.000137909               0.000000000               0.000000000               0.000000000               0.000000000               0.000156208               0.000480272              -0.000003208              -0.000001456               0.000160574               0.000159118               0.000000000               0.000000000               0.000000000               0.000000000               0.000172640               0.000546319              -0.000006661              -0.000003550               0.000183288               0.000179738               0.000000000               0.000000000               0.000000000               0.000000000               0.000184481               0.000612905              -0.000010383              -0.000007433               0.000206777               0.000199344               0.000000000               0.000000000               0.000000000               0.000000000               0.000190362               0.000681779              -0.000014032              -0.000013837               0.000231870               0.000218033               0.000000000               0.000000000               0.000000000               0.000000000               0.000190896               0.000753408              -0.000016127              -0.000022590               0.000258664               0.000236074               0.000000000               0.000000000               0.000000000               0.000000000               0.000187439               0.000826659              -0.000015835              -0.000033043               0.000286564               0.000253522               0.000000000               0.000000000               0.000000000               0.000000000               0.000181285               0.000900617              -0.000012597              -0.000044595               0.000315068               0.000270472               0.000000000               0.000000000               0.000000000               0.000000000               0.000173708               0.000974427              -0.000006995              -0.000056663               0.000343694               0.000287031               0.000000000               0.000000000               0.000000000               0.000000000               0.000162008               0.001004352              -0.000000690              -0.000064791               0.000356377               0.000291587               0.000000000               0.000000000               0.000000000               0.000000000               0.000002010               0.000015021               0.000003963              -0.000001124               0.000005381               0.000004258               0.000000000               0.000000000               0.000000000               0.000000000               0.000015542               0.000037397               0.000003993               0.000001154               0.000012081               0.000013235               0.000000000               0.000000000               0.000000000               0.000000000               0.000029059               0.000086006              -0.000000538               0.000000146               0.000028620               0.000028766               0.000000000               0.000000000               0.000000000               0.000000000               0.000047379               0.000148734              -0.000001591              -0.000000825               0.000049852               0.000049028               0.000000000               0.000000000               0.000000000               0.000000000               0.000074243               0.000221199               0.000000469               0.000000191               0.000073669               0.000073860               0.000000000               0.000000000               0.000000000               0.000000000               0.000097111               0.000288658               0.000000352               0.000000334               0.000096107               0.000096441               0.000000000               0.000000000               0.000000000               0.000000000               0.000120402               0.000357481               0.000000667               0.000000466               0.000119004               0.000119470               0.000000000               0.000000000               0.000000000               0.000000000               0.000142715               0.000426939               0.000000610               0.000000151               0.000142261               0.000142412               0.000000000               0.000000000               0.000000000               0.000000000               0.000163417               0.000494635              -0.000000501              -0.000000548               0.000165059               0.000164511               0.000000000               0.000000000               0.000000000               0.000000000               0.000182823               0.000560828              -0.000002141              -0.000001545               0.000187456               0.000185911               0.000000000               0.000000000               0.000000000               0.000000000               0.000200432               0.000626919              -0.000004138              -0.000003203               0.000210039               0.000206836               0.000000000               0.000000000               0.000000000               0.000000000               0.000214725               0.000693802              -0.000006451              -0.000006203               0.000233333               0.000227129               0.000000000               0.000000000               0.000000000               0.000000000               0.000224874               0.000762488              -0.000008527              -0.000010983               0.000257821               0.000246838               0.000000000               0.000000000               0.000000000               0.000000000               0.000231279               0.000832734              -0.000009614              -0.000017362               0.000283363               0.000266000               0.000000000               0.000000000               0.000000000               0.000000000               0.000235026               0.000904390              -0.000008899              -0.000024914               0.000309765               0.000284851               0.000000000               0.000000000               0.000000000               0.000000000               0.000236512               0.000976237              -0.000005837              -0.000033337               0.000336522               0.000303184               0.000000000               0.000000000               0.000000000               0.000000000               0.000230857               0.001006619              -0.000001762              -0.000039256               0.000348622               0.000309366               0.000000000               0.000000000               0.000000000               0.000000000               0.000003781               0.000022868               0.000000784              -0.000001441               0.000008103               0.000006662               0.000000000               0.000000000               0.000000000               0.000000000               0.000018411               0.000052340               0.000003819               0.000000362               0.000017326               0.000017688               0.000000000               0.000000000               0.000000000               0.000000000               0.000036554               0.000102717               0.000001657               0.000000868               0.000033949               0.000034817               0.000000000               0.000000000               0.000000000               0.000000000               0.000051459               0.000159894              -0.000001910              -0.000000690               0.000053527               0.000052838               0.000000000               0.000000000               0.000000000               0.000000000               0.000076317               0.000231555               0.000000209              -0.000000325               0.000077293               0.000076967               0.000000000               0.000000000               0.000000000               0.000000000               0.000099985               0.000299979               0.000000566              -0.000000003               0.000099993               0.000099990               0.000000000               0.000000000               0.000000000               0.000000000               0.000122972               0.000366433              -0.000000188               0.000000311               0.000122040               0.000122350               0.000000000               0.000000000               0.000000000               0.000000000               0.000146473               0.000435500               0.000000421               0.000000490               0.000145002               0.000145492               0.000000000               0.000000000               0.000000000               0.000000000               0.000168655               0.000504490               0.000000349               0.000000184               0.000168100               0.000168284               0.000000000               0.000000000               0.000000000               0.000000000               0.000189766               0.000571400               0.000000061              -0.000000263               0.000190552               0.000190290               0.000000000               0.000000000               0.000000000               0.000000000               0.000210497               0.000638182              -0.000000532              -0.000000836               0.000213004               0.000212168               0.000000000               0.000000000               0.000000000               0.000000000               0.000229907               0.000703923              -0.000001289              -0.000001775               0.000235230               0.000233455               0.000000000               0.000000000               0.000000000               0.000000000               0.000247485               0.000770715              -0.000002263              -0.000003533               0.000258080               0.000254547               0.000000000               0.000000000               0.000000000               0.000000000               0.000262497               0.000838420              -0.000003074              -0.000006366               0.000281593               0.000275227               0.000000000               0.000000000               0.000000000               0.000000000               0.000275463               0.000907662              -0.000003371              -0.000010159               0.000305937               0.000295778               0.000000000               0.000000000               0.000000000               0.000000000               0.000286998               0.000977408              -0.000002442              -0.000014552               0.000330650               0.000316098               0.000000000               0.000000000               0.000000000               0.000000000               0.000289375               0.001009030              -0.000000799              -0.000017613               0.000342211               0.000324598               0.000000000               0.000000000               0.000000000               0.000000000               0.000007419               0.000031547               0.000000528              -0.000001161               0.000010903               0.000009742               0.000000000               0.000000000               0.000000000               0.000000000               0.000019826               0.000063570               0.000002823              -0.000000512               0.000021360               0.000020849               0.000000000               0.000000000               0.000000000               0.000000000               0.000041166               0.000116309               0.000002477               0.000000899               0.000038470               0.000039368               0.000000000               0.000000000               0.000000000               0.000000000               0.000056592               0.000169816              -0.000001238              -0.000000005               0.000056606               0.000056601               0.000000000               0.000000000               0.000000000               0.000000000               0.000079235               0.000238593              -0.000000442              -0.000000111               0.000079567               0.000079456               0.000000000               0.000000000               0.000000000               0.000000000               0.000103823               0.000310764               0.000000859               0.000000088               0.000103558               0.000103646               0.000000000               0.000000000               0.000000000               0.000000000               0.000125132               0.000375157              -0.000000160               0.000000030               0.000125041               0.000125071               0.000000000               0.000000000               0.000000000               0.000000000               0.000147562               0.000441172               0.000000069               0.000000189               0.000146993               0.000147182               0.000000000               0.000000000               0.000000000               0.000000000               0.000170695               0.000510475               0.000000346               0.000000201               0.000170090               0.000170291               0.000000000               0.000000000               0.000000000               0.000000000               0.000192769               0.000577371               0.000000416               0.000000117               0.000192416               0.000192533               0.000000000               0.000000000               0.000000000               0.000000000               0.000215116               0.000644691               0.000000493               0.000000082               0.000214867               0.000214949               0.000000000               0.000000000               0.000000000               0.000000000               0.000237191               0.000711028               0.000000586               0.000000068               0.000236984               0.000237052               0.000000000               0.000000000               0.000000000               0.000000000               0.000258787               0.000777176               0.000000443              -0.000000102               0.000259090               0.000258988               0.000000000               0.000000000               0.000000000               0.000000000               0.000279409               0.000843441               0.000000304              -0.000000652               0.000281362               0.000280710               0.000000000               0.000000000               0.000000000               0.000000000               0.000298896               0.000910801               0.000000006              -0.000001764               0.000304185               0.000302421               0.000000000               0.000000000               0.000000000               0.000000000               0.000317317               0.000978717              -0.000000114              -0.000003346               0.000327351               0.000324005               0.000000000               0.000000000               0.000000000               0.000000000               0.000324995               0.001011284               0.000000187              -0.000004537               0.000338604               0.000334066               0.000000000               0.000000000               0.000000000               0.000000000               0.000012762               0.000041414               0.000001400              -0.000000391               0.000013935               0.000013544               0.000000000               0.000000000               0.000000000               0.000000000               0.000021700               0.000072818               0.000002656              -0.000000965               0.000024594               0.000023629               0.000000000               0.000000000               0.000000000               0.000000000               0.000042895               0.000127177               0.000002202               0.000000188               0.000042329               0.000042518               0.000000000               0.000000000               0.000000000               0.000000000               0.000059660               0.000179101              -0.000001089              -0.000000015               0.000059705               0.000059690               0.000000000               0.000000000               0.000000000               0.000000000               0.000080407               0.000242949              -0.000001337              -0.000000216               0.000081054               0.000080838               0.000000000               0.000000000               0.000000000               0.000000000               0.000105255               0.000316419               0.000000488              -0.000000082               0.000105499               0.000105418               0.000000000               0.000000000               0.000000000               0.000000000               0.000127038               0.000382034               0.000000212              -0.000000115               0.000127382               0.000127267               0.000000000               0.000000000               0.000000000               0.000000000               0.000148871               0.000445907              -0.000000118               0.000000088               0.000148605               0.000148693               0.000000000               0.000000000               0.000000000               0.000000000               0.000172205               0.000514002               0.000000119               0.000000326               0.000171224               0.000171550               0.000000000               0.000000000               0.000000000               0.000000000               0.000194437               0.000580721               0.000000152               0.000000324               0.000193464               0.000193787               0.000000000               0.000000000               0.000000000               0.000000000               0.000216601               0.000647775               0.000000197               0.000000253               0.000215838               0.000216092               0.000000000               0.000000000               0.000000000               0.000000000               0.000239159               0.000714940               0.000000426               0.000000317               0.000238205               0.000238522               0.000000000               0.000000000               0.000000000               0.000000000               0.000262003               0.000781539               0.000000507               0.000000559               0.000260324               0.000260883               0.000000000               0.000000000               0.000000000               0.000000000               0.000284831               0.000847452               0.000000558               0.000000880               0.000282188               0.000283068               0.000000000               0.000000000               0.000000000               0.000000000               0.000307458               0.000913651               0.000000465               0.000001090               0.000304184               0.000305274               0.000000000               0.000000000               0.000000000               0.000000000               0.000329354               0.000980140               0.000000272               0.000000990               0.000326380               0.000327370               0.000000000               0.000000000               0.000000000               0.000000000               0.000339668               0.001013082               0.000000211               0.000000740               0.000337444               0.000338184               0.000000000               0.000000000               0.000000000               0.000000000               0.000014740               0.000045954              -0.000000898              -0.000000217               0.000015390               0.000015174               0.000000000               0.000000000               0.000000000               0.000000000               0.000023920               0.000078311               0.000000668              -0.000000819               0.000026376               0.000025557               0.000000000               0.000000000               0.000000000               0.000000000               0.000044420               0.000134801               0.000001863              -0.000000193               0.000044997               0.000044805               0.000000000               0.000000000               0.000000000               0.000000000               0.000062429               0.000185561               0.000000226               0.000000216               0.000061781               0.000061997               0.000000000               0.000000000               0.000000000               0.000000000               0.000081359               0.000245099              -0.000000498              -0.000000128               0.000081742               0.000081614               0.000000000               0.000000000               0.000000000               0.000000000               0.000106180               0.000319384               0.000000259              -0.000000106               0.000106496               0.000106390               0.000000000               0.000000000               0.000000000               0.000000000               0.000128900               0.000386595              -0.000000015               0.000000013               0.000128859               0.000128873               0.000000000               0.000000000               0.000000000               0.000000000               0.000149801               0.000449141              -0.000000345               0.000000033               0.000149701               0.000149734               0.000000000               0.000000000               0.000000000               0.000000000               0.000172439               0.000516507              -0.000000148               0.000000101               0.000172133               0.000172235               0.000000000               0.000000000               0.000000000               0.000000000               0.000194736               0.000583184              -0.000000142               0.000000128               0.000194350               0.000194478               0.000000000               0.000000000               0.000000000               0.000000000               0.000216615               0.000649159              -0.000000262               0.000000086               0.000216356               0.000216441               0.000000000               0.000000000               0.000000000               0.000000000               0.000238801               0.000715990              -0.000000245               0.000000052               0.000238644               0.000238695               0.000000000               0.000000000               0.000000000               0.000000000               0.000261165               0.000782704              -0.000000152               0.000000099               0.000260866               0.000260965               0.000000000               0.000000000               0.000000000               0.000000000               0.000283573               0.000848847              -0.000000001               0.000000234               0.000282868               0.000283102               0.000000000               0.000000000               0.000000000               0.000000000               0.000306191               0.000915033               0.000000086               0.000000442               0.000304861               0.000305303               0.000000000               0.000000000               0.000000000               0.000000000               0.000328754               0.000981068               0.000000083               0.000000649               0.000326803               0.000327452               0.000000000               0.000000000               0.000000000               0.000000000               0.000340039               0.001014162               0.000000010               0.000000744               0.000337802               0.000338547               0.000000000               0.000000000               0.000000000               0.000000000               0.000000000               0.000000000               0.000000000               0.000000000               0.000000000               0.000000000               0.000000000               0.000000000               0.000000000               0.000000000               0.000000000               0.000000000               0.000000000               0.000000000               0.000000000               0.000000000               0.000000000               0.000000000               0.000000000               0.000000000               0.000000000               0.000000000               0.000000000               0.000000000               0.000000000               0.000000000               0.000000000               0.000000000               0.000000000               0.000000000               0.000000000               0.000000000               0.000000000               0.000000000               0.000000000               0.000000000               0.000000000               0.000000000               0.000000000               0.000000000               0.000000000               0.000000000               0.000000000               0.000000000               0.000000000               0.000000000               0.000000000               0.000000000               0.000000000               0.000000000               0.000000000               0.000000000               0.000000000               0.000000000               0.000000000               0.000000000               0.000000000               0.000000000               0.000000000               0.000000000               0.000000000               0.000000000               0.000000000               0.000000000               0.000000000               0.000000000               0.000000000               0.000000000               0.000000000               0.000000000               0.000000000               0.000000000               0.000000000               0.000000000               0.000000000               0.000000000               0.000000000               0.000000000               0.000000000               0.000000000               0.000000000               0.000000000               0.000000000               0.000000000               0.000000000               0.000000000               0.000000000               0.000000000               0.000000000               0.000000000               0.000000000               0.000000000               0.000000000               0.000000000               0.000000000               0.000000000               0.000000000               0.000000000               0.000000000               0.000000000               0.000000000               0.000000000               0.000000000               0.000000000               0.000000000               0.000000000               0.000000000               0.000000000               0.000000000               0.000000000               0.000000000               0.000000000               0.000000000               0.000000000               0.000000000               0.000000000               0.000000000               0.000000000               0.000000000               0.000000000               0.000000000               0.000000000               0.000000000               0.000000000               0.000000000               0.000000000               0.000000000               0.000000000               0.000000000               0.000000000               0.000000000               0.000000000               0.000000000               0.000000000               0.000000000               0.000000000               0.000000000               0.000000000               0.000000000               0.000000000               0.000000000               0.000000000               0.000000000               0.000000000               0.000000000               0.000000000               0.000000000               0.000000000               0.000000000               0.000000000               0.000000000               0.000000000               0.000000000               0.000000000               0.000000000               0.000000000               0.000000000               0.000000000               0.000000000               0.000000000               0.000000000               0.000000000               0.000000000               0.000000000               0.000000000               0.000000000               0.000000000               0.000000000               0.000000000               0.000000000               0.000000000               0.000000000               0.000000000               0.000000000               0.000000000               0.000000000               0.000000000               0.000000000               0.000000000               0.000000000               0.000000000               0.000000000               0.000000000               0.000000000               0.000000000               0.000000000               0.000000000               0.000000000               0.000000000               0.000000000               0.000000000               0.000000000               0.000000000               0.000000000               0.000000000               0.000000000               0.000000000               0.000000000               0.000000000               0.000000000               0.000000000               0.000000000               0.000000000               0.000000000               0.000000000               0.000000000               0.000000000               0.000000000               0.000000000               0.000000000               0.000000000               0.000000000               0.000000000               0.000000000               0.000000000               0.000000000               0.000000000               0.000000000               0.000000000               0.000000000               0.000000000               0.000000000               0.000000000               0.000000000               0.000000000               0.000000000               0.000000000               0.000000000               0.000000000               0.000000000               0.000000000               0.000000000               0.000000000               0.000000000               0.000000000               0.000000000               0.000000000               0.000000000               0.000000000               0.000000000               0.000000000               0.000000000               0.000000000               0.000000000               0.000000000               0.000000000               0.000000000               0.000000000               0.000000000               0.000000000               0.000000000               0.000000000               0.000000000               0.000000000               0.000000000               0.000000000               0.000000000               0.000000000               0.000000000               0.000000000               0.000000000               0.000000000               0.000000000               0.000000000               0.000000000               0.000000000               0.000000000               0.000000000               0.000000000               0.000000000               0.000000000               0.000000000               0.000000000               0.000000000               0.000000000               0.000000000               0.000000000               0.000000000               0.000000000               0.000000000               0.000000000               0.000000000               0.000000000               0.000000000               0.000000000               0.000000000               0.000000000               0.000000000               0.000000000               0.000000000               0.000000000               0.000000000               0.000000000               0.000000000               0.000000000               0.000000000               0.000000000               0.000000000               0.000000000               0.000000000               0.000000000               0.000000000               0.000000000               0.000000000               0.000000000               0.000000000               0.000000000               0.000000000               0.000000000               0.000000000               0.000000000               0.000000000               0.000000000               0.000000000               0.000000000               0.000000000               0.000000000               0.000000000               0.000000000               0.000000000               0.000000000               0.000000000               0.000000000               0.000000000               0.000000000               0.000000000               0.000000000               0.000000000               0.000000000               0.000000000               0.000000000               0.000000000               0.000000000               0.000000000               0.000000000               0.000000000               0.000000000               0.000000000               0.000000000               0.000000000              -0.000002574              -0.000003815               0.000000339              -0.000000488              -0.000001109              -0.000001597               0.000000000               0.000000000               0.000000000               0.000000000              -0.000002336              -0.000001889               0.000001408              -0.000000640              -0.000000416              -0.000001056               0.000000000               0.000000000               0.000000000               0.000000000              -0.000000795              -0.000000697               0.000001281              -0.000000211              -0.000000162              -0.000000373               0.000000000               0.000000000               0.000000000               0.000000000               0.000002193               0.000002059              -0.000000263               0.000000565               0.000000498               0.000001063               0.000000000               0.000000000               0.000000000               0.000000000               0.000003387               0.000004080              -0.000001975               0.000000760               0.000001107               0.000001867               0.000000000               0.000000000               0.000000000               0.000000000               0.000003014               0.000004037              -0.000003339               0.000000626               0.000001137               0.000001763               0.000000000               0.000000000               0.000000000               0.000000000               0.000001734               0.000002399              -0.000003262               0.000000350               0.000000683               0.000001033               0.000000000               0.000000000               0.000000000               0.000000000              -0.000000188              -0.000000445              -0.000001978              -0.000000015              -0.000000144              -0.000000158               0.000000000               0.000000000               0.000000000               0.000000000              -0.000002043              -0.000003955               0.000000167              -0.000000272              -0.000001228              -0.000001500               0.000000000               0.000000000               0.000000000               0.000000000              -0.000003633              -0.000006933               0.000002446              -0.000000496              -0.000002146              -0.000002641               0.000000000               0.000000000               0.000000000               0.000000000              -0.000005109              -0.000008753               0.000004037              -0.000000822              -0.000002644              -0.000003466               0.000000000               0.000000000               0.000000000               0.000000000              -0.000006040              -0.000009929               0.000004757              -0.000001024              -0.000002968              -0.000003992               0.000000000               0.000000000               0.000000000               0.000000000              -0.000005752              -0.000011198               0.000004847              -0.000000757              -0.000003480              -0.000004238               0.000000000               0.000000000               0.000000000               0.000000000              -0.000004140              -0.000013097               0.000004557               0.000000085              -0.000004394              -0.000004309               0.000000000               0.000000000               0.000000000               0.000000000              -0.000001903              -0.000015587               0.000003907               0.000001235              -0.000005607              -0.000004373               0.000000000               0.000000000               0.000000000               0.000000000              -0.000000341              -0.000018092               0.000002431               0.000002134              -0.000006742              -0.000004608               0.000000000               0.000000000               0.000000000               0.000000000               0.000000049              -0.000019413               0.000001382               0.000002445              -0.000007286              -0.000004841               0.000000000               0.000000000               0.000000000               0.000000000               0.000000777               0.000001174              -0.000001372               0.000000145               0.000000343               0.000000488               0.000000000               0.000000000               0.000000000               0.000000000               0.000001300               0.000004441              -0.000001484              -0.000000068               0.000001503               0.000001435               0.000000000               0.000000000               0.000000000               0.000000000               0.000002075               0.000007249              -0.000001877              -0.000000128               0.000002459               0.000002331               0.000000000               0.000000000               0.000000000               0.000000000               0.000002585               0.000006822              -0.000001287               0.000000117               0.000002235               0.000002352               0.000000000               0.000000000               0.000000000               0.000000000               0.000002209               0.000003711               0.000000276               0.000000364               0.000001115               0.000001480               0.000000000               0.000000000               0.000000000               0.000000000               0.000000412              -0.000002728               0.000001672               0.000000495              -0.000001074              -0.000000579               0.000000000               0.000000000               0.000000000               0.000000000              -0.000002578              -0.000009673               0.000002833               0.000000242              -0.000003305              -0.000003063               0.000000000               0.000000000               0.000000000               0.000000000              -0.000006004              -0.000015234               0.000003602              -0.000000347              -0.000004962              -0.000005310               0.000000000               0.000000000               0.000000000               0.000000000              -0.000008882              -0.000017584               0.000003553              -0.000001133              -0.000005484              -0.000006616               0.000000000               0.000000000               0.000000000               0.000000000              -0.000010429              -0.000016158               0.000002458              -0.000001891              -0.000004756              -0.000006647               0.000000000               0.000000000               0.000000000               0.000000000              -0.000009650              -0.000012717               0.000000889              -0.000002029              -0.000003562              -0.000005592               0.000000000               0.000000000               0.000000000               0.000000000              -0.000006035              -0.000009337              -0.000000487              -0.000001096              -0.000002747              -0.000003843               0.000000000               0.000000000               0.000000000               0.000000000              -0.000000278              -0.000006723              -0.000001344               0.000000736              -0.000002486              -0.000001750               0.000000000               0.000000000               0.000000000               0.000000000               0.000005514              -0.000003939              -0.000001624               0.000002560              -0.000002167               0.000000394               0.000000000               0.000000000               0.000000000               0.000000000               0.000008490               0.000001112              -0.000001587               0.000003045              -0.000000644               0.000002400               0.000000000               0.000000000               0.000000000               0.000000000               0.000006231               0.000010365              -0.000001394               0.000001041               0.000003108               0.000004149               0.000000000               0.000000000               0.000000000               0.000000000               0.000005852               0.000020387               0.000000138              -0.000000354               0.000006914               0.000006560               0.000000000               0.000000000               0.000000000               0.000000000               0.000004268               0.000008433              -0.000001640               0.000000547               0.000002629               0.000003175               0.000000000               0.000000000               0.000000000               0.000000000               0.000004212               0.000006651              -0.000000664               0.000000748               0.000001967               0.000002716               0.000000000               0.000000000               0.000000000               0.000000000               0.000002144               0.000004748               0.000000852               0.000000210               0.000001513               0.000001723               0.000000000               0.000000000               0.000000000               0.000000000              -0.000001738              -0.000002576               0.000000821              -0.000000330              -0.000000749              -0.000001078               0.000000000               0.000000000               0.000000000               0.000000000              -0.000004165              -0.000010172               0.000001080              -0.000000290              -0.000003294              -0.000003584               0.000000000               0.000000000               0.000000000               0.000000000              -0.000006282              -0.000014772               0.000001780              -0.000000509              -0.000004754              -0.000005263               0.000000000               0.000000000               0.000000000               0.000000000              -0.000006489              -0.000014418               0.000002007              -0.000000631              -0.000004596              -0.000005227               0.000000000               0.000000000               0.000000000               0.000000000              -0.000004251              -0.000007910               0.000001367              -0.000000605              -0.000002435              -0.000003040               0.000000000               0.000000000               0.000000000               0.000000000              -0.000000241               0.000004021              -0.000000403              -0.000000593               0.000001538               0.000000945               0.000000000               0.000000000               0.000000000               0.000000000               0.000005483               0.000018179              -0.000002299              -0.000000216               0.000006132               0.000005916               0.000000000               0.000000000               0.000000000               0.000000000               0.000012883               0.000031593              -0.000003303               0.000000882               0.000010237               0.000011119               0.000000000               0.000000000               0.000000000               0.000000000               0.000021140               0.000043974              -0.000003008               0.000002431               0.000013848               0.000016278               0.000000000               0.000000000               0.000000000               0.000000000               0.000027953               0.000056930              -0.000001553               0.000003366               0.000017854               0.000021221               0.000000000               0.000000000               0.000000000               0.000000000               0.000030455               0.000073342               0.000000216               0.000002253               0.000023696               0.000025949               0.000000000               0.000000000               0.000000000               0.000000000               0.000026506               0.000095831               0.000001272              -0.000002039               0.000032623               0.000030584               0.000000000               0.000000000               0.000000000               0.000000000               0.000015278               0.000126071               0.000000898              -0.000010029               0.000045366               0.000035337               0.000000000               0.000000000               0.000000000               0.000000000               0.000013610               0.000153385               0.000003609              -0.000014069               0.000055818               0.000041748               0.000000000               0.000000000               0.000000000               0.000000000               0.000000755               0.000010070               0.000001688              -0.000000976               0.000003682               0.000002706               0.000000000               0.000000000               0.000000000               0.000000000               0.000000434               0.000002476               0.000000735              -0.000000147               0.000000874               0.000000727               0.000000000               0.000000000               0.000000000               0.000000000              -0.000000825              -0.000006259               0.000000398               0.000000473              -0.000002244              -0.000001771               0.000000000               0.000000000               0.000000000               0.000000000              -0.000004530              -0.000014897               0.000000391               0.000000163              -0.000005020              -0.000004857               0.000000000               0.000000000               0.000000000               0.000000000              -0.000005802              -0.000015254               0.000000529              -0.000000269              -0.000004995              -0.000005264               0.000000000               0.000000000               0.000000000               0.000000000              -0.000003320              -0.000005845               0.000000344              -0.000000514              -0.000001777              -0.000002291               0.000000000               0.000000000               0.000000000               0.000000000               0.000002333               0.000012391              -0.000000708              -0.000000674               0.000004355               0.000003681               0.000000000               0.000000000               0.000000000               0.000000000               0.000010854               0.000037132              -0.000002361              -0.000000571               0.000012567               0.000011996               0.000000000               0.000000000               0.000000000               0.000000000               0.000021235               0.000064001              -0.000003467              -0.000000037               0.000021346               0.000021309               0.000000000               0.000000000               0.000000000               0.000000000               0.000032664               0.000089172              -0.000002817               0.000001103               0.000029356               0.000030459               0.000000000               0.000000000               0.000000000               0.000000000               0.000044295               0.000112472               0.000000031               0.000002551               0.000036640               0.000039191               0.000000000               0.000000000               0.000000000               0.000000000               0.000053229               0.000136039               0.000004565               0.000002956               0.000044361               0.000047317               0.000000000               0.000000000               0.000000000               0.000000000               0.000056288               0.000163053               0.000009262               0.000000726               0.000054109               0.000054835               0.000000000               0.000000000               0.000000000               0.000000000               0.000051827               0.000196106               0.000012324              -0.000005078               0.000067061               0.000061983               0.000000000               0.000000000               0.000000000               0.000000000               0.000039805               0.000235500               0.000012320              -0.000014511               0.000083336               0.000068825               0.000000000               0.000000000               0.000000000               0.000000000               0.000021484               0.000280088               0.000008102              -0.000026954               0.000102346               0.000075392               0.000000000               0.000000000               0.000000000               0.000000000               0.000018133               0.000315134               0.000008930              -0.000032592               0.000115908               0.000083316               0.000000000               0.000000000               0.000000000               0.000000000              -0.000001979               0.000000338               0.000004268              -0.000000784               0.000000374              -0.000000410               0.000000000               0.000000000               0.000000000               0.000000000              -0.000004510              -0.000009051               0.000000384              -0.000000560              -0.000002830              -0.000003390               0.000000000               0.000000000               0.000000000               0.000000000              -0.000005481              -0.000016089              -0.000000639              -0.000000044              -0.000005348              -0.000005393               0.000000000               0.000000000               0.000000000               0.000000000              -0.000004488              -0.000011670               0.000000646              -0.000000224              -0.000003815              -0.000004039               0.000000000               0.000000000               0.000000000               0.000000000               0.000001391               0.000006683               0.000000098              -0.000000314               0.000002332               0.000002018               0.000000000               0.000000000               0.000000000               0.000000000               0.000012805               0.000036355              -0.000000626               0.000000257               0.000012033               0.000012290               0.000000000               0.000000000               0.000000000               0.000000000               0.000025908               0.000072903              -0.000001936               0.000000603               0.000024100               0.000024702               0.000000000               0.000000000               0.000000000               0.000000000               0.000039339               0.000111562              -0.000002675               0.000000807               0.000036918               0.000037725               0.000000000               0.000000000               0.000000000               0.000000000               0.000052763               0.000148621              -0.000001316               0.000001208               0.000049137               0.000050346               0.000000000               0.000000000               0.000000000               0.000000000               0.000065787               0.000182870               0.000002923               0.000001811               0.000060352               0.000062164               0.000000000               0.000000000               0.000000000               0.000000000               0.000075520               0.000216650               0.000009452               0.000001239               0.000071803               0.000073042               0.000000000               0.000000000               0.000000000               0.000000000               0.000079008               0.000253238               0.000016403              -0.000002027               0.000085087               0.000083061               0.000000000               0.000000000               0.000000000               0.000000000               0.000074691               0.000295298               0.000021480              -0.000008903               0.000101400               0.000092496               0.000000000               0.000000000               0.000000000               0.000000000               0.000062650               0.000342188               0.000023003              -0.000019280               0.000120488               0.000101209               0.000000000               0.000000000               0.000000000               0.000000000               0.000044604               0.000391653               0.000020056              -0.000032230               0.000141293               0.000109063               0.000000000               0.000000000               0.000000000               0.000000000               0.000022964               0.000440665               0.000012106              -0.000046471               0.000162377               0.000115906               0.000000000               0.000000000               0.000000000               0.000000000               0.000018378               0.000475150               0.000010796              -0.000052502               0.000175882               0.000123381               0.000000000               0.000000000               0.000000000               0.000000000              -0.000004867              -0.000015303               0.000003492               0.000000088              -0.000005130              -0.000005043               0.000000000               0.000000000               0.000000000               0.000000000              -0.000007666              -0.000018645               0.000000362              -0.000000544              -0.000006034              -0.000006578               0.000000000               0.000000000               0.000000000               0.000000000              -0.000003845              -0.000011603              -0.000000402               0.000000009              -0.000003871              -0.000003862               0.000000000               0.000000000               0.000000000               0.000000000               0.000005020               0.000012763              -0.000000054               0.000000287               0.000004159               0.000004446               0.000000000               0.000000000               0.000000000               0.000000000               0.000016894               0.000050659              -0.000000898               0.000000003               0.000016885               0.000016888               0.000000000               0.000000000               0.000000000               0.000000000               0.000033630               0.000098528              -0.000001617               0.000000295               0.000032744               0.000033039               0.000000000               0.000000000               0.000000000               0.000000000               0.000051293               0.000148948              -0.000002126               0.000000616               0.000049443               0.000050060               0.000000000               0.000000000               0.000000000               0.000000000               0.000068239               0.000198471              -0.000000648               0.000000781               0.000065896               0.000066677               0.000000000               0.000000000               0.000000000               0.000000000               0.000083726               0.000244190               0.000003689               0.000000873               0.000081105               0.000081978               0.000000000               0.000000000               0.000000000               0.000000000               0.000095511               0.000288360               0.000011019              -0.000000228               0.000096195               0.000095967               0.000000000               0.000000000               0.000000000               0.000000000               0.000100674               0.000334566               0.000019359              -0.000004068               0.000112877               0.000108809               0.000000000               0.000000000               0.000000000               0.000000000               0.000097310               0.000385618               0.000026155              -0.000011711               0.000132442               0.000120731               0.000000000               0.000000000               0.000000000               0.000000000               0.000085433               0.000440954               0.000029345              -0.000023082               0.000154677               0.000131595               0.000000000               0.000000000               0.000000000               0.000000000               0.000067197               0.000497880               0.000028217              -0.000037036               0.000178304               0.000141268               0.000000000               0.000000000               0.000000000               0.000000000               0.000045414               0.000553179               0.000022608              -0.000052117               0.000201764               0.000149647               0.000000000               0.000000000               0.000000000               0.000000000               0.000022687               0.000603244               0.000012971              -0.000066897               0.000223378               0.000156481               0.000000000               0.000000000               0.000000000               0.000000000               0.000017088               0.000635606               0.000010644              -0.000073042               0.000236214               0.000163172               0.000000000               0.000000000               0.000000000               0.000000000              -0.000006170              -0.000024763               0.000000843               0.000000782              -0.000008515              -0.000007733               0.000000000               0.000000000               0.000000000               0.000000000              -0.000006355              -0.000015722               0.000000794              -0.000000418              -0.000005101              -0.000005519               0.000000000               0.000000000               0.000000000               0.000000000               0.000002197               0.000007762              -0.000000187              -0.000000146               0.000002636               0.000002490               0.000000000               0.000000000               0.000000000               0.000000000               0.000018598               0.000052240              -0.000000328               0.000000444               0.000017265               0.000017709               0.000000000               0.000000000               0.000000000               0.000000000               0.000037964               0.000109212              -0.000000908               0.000000585               0.000036209               0.000036794               0.000000000               0.000000000               0.000000000               0.000000000               0.000059606               0.000170285              -0.000001877               0.000001067               0.000056406               0.000057472               0.000000000               0.000000000               0.000000000               0.000000000               0.000079543               0.000231155              -0.000001034               0.000000934               0.000076740               0.000077674               0.000000000               0.000000000               0.000000000               0.000000000               0.000096868               0.000288233               0.000002163               0.000000297               0.000095978               0.000096274               0.000000000               0.000000000               0.000000000               0.000000000               0.000111465               0.000343126               0.000008750              -0.000001091               0.000114738               0.000113647               0.000000000               0.000000000               0.000000000               0.000000000               0.000119743               0.000399115               0.000017182              -0.000004986               0.000134699               0.000129713               0.000000000               0.000000000               0.000000000               0.000000000               0.000119062               0.000459473               0.000024999              -0.000012786               0.000157418               0.000144632               0.000000000               0.000000000               0.000000000               0.000000000               0.000109107               0.000524283               0.000029663              -0.000024620               0.000182966               0.000158346               0.000000000               0.000000000               0.000000000               0.000000000               0.000091973               0.000591158               0.000030074              -0.000039405               0.000210186               0.000170781               0.000000000               0.000000000               0.000000000               0.000000000               0.000070343               0.000656703               0.000026156              -0.000055709               0.000237469               0.000181760               0.000000000               0.000000000               0.000000000               0.000000000               0.000047087               0.000717749               0.000019018              -0.000072061               0.000263267               0.000191207               0.000000000               0.000000000               0.000000000               0.000000000               0.000023819               0.000771063               0.000010216              -0.000087450               0.000286169               0.000198718               0.000000000               0.000000000               0.000000000               0.000000000               0.000015954               0.000803766               0.000008353              -0.000094488               0.000299415               0.000204928               0.000000000               0.000000000               0.000000000               0.000000000              -0.000002412              -0.000021322              -0.000002873               0.000001761              -0.000007694              -0.000005934               0.000000000               0.000000000               0.000000000               0.000000000              -0.000001176              -0.000004561               0.000000712               0.000000129              -0.000001563              -0.000001434               0.000000000               0.000000000               0.000000000               0.000000000               0.000009339               0.000031522              -0.000000317              -0.000000438               0.000010653               0.000010215               0.000000000               0.000000000               0.000000000               0.000000000               0.000032553               0.000093298              -0.000001729               0.000000545               0.000030917               0.000031462               0.000000000               0.000000000               0.000000000               0.000000000               0.000054914               0.000160261              -0.000002268               0.000000560               0.000053233               0.000053793               0.000000000               0.000000000               0.000000000               0.000000000               0.000078415               0.000229061              -0.000002833               0.000000773               0.000076095               0.000076868               0.000000000               0.000000000               0.000000000               0.000000000               0.000099672               0.000296455              -0.000001364               0.000000320               0.000098710               0.000099031               0.000000000               0.000000000               0.000000000               0.000000000               0.000117758               0.000359354               0.000002498              -0.000000760               0.000120037               0.000119277               0.000000000               0.000000000               0.000000000               0.000000000               0.000131997               0.000421728               0.000008794              -0.000003217               0.000141647               0.000138430               0.000000000               0.000000000               0.000000000               0.000000000               0.000138380               0.000486619               0.000016082              -0.000008935               0.000165183               0.000156248               0.000000000               0.000000000               0.000000000               0.000000000               0.000135864               0.000557274               0.000022365              -0.000018710               0.000191993               0.000173283               0.000000000               0.000000000               0.000000000               0.000000000               0.000125159               0.000632065               0.000025507              -0.000032073               0.000221377               0.000189304               0.000000000               0.000000000               0.000000000               0.000000000               0.000109191               0.000708374               0.000024573              -0.000047600               0.000251989               0.000204389               0.000000000               0.000000000               0.000000000               0.000000000               0.000090094               0.000782324               0.000019828              -0.000064005               0.000282107               0.000218102               0.000000000               0.000000000               0.000000000               0.000000000               0.000070099               0.000851382               0.000012707              -0.000080136               0.000310503               0.000230367               0.000000000               0.000000000               0.000000000               0.000000000               0.000050503               0.000913425               0.000005285              -0.000095239               0.000336218               0.000240979               0.000000000               0.000000000               0.000000000               0.000000000               0.000039101               0.000945855               0.000002134              -0.000103569               0.000349805               0.000246236               0.000000000               0.000000000               0.000000000               0.000000000               0.000001430              -0.000007957              -0.000006200               0.000001531              -0.000003162              -0.000001632               0.000000000               0.000000000               0.000000000               0.000000000               0.000005139               0.000008425              -0.000000320               0.000000874               0.000002517               0.000003391               0.000000000               0.000000000               0.000000000               0.000000000               0.000015118               0.000051538               0.000000931              -0.000000773               0.000017437               0.000016664               0.000000000               0.000000000               0.000000000               0.000000000               0.000040177               0.000119432              -0.000000515               0.000000137               0.000039764               0.000039902               0.000000000               0.000000000               0.000000000               0.000000000               0.000064036               0.000188330              -0.000001109               0.000000472               0.000062619               0.000063091               0.000000000               0.000000000               0.000000000               0.000000000               0.000088243               0.000260067              -0.000001380               0.000000583               0.000086494               0.000087076               0.000000000               0.000000000               0.000000000               0.000000000               0.000110642               0.000330203              -0.000000471               0.000000215               0.000109995               0.000110210               0.000000000               0.000000000               0.000000000               0.000000000               0.000130294               0.000397707               0.000003062              -0.000000853               0.000132852               0.000131999               0.000000000               0.000000000               0.000000000               0.000000000               0.000146924               0.000462829               0.000007658              -0.000002757               0.000155194               0.000152437               0.000000000               0.000000000               0.000000000               0.000000000               0.000158089               0.000528798               0.000013135              -0.000006817               0.000178536               0.000171720               0.000000000               0.000000000               0.000000000               0.000000000               0.000161628               0.000597747               0.000018310              -0.000014108               0.000203950               0.000189842               0.000000000               0.000000000               0.000000000               0.000000000               0.000157589               0.000670380               0.000021821              -0.000024701               0.000231691               0.000206990               0.000000000               0.000000000               0.000000000               0.000000000               0.000147987               0.000745605               0.000022150              -0.000037705               0.000261101               0.000223396               0.000000000               0.000000000               0.000000000               0.000000000               0.000134855               0.000821731               0.000019113              -0.000052146               0.000291290               0.000239144               0.000000000               0.000000000               0.000000000               0.000000000               0.000120167               0.000896999               0.000013134              -0.000067062               0.000321351               0.000254288               0.000000000               0.000000000               0.000000000               0.000000000               0.000106077               0.000971601               0.000005899              -0.000081671               0.000351087               0.000269416               0.000000000               0.000000000               0.000000000               0.000000000               0.000092499               0.001004573              -0.000000283              -0.000090884               0.000365149               0.000274265               0.000000000               0.000000000               0.000000000               0.000000000               0.000001621               0.000005599              -0.000006575              -0.000000092               0.000001897               0.000001805               0.000000000               0.000000000               0.000000000               0.000000000               0.000010816               0.000022207              -0.000002260               0.000001280               0.000006976               0.000008256               0.000000000               0.000000000               0.000000000               0.000000000               0.000021475               0.000069030               0.000001386              -0.000000576               0.000023202               0.000022626               0.000000000               0.000000000               0.000000000               0.000000000               0.000044352               0.000135686               0.000000111              -0.000000329               0.000045338               0.000045009               0.000000000               0.000000000               0.000000000               0.000000000               0.000069829               0.000205983              -0.000000820               0.000000438               0.000068514               0.000068952               0.000000000               0.000000000               0.000000000               0.000000000               0.000093149               0.000274999              -0.000000658               0.000000556               0.000091480               0.000092036               0.000000000               0.000000000               0.000000000               0.000000000               0.000116671               0.000345254              -0.000000798               0.000000595               0.000114885               0.000115480               0.000000000               0.000000000               0.000000000               0.000000000               0.000137492               0.000414149               0.000000659              -0.000000209               0.000138118               0.000137909               0.000000000               0.000000000               0.000000000               0.000000000               0.000156208               0.000480272               0.000003208              -0.000001456               0.000160574               0.000159118               0.000000000               0.000000000               0.000000000               0.000000000               0.000172640               0.000546319               0.000006661              -0.000003550               0.000183288               0.000179738               0.000000000               0.000000000               0.000000000               0.000000000               0.000184481               0.000612905               0.000010383              -0.000007433               0.000206777               0.000199344               0.000000000               0.000000000               0.000000000               0.000000000               0.000190362               0.000681779               0.000014032              -0.000013837               0.000231870               0.000218033               0.000000000               0.000000000               0.000000000               0.000000000               0.000190896               0.000753408               0.000016127              -0.000022590               0.000258664               0.000236074               0.000000000               0.000000000               0.000000000               0.000000000               0.000187439               0.000826659               0.000015835              -0.000033043               0.000286564               0.000253522               0.000000000               0.000000000               0.000000000               0.000000000               0.000181285               0.000900617               0.000012597              -0.000044595               0.000315068               0.000270472               0.000000000               0.000000000               0.000000000               0.000000000               0.000173708               0.000974427               0.000006995              -0.000056663               0.000343694               0.000287031               0.000000000               0.000000000               0.000000000               0.000000000               0.000162008               0.001004352               0.000000690              -0.000064791               0.000356377               0.000291587               0.000000000               0.000000000               0.000000000               0.000000000               0.000002010               0.000015021              -0.000003963              -0.000001124               0.000005381               0.000004258               0.000000000               0.000000000               0.000000000               0.000000000               0.000015542               0.000037397              -0.000003993               0.000001154               0.000012081               0.000013235               0.000000000               0.000000000               0.000000000               0.000000000               0.000029059               0.000086006               0.000000538               0.000000146               0.000028620               0.000028766               0.000000000               0.000000000               0.000000000               0.000000000               0.000047379               0.000148734               0.000001591              -0.000000825               0.000049852               0.000049028               0.000000000               0.000000000               0.000000000               0.000000000               0.000074243               0.000221199              -0.000000469               0.000000191               0.000073669               0.000073860               0.000000000               0.000000000               0.000000000               0.000000000               0.000097111               0.000288658              -0.000000352               0.000000334               0.000096107               0.000096441               0.000000000               0.000000000               0.000000000               0.000000000               0.000120402               0.000357481              -0.000000667               0.000000466               0.000119004               0.000119470               0.000000000               0.000000000               0.000000000               0.000000000               0.000142715               0.000426939              -0.000000610               0.000000151               0.000142261               0.000142412               0.000000000               0.000000000               0.000000000               0.000000000               0.000163417               0.000494635               0.000000501              -0.000000548               0.000165059               0.000164511               0.000000000               0.000000000               0.000000000               0.000000000               0.000182823               0.000560828               0.000002141              -0.000001545               0.000187456               0.000185911               0.000000000               0.000000000               0.000000000               0.000000000               0.000200432               0.000626919               0.000004138              -0.000003203               0.000210039               0.000206836               0.000000000               0.000000000               0.000000000               0.000000000               0.000214725               0.000693802               0.000006451              -0.000006203               0.000233333               0.000227129               0.000000000               0.000000000               0.000000000               0.000000000               0.000224874               0.000762488               0.000008527              -0.000010983               0.000257821               0.000246838               0.000000000               0.000000000               0.000000000               0.000000000               0.000231279               0.000832734               0.000009614              -0.000017362               0.000283363               0.000266000               0.000000000               0.000000000               0.000000000               0.000000000               0.000235026               0.000904390               0.000008899              -0.000024914               0.000309765               0.000284851               0.000000000               0.000000000               0.000000000               0.000000000               0.000236512               0.000976237               0.000005837              -0.000033337               0.000336522               0.000303184               0.000000000               0.000000000               0.000000000               0.000000000               0.000230857               0.001006619               0.000001762              -0.000039256               0.000348622               0.000309366               0.000000000               0.000000000               0.000000000               0.000000000               0.000003781               0.000022868              -0.000000784              -0.000001441               0.000008103               0.000006662               0.000000000               0.000000000               0.000000000               0.000000000               0.000018411               0.000052340              -0.000003819               0.000000362               0.000017326               0.000017688               0.000000000               0.000000000               0.000000000               0.000000000               0.000036554               0.000102717              -0.000001657               0.000000868               0.000033949               0.000034817               0.000000000               0.000000000               0.000000000               0.000000000               0.000051459               0.000159894               0.000001910              -0.000000690               0.000053527               0.000052838               0.000000000               0.000000000               0.000000000               0.000000000               0.000076317               0.000231555              -0.000000209              -0.000000325               0.000077293               0.000076967               0.000000000               0.000000000               0.000000000               0.000000000               0.000099985               0.000299979              -0.000000566              -0.000000003               0.000099993               0.000099990               0.000000000               0.000000000               0.000000000               0.000000000               0.000122972               0.000366433               0.000000188               0.000000311               0.000122040               0.000122350               0.000000000               0.000000000               0.000000000               0.000000000               0.000146473               0.000435500              -0.000000421               0.000000490               0.000145002               0.000145492               0.000000000               0.000000000               0.000000000               0.000000000               0.000168655               0.000504490              -0.000000349               0.000000184               0.000168100               0.000168284               0.000000000               0.000000000               0.000000000               0.000000000               0.000189766               0.000571400              -0.000000061              -0.000000263               0.000190552               0.000190290               0.000000000               0.000000000               0.000000000               0.000000000               0.000210497               0.000638182               0.000000532              -0.000000836               0.000213004               0.000212168               0.000000000               0.000000000               0.000000000               0.000000000               0.000229907               0.000703923               0.000001289              -0.000001775               0.000235230               0.000233455               0.000000000               0.000000000               0.000000000               0.000000000               0.000247485               0.000770715               0.000002263              -0.000003533               0.000258080               0.000254547               0.000000000               0.000000000               0.000000000               0.000000000               0.000262497               0.000838420               0.000003074              -0.000006366               0.000281593               0.000275227               0.000000000               0.000000000               0.000000000               0.000000000               0.000275463               0.000907662               0.000003371              -0.000010159               0.000305937               0.000295778               0.000000000               0.000000000               0.000000000               0.000000000               0.000286998               0.000977408               0.000002442              -0.000014552               0.000330650               0.000316098               0.000000000               0.000000000               0.000000000               0.000000000               0.000289375               0.001009030               0.000000799              -0.000017613               0.000342211               0.000324598               0.000000000               0.000000000               0.000000000               0.000000000               0.000007419               0.000031547              -0.000000528              -0.000001161               0.000010903               0.000009742               0.000000000               0.000000000               0.000000000               0.000000000               0.000019826               0.000063570              -0.000002823              -0.000000512               0.000021360               0.000020849               0.000000000               0.000000000               0.000000000               0.000000000               0.000041166               0.000116309              -0.000002477               0.000000899               0.000038470               0.000039368               0.000000000               0.000000000               0.000000000               0.000000000               0.000056592               0.000169816               0.000001238              -0.000000005               0.000056606               0.000056601               0.000000000               0.000000000               0.000000000               0.000000000               0.000079235               0.000238593               0.000000442              -0.000000111               0.000079567               0.000079456               0.000000000               0.000000000               0.000000000               0.000000000               0.000103823               0.000310764              -0.000000859               0.000000088               0.000103558               0.000103646               0.000000000               0.000000000               0.000000000               0.000000000               0.000125132               0.000375157               0.000000160               0.000000030               0.000125041               0.000125071               0.000000000               0.000000000               0.000000000               0.000000000               0.000147562               0.000441172              -0.000000069               0.000000189               0.000146993               0.000147182               0.000000000               0.000000000               0.000000000               0.000000000               0.000170695               0.000510475              -0.000000346               0.000000201               0.000170090               0.000170291               0.000000000               0.000000000               0.000000000               0.000000000               0.000192769               0.000577371              -0.000000416               0.000000117               0.000192416               0.000192533               0.000000000               0.000000000               0.000000000               0.000000000               0.000215116               0.000644691              -0.000000493               0.000000082               0.000214867               0.000214949               0.000000000               0.000000000               0.000000000               0.000000000               0.000237191               0.000711028              -0.000000586               0.000000068               0.000236984               0.000237052               0.000000000               0.000000000               0.000000000               0.000000000               0.000258787               0.000777176              -0.000000443              -0.000000102               0.000259090               0.000258988               0.000000000               0.000000000               0.000000000               0.000000000               0.000279409               0.000843441              -0.000000304              -0.000000652               0.000281362               0.000280710               0.000000000               0.000000000               0.000000000               0.000000000               0.000298896               0.000910801              -0.000000006              -0.000001764               0.000304185               0.000302421               0.000000000               0.000000000               0.000000000               0.000000000               0.000317317               0.000978717               0.000000114              -0.000003346               0.000327351               0.000324005               0.000000000               0.000000000               0.000000000               0.000000000               0.000324995               0.001011284              -0.000000187              -0.000004537               0.000338604               0.000334066               0.000000000               0.000000000               0.000000000               0.000000000               0.000012762               0.000041414              -0.000001400              -0.000000391               0.000013935               0.000013544               0.000000000               0.000000000               0.000000000               0.000000000               0.000021700               0.000072818              -0.000002656              -0.000000965               0.000024594               0.000023629               0.000000000               0.000000000               0.000000000               0.000000000               0.000042895               0.000127177              -0.000002202               0.000000188               0.000042329               0.000042518               0.000000000               0.000000000               0.000000000               0.000000000               0.000059660               0.000179101               0.000001089              -0.000000015               0.000059705               0.000059690               0.000000000               0.000000000               0.000000000               0.000000000               0.000080407               0.000242949               0.000001337              -0.000000216               0.000081054               0.000080838               0.000000000               0.000000000               0.000000000               0.000000000               0.000105255               0.000316419              -0.000000488              -0.000000082               0.000105499               0.000105418               0.000000000               0.000000000               0.000000000               0.000000000               0.000127038               0.000382034              -0.000000212              -0.000000115               0.000127382               0.000127267               0.000000000               0.000000000               0.000000000               0.000000000               0.000148871               0.000445907               0.000000118               0.000000088               0.000148605               0.000148693               0.000000000               0.000000000               0.000000000               0.000000000               0.000172205               0.000514002              -0.000000119               0.000000326               0.000171224               0.000171550               0.000000000               0.000000000               0.000000000               0.000000000               0.000194437               0.000580721              -0.000000152               0.000000324               0.000193464               0.000193787               0.000000000               0.000000000               0.000000000               0.000000000               0.000216601               0.000647775              -0.000000197               0.000000253               0.000215838               0.000216092               0.000000000               0.000000000               0.000000000               0.000000000               0.000239159               0.000714940              -0.000000426               0.000000317               0.000238205               0.000238522               0.000000000               0.000000000               0.000000000               0.000000000               0.000262003               0.000781539              -0.000000507               0.000000559               0.000260324               0.000260883               0.000000000               0.000000000               0.000000000               0.000000000               0.000284831               0.000847452              -0.000000558               0.000000880               0.000282188               0.000283068               0.000000000               0.000000000               0.000000000               0.000000000               0.000307458               0.000913651              -0.000000465               0.000001090               0.000304184               0.000305274               0.000000000               0.000000000               0.000000000               0.000000000               0.000329354               0.000980140              -0.000000272               0.000000990               0.000326380               0.000327370               0.000000000               0.000000000               0.000000000               0.000000000               0.000339668               0.001013082              -0.000000211               0.000000740               0.000337444               0.000338184               0.000000000               0.000000000               0.000000000               0.000000000               0.000014740               0.000045954               0.000000898              -0.000000217               0.000015390               0.000015174               0.000000000               0.000000000               0.000000000               0.000000000               0.000023920               0.000078311              -0.000000668              -0.000000819               0.000026376               0.000025557               0.000000000               0.000000000               0.000000000               0.000000000               0.000044420               0.000134801              -0.000001863              -0.000000193               0.000044997               0.000044805               0.000000000               0.000000000               0.000000000               0.000000000               0.000062429               0.000185561              -0.000000226               0.000000216               0.000061781               0.000061997               0.000000000               0.000000000               0.000000000               0.000000000               0.000081359               0.000245099               0.000000498              -0.000000128               0.000081742               0.000081614               0.000000000               0.000000000               0.000000000               0.000000000               0.000106180               0.000319384              -0.000000259              -0.000000106               0.000106496               0.000106390               0.000000000               0.000000000               0.000000000               0.000000000               0.000128900               0.000386595               0.000000015               0.000000013               0.000128859               0.000128873               0.000000000               0.000000000               0.000000000               0.000000000               0.000149801               0.000449141               0.000000345               0.000000033               0.000149701               0.000149734               0.000000000               0.000000000               0.000000000               0.000000000               0.000172439               0.000516507               0.000000148               0.000000101               0.000172133               0.000172235               0.000000000               0.000000000               0.000000000               0.000000000               0.000194736               0.000583184               0.000000142               0.000000128               0.000194350               0.000194478               0.000000000               0.000000000               0.000000000               0.000000000               0.000216615               0.000649159               0.000000262               0.000000086               0.000216356               0.000216441               0.000000000               0.000000000               0.000000000               0.000000000               0.000238801               0.000715990               0.000000245               0.000000052               0.000238644               0.000238695               0.000000000               0.000000000               0.000000000               0.000000000               0.000261165               0.000782704               0.000000152               0.000000099               0.000260866               0.000260965               0.000000000               0.000000000               0.000000000               0.000000000               0.000283573               0.000848847               0.000000001               0.000000234               0.000282868               0.000283102               0.000000000               0.000000000               0.000000000               0.000000000               0.000306191               0.000915033              -0.000000086               0.000000442               0.000304861               0.000305303               0.000000000               0.000000000               0.000000000               0.000000000               0.000328754               0.000981068              -0.000000083               0.000000649               0.000326803               0.000327452               0.000000000               0.000000000               0.000000000               0.000000000               0.000340039               0.001014162              -0.000000010               0.000000744               0.000337802               0.000338547               0.000000000               0.000000000               0.000000000               0.000000000               0.000000000               0.000000000               0.000000000               0.000000000               0.000000000               0.000000000               0.000000000               0.000000000               0.000000000               0.000000000               0.000000000               0.000000000               0.000000000               0.000000000               0.000000000               0.000000000               0.000000000               0.000000000               0.000000000               0.000000000               0.000000000               0.000000000               0.000000000               0.000000000               0.000000000               0.000000000               0.000000000               0.000000000               0.000000000               0.000000000               0.000000000               0.000000000               0.000000000               0.000000000               0.000000000               0.000000000               0.000000000               0.000000000               0.000000000               0.000000000               0.000000000               0.000000000               0.000000000               0.000000000               0.000000000               0.000000000               0.000000000               0.000000000               0.000000000               0.000000000               0.000000000               0.000000000               0.000000000               0.000000000               0.000000000               0.000000000               0.000000000               0.000000000               0.000000000               0.000000000               0.000000000               0.000000000               0.000000000               0.000000000               0.000000000               0.000000000               0.000000000               0.000000000               0.000000000               0.000000000               0.000000000               0.000000000               0.000000000               0.000000000               0.000000000               0.000000000               0.000000000               0.000000000               0.000000000               0.000000000               0.000000000               0.000000000               0.000000000               0.000000000               0.000000000               0.000000000               0.000000000               0.000000000               0.000000000               0.000000000               0.000000000               0.000000000               0.000000000               0.000000000               0.000000000               0.000000000               0.000000000               0.000000000               0.000000000               0.000000000               0.000000000               0.000000000               0.000000000               0.000000000               0.000000000               0.000000000               0.000000000               0.000000000               0.000000000               0.000000000               0.000000000               0.000000000               0.000000000               0.000000000               0.000000000               0.000000000               0.000000000               0.000000000               0.000000000               0.000000000               0.000000000               0.000000000               0.000000000               0.000000000               0.000000000               0.000000000               0.000000000               0.000000000               0.000000000               0.000000000               0.000000000               0.000000000               0.000000000               0.000000000               0.000000000               0.000000000               0.000000000               0.000000000               0.000000000               0.000000000               0.000000000               0.000000000               0.000000000               0.000000000               0.000000000               0.000000000               0.000000000               0.000000000               0.000000000               0.000000000               0.000000000               0.000000000               0.000000000               0.000000000               0.000000000               0.000000000               0.000000000               0.000000000               0.000000000               0.000000000               0.000000000               0.000000000               0.000000000               0.000000000               0.000000000               0.000000000               0.000000000               0.000000000               0.000000000               0.000000000 </DataArray>
</PointData>
</Piece>
</UnstructuredGrid> </VTKFile>
