<?xml version="1.0"?>
<VTKFile type="UnstructuredGrid" version="0.1">
<UnstructuredGrid>
<Piece NumberOfPoints="      1156" NumberOfCells="      1024">
<Points>
<DataArray type="Float64"                                    Name="coordinates"                                                      NumberOfComponents=" 3" format="ascii">
              0.133000000               0.000000000               0.000000000               0.155937500               0.000000000               0.000000000               0.178875000               0.000000000               0.000000000               0.201812500               0.000000000               0.000000000               0.224750000               0.000000000               0.000000000               0.247687500               0.000000000               0.000000000               0.270625000               0.000000000               0.000000000               0.293562500               0.000000000               0.000000000               0.316500000               0.000000000               0.000000000               0.339437500               0.000000000               0.000000000               0.362375000               0.000000000               0.000000000               0.385312500               0.000000000               0.000000000               0.408250000               0.000000000               0.000000000               0.431187500               0.000000000               0.000000000               0.454125000               0.000000000               0.000000000               0.477062500               0.000000000               0.000000000               0.500000000               0.000000000               0.000000000               0.132359569               0.013036280               0.000000000               0.155337096               0.016127762               0.000000000               0.178314623               0.019219245               0.000000000               0.201292150               0.022310727               0.000000000               0.224269676               0.025402210               0.000000000               0.247247203               0.028493692               0.000000000               0.270224730               0.031585175               0.000000000               0.293202257               0.034676657               0.000000000               0.316179784               0.037768140               0.000000000               0.339157311               0.040859622               0.000000000               0.362134838               0.043951105               0.000000000               0.385112365               0.047042587               0.000000000               0.408089892               0.050134070               0.000000000               0.431067419               0.053225552               0.000000000               0.454044946               0.056317035               0.000000000               0.477022473               0.059408517               0.000000000               0.500000000               0.062500000               0.000000000               0.130444442               0.025947013               0.000000000               0.153541665               0.032137825               0.000000000               0.176638887               0.038328636               0.000000000               0.199736109               0.044519448               0.000000000               0.222833332               0.050710260               0.000000000               0.245930554               0.056901071               0.000000000               0.269027776               0.063091883               0.000000000               0.292124999               0.069282695               0.000000000               0.315222221               0.075473506               0.000000000               0.338319444               0.081664318               0.000000000               0.361416666               0.087855130               0.000000000               0.384513888               0.094045942               0.000000000               0.407611111               0.100236753               0.000000000               0.430708333               0.106427565               0.000000000               0.453805555               0.112618377               0.000000000               0.476902778               0.118809188               0.000000000               0.500000000               0.125000000               0.000000000               0.127273065               0.038607862               0.000000000               0.150568498               0.047913621               0.000000000               0.173863932               0.057219379               0.000000000               0.197159365               0.066525138               0.000000000               0.220454798               0.075830897               0.000000000               0.243750232               0.085136655               0.000000000               0.267045665               0.094442414               0.000000000               0.290341099               0.103748172               0.000000000               0.313636532               0.113053931               0.000000000               0.336931966               0.122359690               0.000000000               0.360227399               0.131665448               0.000000000               0.383522833               0.140971207               0.000000000               0.406818266               0.150276966               0.000000000               0.430113700               0.159582724               0.000000000               0.453409133               0.168888483               0.000000000               0.476704567               0.178194241               0.000000000               0.500000000               0.187500000               0.000000000               0.122875978               0.050896897               0.000000000               0.146446229               0.063340840               0.000000000               0.170016481               0.075784784               0.000000000               0.193586732               0.088228728               0.000000000               0.217156983               0.100672672               0.000000000               0.240727235               0.113116616               0.000000000               0.264297486               0.125560560               0.000000000               0.287867738               0.138004504               0.000000000               0.311437989               0.150448448               0.000000000               0.335008240               0.162892392               0.000000000               0.358578492               0.175336336               0.000000000               0.382148743               0.187780280               0.000000000               0.405718994               0.200224224               0.000000000               0.429289246               0.212668168               0.000000000               0.452859497               0.225112112               0.000000000               0.476429749               0.237556056               0.000000000               0.500000000               0.250000000               0.000000000               0.117295528               0.062695766               0.000000000               0.141214558               0.078308531               0.000000000               0.165133587               0.093921295               0.000000000               0.189052617               0.109534060               0.000000000               0.212971646               0.125146824               0.000000000               0.236890676               0.140759589               0.000000000               0.260809705               0.156372354               0.000000000               0.284728735               0.171985118               0.000000000               0.308647764               0.187597883               0.000000000               0.332566794               0.203210648               0.000000000               0.356485823               0.218823412               0.000000000               0.380404853               0.234436177               0.000000000               0.404323882               0.250048941               0.000000000               0.428242912               0.265661706               0.000000000               0.452161941               0.281274471               0.000000000               0.476080971               0.296887235               0.000000000               0.500000000               0.312500000               0.000000000               0.110585458               0.073890841               0.000000000               0.134923867               0.092710163               0.000000000               0.159262276               0.111529486               0.000000000               0.183600685               0.130348808               0.000000000               0.207939094               0.149168131               0.000000000               0.232277503               0.167987453               0.000000000               0.256615912               0.186806776               0.000000000               0.280954320               0.205626098               0.000000000               0.305292729               0.224445420               0.000000000               0.329631138               0.243264743               0.000000000               0.353969547               0.262084065               0.000000000               0.378307956               0.280903388               0.000000000               0.402646365               0.299722710               0.000000000               0.426984773               0.318542033               0.000000000               0.451323182               0.337361355               0.000000000               0.475661591               0.356180678               0.000000000               0.500000000               0.375000000               0.000000000               0.102810390               0.084374307               0.000000000               0.127634741               0.106444663               0.000000000               0.152459092               0.128515018               0.000000000               0.177283442               0.150585374               0.000000000               0.202107793               0.172655730               0.000000000               0.226932143               0.194726086               0.000000000               0.251756494               0.216796442               0.000000000               0.276580845               0.238866798               0.000000000               0.301405195               0.260937153               0.000000000               0.326229546               0.283007509               0.000000000               0.351053896               0.305077865               0.000000000               0.375878247               0.327148221               0.000000000               0.400702598               0.349218577               0.000000000               0.425526948               0.371288933               0.000000000               0.450351299               0.393359288               0.000000000               0.475175649               0.415429644               0.000000000               0.500000000               0.437500000               0.000000000               0.094045202               0.094045202               0.000000000               0.119417377               0.119417377               0.000000000               0.144789552               0.144789552               0.000000000               0.170161727               0.170161727               0.000000000               0.195533901               0.195533901               0.000000000               0.220906076               0.220906076               0.000000000               0.246278251               0.246278251               0.000000000               0.271650426               0.271650426               0.000000000               0.297022601               0.297022601               0.000000000               0.322394776               0.322394776               0.000000000               0.347766951               0.347766951               0.000000000               0.373139126               0.373139126               0.000000000               0.398511300               0.398511300               0.000000000               0.423883475               0.423883475               0.000000000               0.449255650               0.449255650               0.000000000               0.474627825               0.474627825               0.000000000               0.500000000               0.500000000               0.000000000               0.084374307               0.102810390               0.000000000               0.106444663               0.127634741               0.000000000               0.128515018               0.152459092               0.000000000               0.150585374               0.177283442               0.000000000               0.172655730               0.202107793               0.000000000               0.194726086               0.226932143               0.000000000               0.216796442               0.251756494               0.000000000               0.238866798               0.276580845               0.000000000               0.260937153               0.301405195               0.000000000               0.283007509               0.326229546               0.000000000               0.305077865               0.351053896               0.000000000               0.327148221               0.375878247               0.000000000               0.349218577               0.400702598               0.000000000               0.371288933               0.425526948               0.000000000               0.393359288               0.450351299               0.000000000               0.415429644               0.475175649               0.000000000               0.437500000               0.500000000               0.000000000               0.073890841               0.110585458               0.000000000               0.092710163               0.134923867               0.000000000               0.111529486               0.159262276               0.000000000               0.130348808               0.183600685               0.000000000               0.149168131               0.207939094               0.000000000               0.167987453               0.232277503               0.000000000               0.186806776               0.256615912               0.000000000               0.205626098               0.280954320               0.000000000               0.224445420               0.305292729               0.000000000               0.243264743               0.329631138               0.000000000               0.262084065               0.353969547               0.000000000               0.280903388               0.378307956               0.000000000               0.299722710               0.402646365               0.000000000               0.318542033               0.426984773               0.000000000               0.337361355               0.451323182               0.000000000               0.356180678               0.475661591               0.000000000               0.375000000               0.500000000               0.000000000               0.062695766               0.117295528               0.000000000               0.078308531               0.141214558               0.000000000               0.093921295               0.165133587               0.000000000               0.109534060               0.189052617               0.000000000               0.125146824               0.212971646               0.000000000               0.140759589               0.236890676               0.000000000               0.156372354               0.260809705               0.000000000               0.171985118               0.284728735               0.000000000               0.187597883               0.308647764               0.000000000               0.203210648               0.332566794               0.000000000               0.218823412               0.356485823               0.000000000               0.234436177               0.380404853               0.000000000               0.250048941               0.404323882               0.000000000               0.265661706               0.428242912               0.000000000               0.281274471               0.452161941               0.000000000               0.296887235               0.476080971               0.000000000               0.312500000               0.500000000               0.000000000               0.050896897               0.122875978               0.000000000               0.063340840               0.146446229               0.000000000               0.075784784               0.170016481               0.000000000               0.088228728               0.193586732               0.000000000               0.100672672               0.217156983               0.000000000               0.113116616               0.240727235               0.000000000               0.125560560               0.264297486               0.000000000               0.138004504               0.287867738               0.000000000               0.150448448               0.311437989               0.000000000               0.162892392               0.335008240               0.000000000               0.175336336               0.358578492               0.000000000               0.187780280               0.382148743               0.000000000               0.200224224               0.405718994               0.000000000               0.212668168               0.429289246               0.000000000               0.225112112               0.452859497               0.000000000               0.237556056               0.476429749               0.000000000               0.250000000               0.500000000               0.000000000               0.038607862               0.127273065               0.000000000               0.047913621               0.150568498               0.000000000               0.057219379               0.173863932               0.000000000               0.066525138               0.197159365               0.000000000               0.075830897               0.220454798               0.000000000               0.085136655               0.243750232               0.000000000               0.094442414               0.267045665               0.000000000               0.103748172               0.290341099               0.000000000               0.113053931               0.313636532               0.000000000               0.122359690               0.336931966               0.000000000               0.131665448               0.360227399               0.000000000               0.140971207               0.383522833               0.000000000               0.150276966               0.406818266               0.000000000               0.159582724               0.430113700               0.000000000               0.168888483               0.453409133               0.000000000               0.178194241               0.476704567               0.000000000               0.187500000               0.500000000               0.000000000               0.025947013               0.130444442               0.000000000               0.032137825               0.153541665               0.000000000               0.038328636               0.176638887               0.000000000               0.044519448               0.199736109               0.000000000               0.050710260               0.222833332               0.000000000               0.056901071               0.245930554               0.000000000               0.063091883               0.269027776               0.000000000               0.069282695               0.292124999               0.000000000               0.075473506               0.315222221               0.000000000               0.081664318               0.338319444               0.000000000               0.087855130               0.361416666               0.000000000               0.094045942               0.384513888               0.000000000               0.100236753               0.407611111               0.000000000               0.106427565               0.430708333               0.000000000               0.112618377               0.453805555               0.000000000               0.118809188               0.476902778               0.000000000               0.125000000               0.500000000               0.000000000               0.013036280               0.132359569               0.000000000               0.016127762               0.155337096               0.000000000               0.019219245               0.178314623               0.000000000               0.022310727               0.201292150               0.000000000               0.025402210               0.224269676               0.000000000               0.028493692               0.247247203               0.000000000               0.031585175               0.270224730               0.000000000               0.034676657               0.293202257               0.000000000               0.037768140               0.316179784               0.000000000               0.040859622               0.339157311               0.000000000               0.043951105               0.362134838               0.000000000               0.047042587               0.385112365               0.000000000               0.050134070               0.408089892               0.000000000               0.053225552               0.431067419               0.000000000               0.056317035               0.454044946               0.000000000               0.059408517               0.477022473               0.000000000               0.062500000               0.500000000               0.000000000               0.000000000               0.133000000               0.000000000               0.000000000               0.155937500               0.000000000               0.000000000               0.178875000               0.000000000               0.000000000               0.201812500               0.000000000               0.000000000               0.224750000               0.000000000               0.000000000               0.247687500               0.000000000               0.000000000               0.270625000               0.000000000               0.000000000               0.293562500               0.000000000               0.000000000               0.316500000               0.000000000               0.000000000               0.339437500               0.000000000               0.000000000               0.362375000               0.000000000               0.000000000               0.385312500               0.000000000               0.000000000               0.408250000               0.000000000               0.000000000               0.431187500               0.000000000               0.000000000               0.454125000               0.000000000               0.000000000               0.477062500               0.000000000               0.000000000               0.500000000               0.000000000               0.133000000               0.000000000               0.000000000               0.155937500               0.000000000               0.000000000               0.178875000               0.000000000               0.000000000               0.201812500               0.000000000               0.000000000               0.224750000               0.000000000               0.000000000               0.247687500               0.000000000               0.000000000               0.270625000               0.000000000               0.000000000               0.293562500               0.000000000               0.000000000               0.316500000               0.000000000               0.000000000               0.339437500               0.000000000               0.000000000               0.362375000               0.000000000               0.000000000               0.385312500               0.000000000               0.000000000               0.408250000               0.000000000               0.000000000               0.431187500               0.000000000               0.000000000               0.454125000               0.000000000               0.000000000               0.477062500               0.000000000               0.000000000               0.500000000               0.000000000               0.000000000               0.132359569              -0.013036280               0.000000000               0.155337096              -0.016127762               0.000000000               0.178314623              -0.019219245               0.000000000               0.201292150              -0.022310727               0.000000000               0.224269676              -0.025402210               0.000000000               0.247247203              -0.028493692               0.000000000               0.270224730              -0.031585175               0.000000000               0.293202257              -0.034676657               0.000000000               0.316179784              -0.037768140               0.000000000               0.339157311              -0.040859622               0.000000000               0.362134838              -0.043951105               0.000000000               0.385112365              -0.047042587               0.000000000               0.408089892              -0.050134070               0.000000000               0.431067419              -0.053225552               0.000000000               0.454044946              -0.056317035               0.000000000               0.477022473              -0.059408517               0.000000000               0.500000000              -0.062500000               0.000000000               0.130444442              -0.025947013               0.000000000               0.153541665              -0.032137825               0.000000000               0.176638887              -0.038328636               0.000000000               0.199736109              -0.044519448               0.000000000               0.222833332              -0.050710260               0.000000000               0.245930554              -0.056901071               0.000000000               0.269027776              -0.063091883               0.000000000               0.292124999              -0.069282695               0.000000000               0.315222221              -0.075473506               0.000000000               0.338319444              -0.081664318               0.000000000               0.361416666              -0.087855130               0.000000000               0.384513888              -0.094045942               0.000000000               0.407611111              -0.100236753               0.000000000               0.430708333              -0.106427565               0.000000000               0.453805555              -0.112618377               0.000000000               0.476902778              -0.118809188               0.000000000               0.500000000              -0.125000000               0.000000000               0.127273065              -0.038607862               0.000000000               0.150568498              -0.047913621               0.000000000               0.173863932              -0.057219379               0.000000000               0.197159365              -0.066525138               0.000000000               0.220454798              -0.075830897               0.000000000               0.243750232              -0.085136655               0.000000000               0.267045665              -0.094442414               0.000000000               0.290341099              -0.103748172               0.000000000               0.313636532              -0.113053931               0.000000000               0.336931966              -0.122359690               0.000000000               0.360227399              -0.131665448               0.000000000               0.383522833              -0.140971207               0.000000000               0.406818266              -0.150276966               0.000000000               0.430113700              -0.159582724               0.000000000               0.453409133              -0.168888483               0.000000000               0.476704567              -0.178194241               0.000000000               0.500000000              -0.187500000               0.000000000               0.122875978              -0.050896897               0.000000000               0.146446229              -0.063340840               0.000000000               0.170016481              -0.075784784               0.000000000               0.193586732              -0.088228728               0.000000000               0.217156983              -0.100672672               0.000000000               0.240727235              -0.113116616               0.000000000               0.264297486              -0.125560560               0.000000000               0.287867738              -0.138004504               0.000000000               0.311437989              -0.150448448               0.000000000               0.335008240              -0.162892392               0.000000000               0.358578492              -0.175336336               0.000000000               0.382148743              -0.187780280               0.000000000               0.405718994              -0.200224224               0.000000000               0.429289246              -0.212668168               0.000000000               0.452859497              -0.225112112               0.000000000               0.476429749              -0.237556056               0.000000000               0.500000000              -0.250000000               0.000000000               0.117295528              -0.062695766               0.000000000               0.141214558              -0.078308531               0.000000000               0.165133587              -0.093921295               0.000000000               0.189052617              -0.109534060               0.000000000               0.212971646              -0.125146824               0.000000000               0.236890676              -0.140759589               0.000000000               0.260809705              -0.156372354               0.000000000               0.284728735              -0.171985118               0.000000000               0.308647764              -0.187597883               0.000000000               0.332566794              -0.203210648               0.000000000               0.356485823              -0.218823412               0.000000000               0.380404853              -0.234436177               0.000000000               0.404323882              -0.250048941               0.000000000               0.428242912              -0.265661706               0.000000000               0.452161941              -0.281274471               0.000000000               0.476080971              -0.296887235               0.000000000               0.500000000              -0.312500000               0.000000000               0.110585458              -0.073890841               0.000000000               0.134923867              -0.092710163               0.000000000               0.159262276              -0.111529486               0.000000000               0.183600685              -0.130348808               0.000000000               0.207939094              -0.149168131               0.000000000               0.232277503              -0.167987453               0.000000000               0.256615912              -0.186806776               0.000000000               0.280954320              -0.205626098               0.000000000               0.305292729              -0.224445420               0.000000000               0.329631138              -0.243264743               0.000000000               0.353969547              -0.262084065               0.000000000               0.378307956              -0.280903388               0.000000000               0.402646365              -0.299722710               0.000000000               0.426984773              -0.318542033               0.000000000               0.451323182              -0.337361355               0.000000000               0.475661591              -0.356180678               0.000000000               0.500000000              -0.375000000               0.000000000               0.102810390              -0.084374307               0.000000000               0.127634741              -0.106444663               0.000000000               0.152459092              -0.128515018               0.000000000               0.177283442              -0.150585374               0.000000000               0.202107793              -0.172655730               0.000000000               0.226932143              -0.194726086               0.000000000               0.251756494              -0.216796442               0.000000000               0.276580845              -0.238866798               0.000000000               0.301405195              -0.260937153               0.000000000               0.326229546              -0.283007509               0.000000000               0.351053896              -0.305077865               0.000000000               0.375878247              -0.327148221               0.000000000               0.400702598              -0.349218577               0.000000000               0.425526948              -0.371288933               0.000000000               0.450351299              -0.393359288               0.000000000               0.475175649              -0.415429644               0.000000000               0.500000000              -0.437500000               0.000000000               0.094045202              -0.094045202               0.000000000               0.119417377              -0.119417377               0.000000000               0.144789552              -0.144789552               0.000000000               0.170161727              -0.170161727               0.000000000               0.195533901              -0.195533901               0.000000000               0.220906076              -0.220906076               0.000000000               0.246278251              -0.246278251               0.000000000               0.271650426              -0.271650426               0.000000000               0.297022601              -0.297022601               0.000000000               0.322394776              -0.322394776               0.000000000               0.347766951              -0.347766951               0.000000000               0.373139126              -0.373139126               0.000000000               0.398511300              -0.398511300               0.000000000               0.423883475              -0.423883475               0.000000000               0.449255650              -0.449255650               0.000000000               0.474627825              -0.474627825               0.000000000               0.500000000              -0.500000000               0.000000000               0.084374307              -0.102810390               0.000000000               0.106444663              -0.127634741               0.000000000               0.128515018              -0.152459092               0.000000000               0.150585374              -0.177283442               0.000000000               0.172655730              -0.202107793               0.000000000               0.194726086              -0.226932143               0.000000000               0.216796442              -0.251756494               0.000000000               0.238866798              -0.276580845               0.000000000               0.260937153              -0.301405195               0.000000000               0.283007509              -0.326229546               0.000000000               0.305077865              -0.351053896               0.000000000               0.327148221              -0.375878247               0.000000000               0.349218577              -0.400702598               0.000000000               0.371288933              -0.425526948               0.000000000               0.393359288              -0.450351299               0.000000000               0.415429644              -0.475175649               0.000000000               0.437500000              -0.500000000               0.000000000               0.073890841              -0.110585458               0.000000000               0.092710163              -0.134923867               0.000000000               0.111529486              -0.159262276               0.000000000               0.130348808              -0.183600685               0.000000000               0.149168131              -0.207939094               0.000000000               0.167987453              -0.232277503               0.000000000               0.186806776              -0.256615912               0.000000000               0.205626098              -0.280954320               0.000000000               0.224445420              -0.305292729               0.000000000               0.243264743              -0.329631138               0.000000000               0.262084065              -0.353969547               0.000000000               0.280903388              -0.378307956               0.000000000               0.299722710              -0.402646365               0.000000000               0.318542033              -0.426984773               0.000000000               0.337361355              -0.451323182               0.000000000               0.356180678              -0.475661591               0.000000000               0.375000000              -0.500000000               0.000000000               0.062695766              -0.117295528               0.000000000               0.078308531              -0.141214558               0.000000000               0.093921295              -0.165133587               0.000000000               0.109534060              -0.189052617               0.000000000               0.125146824              -0.212971646               0.000000000               0.140759589              -0.236890676               0.000000000               0.156372354              -0.260809705               0.000000000               0.171985118              -0.284728735               0.000000000               0.187597883              -0.308647764               0.000000000               0.203210648              -0.332566794               0.000000000               0.218823412              -0.356485823               0.000000000               0.234436177              -0.380404853               0.000000000               0.250048941              -0.404323882               0.000000000               0.265661706              -0.428242912               0.000000000               0.281274471              -0.452161941               0.000000000               0.296887235              -0.476080971               0.000000000               0.312500000              -0.500000000               0.000000000               0.050896897              -0.122875978               0.000000000               0.063340840              -0.146446229               0.000000000               0.075784784              -0.170016481               0.000000000               0.088228728              -0.193586732               0.000000000               0.100672672              -0.217156983               0.000000000               0.113116616              -0.240727235               0.000000000               0.125560560              -0.264297486               0.000000000               0.138004504              -0.287867738               0.000000000               0.150448448              -0.311437989               0.000000000               0.162892392              -0.335008240               0.000000000               0.175336336              -0.358578492               0.000000000               0.187780280              -0.382148743               0.000000000               0.200224224              -0.405718994               0.000000000               0.212668168              -0.429289246               0.000000000               0.225112112              -0.452859497               0.000000000               0.237556056              -0.476429749               0.000000000               0.250000000              -0.500000000               0.000000000               0.038607862              -0.127273065               0.000000000               0.047913621              -0.150568498               0.000000000               0.057219379              -0.173863932               0.000000000               0.066525138              -0.197159365               0.000000000               0.075830897              -0.220454798               0.000000000               0.085136655              -0.243750232               0.000000000               0.094442414              -0.267045665               0.000000000               0.103748172              -0.290341099               0.000000000               0.113053931              -0.313636532               0.000000000               0.122359690              -0.336931966               0.000000000               0.131665448              -0.360227399               0.000000000               0.140971207              -0.383522833               0.000000000               0.150276966              -0.406818266               0.000000000               0.159582724              -0.430113700               0.000000000               0.168888483              -0.453409133               0.000000000               0.178194241              -0.476704567               0.000000000               0.187500000              -0.500000000               0.000000000               0.025947013              -0.130444442               0.000000000               0.032137825              -0.153541665               0.000000000               0.038328636              -0.176638887               0.000000000               0.044519448              -0.199736109               0.000000000               0.050710260              -0.222833332               0.000000000               0.056901071              -0.245930554               0.000000000               0.063091883              -0.269027776               0.000000000               0.069282695              -0.292124999               0.000000000               0.075473506              -0.315222221               0.000000000               0.081664318              -0.338319444               0.000000000               0.087855130              -0.361416666               0.000000000               0.094045942              -0.384513888               0.000000000               0.100236753              -0.407611111               0.000000000               0.106427565              -0.430708333               0.000000000               0.112618377              -0.453805555               0.000000000               0.118809188              -0.476902778               0.000000000               0.125000000              -0.500000000               0.000000000               0.013036280              -0.132359569               0.000000000               0.016127762              -0.155337096               0.000000000               0.019219245              -0.178314623               0.000000000               0.022310727              -0.201292150               0.000000000               0.025402210              -0.224269676               0.000000000               0.028493692              -0.247247203               0.000000000               0.031585175              -0.270224730               0.000000000               0.034676657              -0.293202257               0.000000000               0.037768140              -0.316179784               0.000000000               0.040859622              -0.339157311               0.000000000               0.043951105              -0.362134838               0.000000000               0.047042587              -0.385112365               0.000000000               0.050134070              -0.408089892               0.000000000               0.053225552              -0.431067419               0.000000000               0.056317035              -0.454044946               0.000000000               0.059408517              -0.477022473               0.000000000               0.062500000              -0.500000000               0.000000000               0.000000000              -0.133000000               0.000000000               0.000000000              -0.155937500               0.000000000               0.000000000              -0.178875000               0.000000000               0.000000000              -0.201812500               0.000000000               0.000000000              -0.224750000               0.000000000               0.000000000              -0.247687500               0.000000000               0.000000000              -0.270625000               0.000000000               0.000000000              -0.293562500               0.000000000               0.000000000              -0.316500000               0.000000000               0.000000000              -0.339437500               0.000000000               0.000000000              -0.362375000               0.000000000               0.000000000              -0.385312500               0.000000000               0.000000000              -0.408250000               0.000000000               0.000000000              -0.431187500               0.000000000               0.000000000              -0.454125000               0.000000000               0.000000000              -0.477062500               0.000000000               0.000000000              -0.500000000               0.000000000              -0.133000000               0.000000000               0.000000000              -0.155937500               0.000000000               0.000000000              -0.178875000               0.000000000               0.000000000              -0.201812500               0.000000000               0.000000000              -0.224750000               0.000000000               0.000000000              -0.247687500               0.000000000               0.000000000              -0.270625000               0.000000000               0.000000000              -0.293562500               0.000000000               0.000000000              -0.316500000               0.000000000               0.000000000              -0.339437500               0.000000000               0.000000000              -0.362375000               0.000000000               0.000000000              -0.385312500               0.000000000               0.000000000              -0.408250000               0.000000000               0.000000000              -0.431187500               0.000000000               0.000000000              -0.454125000               0.000000000               0.000000000              -0.477062500               0.000000000               0.000000000              -0.500000000               0.000000000               0.000000000              -0.132359569              -0.013036280               0.000000000              -0.155337096              -0.016127762               0.000000000              -0.178314623              -0.019219245               0.000000000              -0.201292150              -0.022310727               0.000000000              -0.224269676              -0.025402210               0.000000000              -0.247247203              -0.028493692               0.000000000              -0.270224730              -0.031585175               0.000000000              -0.293202257              -0.034676657               0.000000000              -0.316179784              -0.037768140               0.000000000              -0.339157311              -0.040859622               0.000000000              -0.362134838              -0.043951105               0.000000000              -0.385112365              -0.047042587               0.000000000              -0.408089892              -0.050134070               0.000000000              -0.431067419              -0.053225552               0.000000000              -0.454044946              -0.056317035               0.000000000              -0.477022473              -0.059408517               0.000000000              -0.500000000              -0.062500000               0.000000000              -0.130444442              -0.025947013               0.000000000              -0.153541665              -0.032137825               0.000000000              -0.176638887              -0.038328636               0.000000000              -0.199736109              -0.044519448               0.000000000              -0.222833332              -0.050710260               0.000000000              -0.245930554              -0.056901071               0.000000000              -0.269027776              -0.063091883               0.000000000              -0.292124999              -0.069282695               0.000000000              -0.315222221              -0.075473506               0.000000000              -0.338319444              -0.081664318               0.000000000              -0.361416666              -0.087855130               0.000000000              -0.384513888              -0.094045942               0.000000000              -0.407611111              -0.100236753               0.000000000              -0.430708333              -0.106427565               0.000000000              -0.453805555              -0.112618377               0.000000000              -0.476902778              -0.118809188               0.000000000              -0.500000000              -0.125000000               0.000000000              -0.127273065              -0.038607862               0.000000000              -0.150568498              -0.047913621               0.000000000              -0.173863932              -0.057219379               0.000000000              -0.197159365              -0.066525138               0.000000000              -0.220454798              -0.075830897               0.000000000              -0.243750232              -0.085136655               0.000000000              -0.267045665              -0.094442414               0.000000000              -0.290341099              -0.103748172               0.000000000              -0.313636532              -0.113053931               0.000000000              -0.336931966              -0.122359690               0.000000000              -0.360227399              -0.131665448               0.000000000              -0.383522833              -0.140971207               0.000000000              -0.406818266              -0.150276966               0.000000000              -0.430113700              -0.159582724               0.000000000              -0.453409133              -0.168888483               0.000000000              -0.476704567              -0.178194241               0.000000000              -0.500000000              -0.187500000               0.000000000              -0.122875978              -0.050896897               0.000000000              -0.146446229              -0.063340840               0.000000000              -0.170016481              -0.075784784               0.000000000              -0.193586732              -0.088228728               0.000000000              -0.217156983              -0.100672672               0.000000000              -0.240727235              -0.113116616               0.000000000              -0.264297486              -0.125560560               0.000000000              -0.287867738              -0.138004504               0.000000000              -0.311437989              -0.150448448               0.000000000              -0.335008240              -0.162892392               0.000000000              -0.358578492              -0.175336336               0.000000000              -0.382148743              -0.187780280               0.000000000              -0.405718994              -0.200224224               0.000000000              -0.429289246              -0.212668168               0.000000000              -0.452859497              -0.225112112               0.000000000              -0.476429749              -0.237556056               0.000000000              -0.500000000              -0.250000000               0.000000000              -0.117295528              -0.062695766               0.000000000              -0.141214558              -0.078308531               0.000000000              -0.165133587              -0.093921295               0.000000000              -0.189052617              -0.109534060               0.000000000              -0.212971646              -0.125146824               0.000000000              -0.236890676              -0.140759589               0.000000000              -0.260809705              -0.156372354               0.000000000              -0.284728735              -0.171985118               0.000000000              -0.308647764              -0.187597883               0.000000000              -0.332566794              -0.203210648               0.000000000              -0.356485823              -0.218823412               0.000000000              -0.380404853              -0.234436177               0.000000000              -0.404323882              -0.250048941               0.000000000              -0.428242912              -0.265661706               0.000000000              -0.452161941              -0.281274471               0.000000000              -0.476080971              -0.296887235               0.000000000              -0.500000000              -0.312500000               0.000000000              -0.110585458              -0.073890841               0.000000000              -0.134923867              -0.092710163               0.000000000              -0.159262276              -0.111529486               0.000000000              -0.183600685              -0.130348808               0.000000000              -0.207939094              -0.149168131               0.000000000              -0.232277503              -0.167987453               0.000000000              -0.256615912              -0.186806776               0.000000000              -0.280954320              -0.205626098               0.000000000              -0.305292729              -0.224445420               0.000000000              -0.329631138              -0.243264743               0.000000000              -0.353969547              -0.262084065               0.000000000              -0.378307956              -0.280903388               0.000000000              -0.402646365              -0.299722710               0.000000000              -0.426984773              -0.318542033               0.000000000              -0.451323182              -0.337361355               0.000000000              -0.475661591              -0.356180678               0.000000000              -0.500000000              -0.375000000               0.000000000              -0.102810390              -0.084374307               0.000000000              -0.127634741              -0.106444663               0.000000000              -0.152459092              -0.128515018               0.000000000              -0.177283442              -0.150585374               0.000000000              -0.202107793              -0.172655730               0.000000000              -0.226932143              -0.194726086               0.000000000              -0.251756494              -0.216796442               0.000000000              -0.276580845              -0.238866798               0.000000000              -0.301405195              -0.260937153               0.000000000              -0.326229546              -0.283007509               0.000000000              -0.351053896              -0.305077865               0.000000000              -0.375878247              -0.327148221               0.000000000              -0.400702598              -0.349218577               0.000000000              -0.425526948              -0.371288933               0.000000000              -0.450351299              -0.393359288               0.000000000              -0.475175649              -0.415429644               0.000000000              -0.500000000              -0.437500000               0.000000000              -0.094045202              -0.094045202               0.000000000              -0.119417377              -0.119417377               0.000000000              -0.144789552              -0.144789552               0.000000000              -0.170161727              -0.170161727               0.000000000              -0.195533901              -0.195533901               0.000000000              -0.220906076              -0.220906076               0.000000000              -0.246278251              -0.246278251               0.000000000              -0.271650426              -0.271650426               0.000000000              -0.297022601              -0.297022601               0.000000000              -0.322394776              -0.322394776               0.000000000              -0.347766951              -0.347766951               0.000000000              -0.373139126              -0.373139126               0.000000000              -0.398511300              -0.398511300               0.000000000              -0.423883475              -0.423883475               0.000000000              -0.449255650              -0.449255650               0.000000000              -0.474627825              -0.474627825               0.000000000              -0.500000000              -0.500000000               0.000000000              -0.084374307              -0.102810390               0.000000000              -0.106444663              -0.127634741               0.000000000              -0.128515018              -0.152459092               0.000000000              -0.150585374              -0.177283442               0.000000000              -0.172655730              -0.202107793               0.000000000              -0.194726086              -0.226932143               0.000000000              -0.216796442              -0.251756494               0.000000000              -0.238866798              -0.276580845               0.000000000              -0.260937153              -0.301405195               0.000000000              -0.283007509              -0.326229546               0.000000000              -0.305077865              -0.351053896               0.000000000              -0.327148221              -0.375878247               0.000000000              -0.349218577              -0.400702598               0.000000000              -0.371288933              -0.425526948               0.000000000              -0.393359288              -0.450351299               0.000000000              -0.415429644              -0.475175649               0.000000000              -0.437500000              -0.500000000               0.000000000              -0.073890841              -0.110585458               0.000000000              -0.092710163              -0.134923867               0.000000000              -0.111529486              -0.159262276               0.000000000              -0.130348808              -0.183600685               0.000000000              -0.149168131              -0.207939094               0.000000000              -0.167987453              -0.232277503               0.000000000              -0.186806776              -0.256615912               0.000000000              -0.205626098              -0.280954320               0.000000000              -0.224445420              -0.305292729               0.000000000              -0.243264743              -0.329631138               0.000000000              -0.262084065              -0.353969547               0.000000000              -0.280903388              -0.378307956               0.000000000              -0.299722710              -0.402646365               0.000000000              -0.318542033              -0.426984773               0.000000000              -0.337361355              -0.451323182               0.000000000              -0.356180678              -0.475661591               0.000000000              -0.375000000              -0.500000000               0.000000000              -0.062695766              -0.117295528               0.000000000              -0.078308531              -0.141214558               0.000000000              -0.093921295              -0.165133587               0.000000000              -0.109534060              -0.189052617               0.000000000              -0.125146824              -0.212971646               0.000000000              -0.140759589              -0.236890676               0.000000000              -0.156372354              -0.260809705               0.000000000              -0.171985118              -0.284728735               0.000000000              -0.187597883              -0.308647764               0.000000000              -0.203210648              -0.332566794               0.000000000              -0.218823412              -0.356485823               0.000000000              -0.234436177              -0.380404853               0.000000000              -0.250048941              -0.404323882               0.000000000              -0.265661706              -0.428242912               0.000000000              -0.281274471              -0.452161941               0.000000000              -0.296887235              -0.476080971               0.000000000              -0.312500000              -0.500000000               0.000000000              -0.050896897              -0.122875978               0.000000000              -0.063340840              -0.146446229               0.000000000              -0.075784784              -0.170016481               0.000000000              -0.088228728              -0.193586732               0.000000000              -0.100672672              -0.217156983               0.000000000              -0.113116616              -0.240727235               0.000000000              -0.125560560              -0.264297486               0.000000000              -0.138004504              -0.287867738               0.000000000              -0.150448448              -0.311437989               0.000000000              -0.162892392              -0.335008240               0.000000000              -0.175336336              -0.358578492               0.000000000              -0.187780280              -0.382148743               0.000000000              -0.200224224              -0.405718994               0.000000000              -0.212668168              -0.429289246               0.000000000              -0.225112112              -0.452859497               0.000000000              -0.237556056              -0.476429749               0.000000000              -0.250000000              -0.500000000               0.000000000              -0.038607862              -0.127273065               0.000000000              -0.047913621              -0.150568498               0.000000000              -0.057219379              -0.173863932               0.000000000              -0.066525138              -0.197159365               0.000000000              -0.075830897              -0.220454798               0.000000000              -0.085136655              -0.243750232               0.000000000              -0.094442414              -0.267045665               0.000000000              -0.103748172              -0.290341099               0.000000000              -0.113053931              -0.313636532               0.000000000              -0.122359690              -0.336931966               0.000000000              -0.131665448              -0.360227399               0.000000000              -0.140971207              -0.383522833               0.000000000              -0.150276966              -0.406818266               0.000000000              -0.159582724              -0.430113700               0.000000000              -0.168888483              -0.453409133               0.000000000              -0.178194241              -0.476704567               0.000000000              -0.187500000              -0.500000000               0.000000000              -0.025947013              -0.130444442               0.000000000              -0.032137825              -0.153541665               0.000000000              -0.038328636              -0.176638887               0.000000000              -0.044519448              -0.199736109               0.000000000              -0.050710260              -0.222833332               0.000000000              -0.056901071              -0.245930554               0.000000000              -0.063091883              -0.269027776               0.000000000              -0.069282695              -0.292124999               0.000000000              -0.075473506              -0.315222221               0.000000000              -0.081664318              -0.338319444               0.000000000              -0.087855130              -0.361416666               0.000000000              -0.094045942              -0.384513888               0.000000000              -0.100236753              -0.407611111               0.000000000              -0.106427565              -0.430708333               0.000000000              -0.112618377              -0.453805555               0.000000000              -0.118809188              -0.476902778               0.000000000              -0.125000000              -0.500000000               0.000000000              -0.013036280              -0.132359569               0.000000000              -0.016127762              -0.155337096               0.000000000              -0.019219245              -0.178314623               0.000000000              -0.022310727              -0.201292150               0.000000000              -0.025402210              -0.224269676               0.000000000              -0.028493692              -0.247247203               0.000000000              -0.031585175              -0.270224730               0.000000000              -0.034676657              -0.293202257               0.000000000              -0.037768140              -0.316179784               0.000000000              -0.040859622              -0.339157311               0.000000000              -0.043951105              -0.362134838               0.000000000              -0.047042587              -0.385112365               0.000000000              -0.050134070              -0.408089892               0.000000000              -0.053225552              -0.431067419               0.000000000              -0.056317035              -0.454044946               0.000000000              -0.059408517              -0.477022473               0.000000000              -0.062500000              -0.500000000               0.000000000               0.000000000              -0.133000000               0.000000000               0.000000000              -0.155937500               0.000000000               0.000000000              -0.178875000               0.000000000               0.000000000              -0.201812500               0.000000000               0.000000000              -0.224750000               0.000000000               0.000000000              -0.247687500               0.000000000               0.000000000              -0.270625000               0.000000000               0.000000000              -0.293562500               0.000000000               0.000000000              -0.316500000               0.000000000               0.000000000              -0.339437500               0.000000000               0.000000000              -0.362375000               0.000000000               0.000000000              -0.385312500               0.000000000               0.000000000              -0.408250000               0.000000000               0.000000000              -0.431187500               0.000000000               0.000000000              -0.454125000               0.000000000               0.000000000              -0.477062500               0.000000000               0.000000000              -0.500000000               0.000000000              -0.133000000               0.000000000               0.000000000              -0.155937500               0.000000000               0.000000000              -0.178875000               0.000000000               0.000000000              -0.201812500               0.000000000               0.000000000              -0.224750000               0.000000000               0.000000000              -0.247687500               0.000000000               0.000000000              -0.270625000               0.000000000               0.000000000              -0.293562500               0.000000000               0.000000000              -0.316500000               0.000000000               0.000000000              -0.339437500               0.000000000               0.000000000              -0.362375000               0.000000000               0.000000000              -0.385312500               0.000000000               0.000000000              -0.408250000               0.000000000               0.000000000              -0.431187500               0.000000000               0.000000000              -0.454125000               0.000000000               0.000000000              -0.477062500               0.000000000               0.000000000              -0.500000000               0.000000000               0.000000000              -0.132359569               0.013036280               0.000000000              -0.155337096               0.016127762               0.000000000              -0.178314623               0.019219245               0.000000000              -0.201292150               0.022310727               0.000000000              -0.224269676               0.025402210               0.000000000              -0.247247203               0.028493692               0.000000000              -0.270224730               0.031585175               0.000000000              -0.293202257               0.034676657               0.000000000              -0.316179784               0.037768140               0.000000000              -0.339157311               0.040859622               0.000000000              -0.362134838               0.043951105               0.000000000              -0.385112365               0.047042587               0.000000000              -0.408089892               0.050134070               0.000000000              -0.431067419               0.053225552               0.000000000              -0.454044946               0.056317035               0.000000000              -0.477022473               0.059408517               0.000000000              -0.500000000               0.062500000               0.000000000              -0.130444442               0.025947013               0.000000000              -0.153541665               0.032137825               0.000000000              -0.176638887               0.038328636               0.000000000              -0.199736109               0.044519448               0.000000000              -0.222833332               0.050710260               0.000000000              -0.245930554               0.056901071               0.000000000              -0.269027776               0.063091883               0.000000000              -0.292124999               0.069282695               0.000000000              -0.315222221               0.075473506               0.000000000              -0.338319444               0.081664318               0.000000000              -0.361416666               0.087855130               0.000000000              -0.384513888               0.094045942               0.000000000              -0.407611111               0.100236753               0.000000000              -0.430708333               0.106427565               0.000000000              -0.453805555               0.112618377               0.000000000              -0.476902778               0.118809188               0.000000000              -0.500000000               0.125000000               0.000000000              -0.127273065               0.038607862               0.000000000              -0.150568498               0.047913621               0.000000000              -0.173863932               0.057219379               0.000000000              -0.197159365               0.066525138               0.000000000              -0.220454798               0.075830897               0.000000000              -0.243750232               0.085136655               0.000000000              -0.267045665               0.094442414               0.000000000              -0.290341099               0.103748172               0.000000000              -0.313636532               0.113053931               0.000000000              -0.336931966               0.122359690               0.000000000              -0.360227399               0.131665448               0.000000000              -0.383522833               0.140971207               0.000000000              -0.406818266               0.150276966               0.000000000              -0.430113700               0.159582724               0.000000000              -0.453409133               0.168888483               0.000000000              -0.476704567               0.178194241               0.000000000              -0.500000000               0.187500000               0.000000000              -0.122875978               0.050896897               0.000000000              -0.146446229               0.063340840               0.000000000              -0.170016481               0.075784784               0.000000000              -0.193586732               0.088228728               0.000000000              -0.217156983               0.100672672               0.000000000              -0.240727235               0.113116616               0.000000000              -0.264297486               0.125560560               0.000000000              -0.287867738               0.138004504               0.000000000              -0.311437989               0.150448448               0.000000000              -0.335008240               0.162892392               0.000000000              -0.358578492               0.175336336               0.000000000              -0.382148743               0.187780280               0.000000000              -0.405718994               0.200224224               0.000000000              -0.429289246               0.212668168               0.000000000              -0.452859497               0.225112112               0.000000000              -0.476429749               0.237556056               0.000000000              -0.500000000               0.250000000               0.000000000              -0.117295528               0.062695766               0.000000000              -0.141214558               0.078308531               0.000000000              -0.165133587               0.093921295               0.000000000              -0.189052617               0.109534060               0.000000000              -0.212971646               0.125146824               0.000000000              -0.236890676               0.140759589               0.000000000              -0.260809705               0.156372354               0.000000000              -0.284728735               0.171985118               0.000000000              -0.308647764               0.187597883               0.000000000              -0.332566794               0.203210648               0.000000000              -0.356485823               0.218823412               0.000000000              -0.380404853               0.234436177               0.000000000              -0.404323882               0.250048941               0.000000000              -0.428242912               0.265661706               0.000000000              -0.452161941               0.281274471               0.000000000              -0.476080971               0.296887235               0.000000000              -0.500000000               0.312500000               0.000000000              -0.110585458               0.073890841               0.000000000              -0.134923867               0.092710163               0.000000000              -0.159262276               0.111529486               0.000000000              -0.183600685               0.130348808               0.000000000              -0.207939094               0.149168131               0.000000000              -0.232277503               0.167987453               0.000000000              -0.256615912               0.186806776               0.000000000              -0.280954320               0.205626098               0.000000000              -0.305292729               0.224445420               0.000000000              -0.329631138               0.243264743               0.000000000              -0.353969547               0.262084065               0.000000000              -0.378307956               0.280903388               0.000000000              -0.402646365               0.299722710               0.000000000              -0.426984773               0.318542033               0.000000000              -0.451323182               0.337361355               0.000000000              -0.475661591               0.356180678               0.000000000              -0.500000000               0.375000000               0.000000000              -0.102810390               0.084374307               0.000000000              -0.127634741               0.106444663               0.000000000              -0.152459092               0.128515018               0.000000000              -0.177283442               0.150585374               0.000000000              -0.202107793               0.172655730               0.000000000              -0.226932143               0.194726086               0.000000000              -0.251756494               0.216796442               0.000000000              -0.276580845               0.238866798               0.000000000              -0.301405195               0.260937153               0.000000000              -0.326229546               0.283007509               0.000000000              -0.351053896               0.305077865               0.000000000              -0.375878247               0.327148221               0.000000000              -0.400702598               0.349218577               0.000000000              -0.425526948               0.371288933               0.000000000              -0.450351299               0.393359288               0.000000000              -0.475175649               0.415429644               0.000000000              -0.500000000               0.437500000               0.000000000              -0.094045202               0.094045202               0.000000000              -0.119417377               0.119417377               0.000000000              -0.144789552               0.144789552               0.000000000              -0.170161727               0.170161727               0.000000000              -0.195533901               0.195533901               0.000000000              -0.220906076               0.220906076               0.000000000              -0.246278251               0.246278251               0.000000000              -0.271650426               0.271650426               0.000000000              -0.297022601               0.297022601               0.000000000              -0.322394776               0.322394776               0.000000000              -0.347766951               0.347766951               0.000000000              -0.373139126               0.373139126               0.000000000              -0.398511300               0.398511300               0.000000000              -0.423883475               0.423883475               0.000000000              -0.449255650               0.449255650               0.000000000              -0.474627825               0.474627825               0.000000000              -0.500000000               0.500000000               0.000000000              -0.084374307               0.102810390               0.000000000              -0.106444663               0.127634741               0.000000000              -0.128515018               0.152459092               0.000000000              -0.150585374               0.177283442               0.000000000              -0.172655730               0.202107793               0.000000000              -0.194726086               0.226932143               0.000000000              -0.216796442               0.251756494               0.000000000              -0.238866798               0.276580845               0.000000000              -0.260937153               0.301405195               0.000000000              -0.283007509               0.326229546               0.000000000              -0.305077865               0.351053896               0.000000000              -0.327148221               0.375878247               0.000000000              -0.349218577               0.400702598               0.000000000              -0.371288933               0.425526948               0.000000000              -0.393359288               0.450351299               0.000000000              -0.415429644               0.475175649               0.000000000              -0.437500000               0.500000000               0.000000000              -0.073890841               0.110585458               0.000000000              -0.092710163               0.134923867               0.000000000              -0.111529486               0.159262276               0.000000000              -0.130348808               0.183600685               0.000000000              -0.149168131               0.207939094               0.000000000              -0.167987453               0.232277503               0.000000000              -0.186806776               0.256615912               0.000000000              -0.205626098               0.280954320               0.000000000              -0.224445420               0.305292729               0.000000000              -0.243264743               0.329631138               0.000000000              -0.262084065               0.353969547               0.000000000              -0.280903388               0.378307956               0.000000000              -0.299722710               0.402646365               0.000000000              -0.318542033               0.426984773               0.000000000              -0.337361355               0.451323182               0.000000000              -0.356180678               0.475661591               0.000000000              -0.375000000               0.500000000               0.000000000              -0.062695766               0.117295528               0.000000000              -0.078308531               0.141214558               0.000000000              -0.093921295               0.165133587               0.000000000              -0.109534060               0.189052617               0.000000000              -0.125146824               0.212971646               0.000000000              -0.140759589               0.236890676               0.000000000              -0.156372354               0.260809705               0.000000000              -0.171985118               0.284728735               0.000000000              -0.187597883               0.308647764               0.000000000              -0.203210648               0.332566794               0.000000000              -0.218823412               0.356485823               0.000000000              -0.234436177               0.380404853               0.000000000              -0.250048941               0.404323882               0.000000000              -0.265661706               0.428242912               0.000000000              -0.281274471               0.452161941               0.000000000              -0.296887235               0.476080971               0.000000000              -0.312500000               0.500000000               0.000000000              -0.050896897               0.122875978               0.000000000              -0.063340840               0.146446229               0.000000000              -0.075784784               0.170016481               0.000000000              -0.088228728               0.193586732               0.000000000              -0.100672672               0.217156983               0.000000000              -0.113116616               0.240727235               0.000000000              -0.125560560               0.264297486               0.000000000              -0.138004504               0.287867738               0.000000000              -0.150448448               0.311437989               0.000000000              -0.162892392               0.335008240               0.000000000              -0.175336336               0.358578492               0.000000000              -0.187780280               0.382148743               0.000000000              -0.200224224               0.405718994               0.000000000              -0.212668168               0.429289246               0.000000000              -0.225112112               0.452859497               0.000000000              -0.237556056               0.476429749               0.000000000              -0.250000000               0.500000000               0.000000000              -0.038607862               0.127273065               0.000000000              -0.047913621               0.150568498               0.000000000              -0.057219379               0.173863932               0.000000000              -0.066525138               0.197159365               0.000000000              -0.075830897               0.220454798               0.000000000              -0.085136655               0.243750232               0.000000000              -0.094442414               0.267045665               0.000000000              -0.103748172               0.290341099               0.000000000              -0.113053931               0.313636532               0.000000000              -0.122359690               0.336931966               0.000000000              -0.131665448               0.360227399               0.000000000              -0.140971207               0.383522833               0.000000000              -0.150276966               0.406818266               0.000000000              -0.159582724               0.430113700               0.000000000              -0.168888483               0.453409133               0.000000000              -0.178194241               0.476704567               0.000000000              -0.187500000               0.500000000               0.000000000              -0.025947013               0.130444442               0.000000000              -0.032137825               0.153541665               0.000000000              -0.038328636               0.176638887               0.000000000              -0.044519448               0.199736109               0.000000000              -0.050710260               0.222833332               0.000000000              -0.056901071               0.245930554               0.000000000              -0.063091883               0.269027776               0.000000000              -0.069282695               0.292124999               0.000000000              -0.075473506               0.315222221               0.000000000              -0.081664318               0.338319444               0.000000000              -0.087855130               0.361416666               0.000000000              -0.094045942               0.384513888               0.000000000              -0.100236753               0.407611111               0.000000000              -0.106427565               0.430708333               0.000000000              -0.112618377               0.453805555               0.000000000              -0.118809188               0.476902778               0.000000000              -0.125000000               0.500000000               0.000000000              -0.013036280               0.132359569               0.000000000              -0.016127762               0.155337096               0.000000000              -0.019219245               0.178314623               0.000000000              -0.022310727               0.201292150               0.000000000              -0.025402210               0.224269676               0.000000000              -0.028493692               0.247247203               0.000000000              -0.031585175               0.270224730               0.000000000              -0.034676657               0.293202257               0.000000000              -0.037768140               0.316179784               0.000000000              -0.040859622               0.339157311               0.000000000              -0.043951105               0.362134838               0.000000000              -0.047042587               0.385112365               0.000000000              -0.050134070               0.408089892               0.000000000              -0.053225552               0.431067419               0.000000000              -0.056317035               0.454044946               0.000000000              -0.059408517               0.477022473               0.000000000              -0.062500000               0.500000000               0.000000000               0.000000000               0.133000000               0.000000000               0.000000000               0.155937500               0.000000000               0.000000000               0.178875000               0.000000000               0.000000000               0.201812500               0.000000000               0.000000000               0.224750000               0.000000000               0.000000000               0.247687500               0.000000000               0.000000000               0.270625000               0.000000000               0.000000000               0.293562500               0.000000000               0.000000000               0.316500000               0.000000000               0.000000000               0.339437500               0.000000000               0.000000000               0.362375000               0.000000000               0.000000000               0.385312500               0.000000000               0.000000000               0.408250000               0.000000000               0.000000000               0.431187500               0.000000000               0.000000000               0.454125000               0.000000000               0.000000000               0.477062500               0.000000000               0.000000000               0.500000000               0.000000000 </DataArray>
</Points>
<Cells>
<DataArray type="Int32"                                    Name="connectivity"                                                      NumberOfComponents=" 1" format="ascii">
         0          1         18         17          1          2         19         18          2          3         20         19          3          4         21         20          4          5         22         21          5          6         23         22          6          7         24         23          7          8         25         24          8          9         26         25          9         10         27         26         10         11         28         27         11         12         29         28         12         13         30         29         13         14         31         30         14         15         32         31         15         16         33         32         17         18         35         34         18         19         36         35         19         20         37         36         20         21         38         37         21         22         39         38         22         23         40         39         23         24         41         40         24         25         42         41         25         26         43         42         26         27         44         43         27         28         45         44         28         29         46         45         29         30         47         46         30         31         48         47         31         32         49         48         32         33         50         49         34         35         52         51         35         36         53         52         36         37         54         53         37         38         55         54         38         39         56         55         39         40         57         56         40         41         58         57         41         42         59         58         42         43         60         59         43         44         61         60         44         45         62         61         45         46         63         62         46         47         64         63         47         48         65         64         48         49         66         65         49         50         67         66         51         52         69         68         52         53         70         69         53         54         71         70         54         55         72         71         55         56         73         72         56         57         74         73         57         58         75         74         58         59         76         75         59         60         77         76         60         61         78         77         61         62         79         78         62         63         80         79         63         64         81         80         64         65         82         81         65         66         83         82         66         67         84         83         68         69         86         85         69         70         87         86         70         71         88         87         71         72         89         88         72         73         90         89         73         74         91         90         74         75         92         91         75         76         93         92         76         77         94         93         77         78         95         94         78         79         96         95         79         80         97         96         80         81         98         97         81         82         99         98         82         83        100         99         83         84        101        100         85         86        103        102         86         87        104        103         87         88        105        104         88         89        106        105         89         90        107        106         90         91        108        107         91         92        109        108         92         93        110        109         93         94        111        110         94         95        112        111         95         96        113        112         96         97        114        113         97         98        115        114         98         99        116        115         99        100        117        116        100        101        118        117        102        103        120        119        103        104        121        120        104        105        122        121        105        106        123        122        106        107        124        123        107        108        125        124        108        109        126        125        109        110        127        126        110        111        128        127        111        112        129        128        112        113        130        129        113        114        131        130        114        115        132        131        115        116        133        132        116        117        134        133        117        118        135        134        119        120        137        136        120        121        138        137        121        122        139        138        122        123        140        139        123        124        141        140        124        125        142        141        125        126        143        142        126        127        144        143        127        128        145        144        128        129        146        145        129        130        147        146        130        131        148        147        131        132        149        148        132        133        150        149        133        134        151        150        134        135        152        151        136        137        154        153        137        138        155        154        138        139        156        155        139        140        157        156        140        141        158        157        141        142        159        158        142        143        160        159        143        144        161        160        144        145        162        161        145        146        163        162        146        147        164        163        147        148        165        164        148        149        166        165        149        150        167        166        150        151        168        167        151        152        169        168        153        154        171        170        154        155        172        171        155        156        173        172        156        157        174        173        157        158        175        174        158        159        176        175        159        160        177        176        160        161        178        177        161        162        179        178        162        163        180        179        163        164        181        180        164        165        182        181        165        166        183        182        166        167        184        183        167        168        185        184        168        169        186        185        170        171        188        187        171        172        189        188        172        173        190        189        173        174        191        190        174        175        192        191        175        176        193        192        176        177        194        193        177        178        195        194        178        179        196        195        179        180        197        196        180        181        198        197        181        182        199        198        182        183        200        199        183        184        201        200        184        185        202        201        185        186        203        202        187        188        205        204        188        189        206        205        189        190        207        206        190        191        208        207        191        192        209        208        192        193        210        209        193        194        211        210        194        195        212        211        195        196        213        212        196        197        214        213        197        198        215        214        198        199        216        215        199        200        217        216        200        201        218        217        201        202        219        218        202        203        220        219        204        205        222        221        205        206        223        222        206        207        224        223        207        208        225        224        208        209        226        225        209        210        227        226        210        211        228        227        211        212        229        228        212        213        230        229        213        214        231        230        214        215        232        231        215        216        233        232        216        217        234        233        217        218        235        234        218        219        236        235        219        220        237        236        221        222        239        238        222        223        240        239        223        224        241        240        224        225        242        241        225        226        243        242        226        227        244        243        227        228        245        244        228        229        246        245        229        230        247        246        230        231        248        247        231        232        249        248        232        233        250        249        233        234        251        250        234        235        252        251        235        236        253        252        236        237        254        253        238        239        256        255        239        240        257        256        240        241        258        257        241        242        259        258        242        243        260        259        243        244        261        260        244        245        262        261        245        246        263        262        246        247        264        263        247        248        265        264        248        249        266        265        249        250        267        266        250        251        268        267        251        252        269        268        252        253        270        269        253        254        271        270        255        256        273        272        256        257        274        273        257        258        275        274        258        259        276        275        259        260        277        276        260        261        278        277        261        262        279        278        262        263        280        279        263        264        281        280        264        265        282        281        265        266        283        282        266        267        284        283        267        268        285        284        268        269        286        285        269        270        287        286        270        271        288        287        306        307          1          0        307        308          2          1        308        309          3          2        309        310          4          3        310        311          5          4        311        312          6          5        312        313          7          6        313        314          8          7        314        315          9          8        315        316         10          9        316        317         11         10        317        318         12         11        318        319         13         12        319        320         14         13        320        321         15         14        321        322         16         15        323        324        307        306        324        325        308        307        325        326        309        308        326        327        310        309        327        328        311        310        328        329        312        311        329        330        313        312        330        331        314        313        331        332        315        314        332        333        316        315        333        334        317        316        334        335        318        317        335        336        319        318        336        337        320        319        337        338        321        320        338        339        322        321        340        341        324        323        341        342        325        324        342        343        326        325        343        344        327        326        344        345        328        327        345        346        329        328        346        347        330        329        347        348        331        330        348        349        332        331        349        350        333        332        350        351        334        333        351        352        335        334        352        353        336        335        353        354        337        336        354        355        338        337        355        356        339        338        357        358        341        340        358        359        342        341        359        360        343        342        360        361        344        343        361        362        345        344        362        363        346        345        363        364        347        346        364        365        348        347        365        366        349        348        366        367        350        349        367        368        351        350        368        369        352        351        369        370        353        352        370        371        354        353        371        372        355        354        372        373        356        355        374        375        358        357        375        376        359        358        376        377        360        359        377        378        361        360        378        379        362        361        379        380        363        362        380        381        364        363        381        382        365        364        382        383        366        365        383        384        367        366        384        385        368        367        385        386        369        368        386        387        370        369        387        388        371        370        388        389        372        371        389        390        373        372        391        392        375        374        392        393        376        375        393        394        377        376        394        395        378        377        395        396        379        378        396        397        380        379        397        398        381        380        398        399        382        381        399        400        383        382        400        401        384        383        401        402        385        384        402        403        386        385        403        404        387        386        404        405        388        387        405        406        389        388        406        407        390        389        408        409        392        391        409        410        393        392        410        411        394        393        411        412        395        394        412        413        396        395        413        414        397        396        414        415        398        397        415        416        399        398        416        417        400        399        417        418        401        400        418        419        402        401        419        420        403        402        420        421        404        403        421        422        405        404        422        423        406        405        423        424        407        406        425        426        409        408        426        427        410        409        427        428        411        410        428        429        412        411        429        430        413        412        430        431        414        413        431        432        415        414        432        433        416        415        433        434        417        416        434        435        418        417        435        436        419        418        436        437        420        419        437        438        421        420        438        439        422        421        439        440        423        422        440        441        424        423        442        443        426        425        443        444        427        426        444        445        428        427        445        446        429        428        446        447        430        429        447        448        431        430        448        449        432        431        449        450        433        432        450        451        434        433        451        452        435        434        452        453        436        435        453        454        437        436        454        455        438        437        455        456        439        438        456        457        440        439        457        458        441        440        459        460        443        442        460        461        444        443        461        462        445        444        462        463        446        445        463        464        447        446        464        465        448        447        465        466        449        448        466        467        450        449        467        468        451        450        468        469        452        451        469        470        453        452        470        471        454        453        471        472        455        454        472        473        456        455        473        474        457        456        474        475        458        457        476        477        460        459        477        478        461        460        478        479        462        461        479        480        463        462        480        481        464        463        481        482        465        464        482        483        466        465        483        484        467        466        484        485        468        467        485        486        469        468        486        487        470        469        487        488        471        470        488        489        472        471        489        490        473        472        490        491        474        473        491        492        475        474        493        494        477        476        494        495        478        477        495        496        479        478        496        497        480        479        497        498        481        480        498        499        482        481        499        500        483        482        500        501        484        483        501        502        485        484        502        503        486        485        503        504        487        486        504        505        488        487        505        506        489        488        506        507        490        489        507        508        491        490        508        509        492        491        510        511        494        493        511        512        495        494        512        513        496        495        513        514        497        496        514        515        498        497        515        516        499        498        516        517        500        499        517        518        501        500        518        519        502        501        519        520        503        502        520        521        504        503        521        522        505        504        522        523        506        505        523        524        507        506        524        525        508        507        525        526        509        508        527        528        511        510        528        529        512        511        529        530        513        512        530        531        514        513        531        532        515        514        532        533        516        515        533        534        517        516        534        535        518        517        535        536        519        518        536        537        520        519        537        538        521        520        538        539        522        521        539        540        523        522        540        541        524        523        541        542        525        524        542        543        526        525        544        545        528        527        545        546        529        528        546        547        530        529        547        548        531        530        548        549        532        531        549        550        533        532        550        551        534        533        551        552        535        534        552        553        536        535        553        554        537        536        554        555        538        537        555        556        539        538        556        557        540        539        557        558        541        540        558        559        542        541        559        560        543        542        561        562        545        544        562        563        546        545        563        564        547        546        564        565        548        547        565        566        549        548        566        567        550        549        567        568        551        550        568        569        552        551        569        570        553        552        570        571        554        553        571        572        555        554        572        573        556        555        573        574        557        556        574        575        558        557        575        576        559        558        576        577        560        559        578        579        596        595        579        580        597        596        580        581        598        597        581        582        599        598        582        583        600        599        583        584        601        600        584        585        602        601        585        586        603        602        586        587        604        603        587        588        605        604        588        589        606        605        589        590        607        606        590        591        608        607        591        592        609        608        592        593        610        609        593        594        611        610        595        596        613        612        596        597        614        613        597        598        615        614        598        599        616        615        599        600        617        616        600        601        618        617        601        602        619        618        602        603        620        619        603        604        621        620        604        605        622        621        605        606        623        622        606        607        624        623        607        608        625        624        608        609        626        625        609        610        627        626        610        611        628        627        612        613        630        629        613        614        631        630        614        615        632        631        615        616        633        632        616        617        634        633        617        618        635        634        618        619        636        635        619        620        637        636        620        621        638        637        621        622        639        638        622        623        640        639        623        624        641        640        624        625        642        641        625        626        643        642        626        627        644        643        627        628        645        644        629        630        647        646        630        631        648        647        631        632        649        648        632        633        650        649        633        634        651        650        634        635        652        651        635        636        653        652        636        637        654        653        637        638        655        654        638        639        656        655        639        640        657        656        640        641        658        657        641        642        659        658        642        643        660        659        643        644        661        660        644        645        662        661        646        647        664        663        647        648        665        664        648        649        666        665        649        650        667        666        650        651        668        667        651        652        669        668        652        653        670        669        653        654        671        670        654        655        672        671        655        656        673        672        656        657        674        673        657        658        675        674        658        659        676        675        659        660        677        676        660        661        678        677        661        662        679        678        663        664        681        680        664        665        682        681        665        666        683        682        666        667        684        683        667        668        685        684        668        669        686        685        669        670        687        686        670        671        688        687        671        672        689        688        672        673        690        689        673        674        691        690        674        675        692        691        675        676        693        692        676        677        694        693        677        678        695        694        678        679        696        695        680        681        698        697        681        682        699        698        682        683        700        699        683        684        701        700        684        685        702        701        685        686        703        702        686        687        704        703        687        688        705        704        688        689        706        705        689        690        707        706        690        691        708        707        691        692        709        708        692        693        710        709        693        694        711        710        694        695        712        711        695        696        713        712        697        698        715        714        698        699        716        715        699        700        717        716        700        701        718        717        701        702        719        718        702        703        720        719        703        704        721        720        704        705        722        721        705        706        723        722        706        707        724        723        707        708        725        724        708        709        726        725        709        710        727        726        710        711        728        727        711        712        729        728        712        713        730        729        714        715        732        731        715        716        733        732        716        717        734        733        717        718        735        734        718        719        736        735        719        720        737        736        720        721        738        737        721        722        739        738        722        723        740        739        723        724        741        740        724        725        742        741        725        726        743        742        726        727        744        743        727        728        745        744        728        729        746        745        729        730        747        746        731        732        749        748        732        733        750        749        733        734        751        750        734        735        752        751        735        736        753        752        736        737        754        753        737        738        755        754        738        739        756        755        739        740        757        756        740        741        758        757        741        742        759        758        742        743        760        759        743        744        761        760        744        745        762        761        745        746        763        762        746        747        764        763        748        749        766        765        749        750        767        766        750        751        768        767        751        752        769        768        752        753        770        769        753        754        771        770        754        755        772        771        755        756        773        772        756        757        774        773        757        758        775        774        758        759        776        775        759        760        777        776        760        761        778        777        761        762        779        778        762        763        780        779        763        764        781        780        765        766        783        782        766        767        784        783        767        768        785        784        768        769        786        785        769        770        787        786        770        771        788        787        771        772        789        788        772        773        790        789        773        774        791        790        774        775        792        791        775        776        793        792        776        777        794        793        777        778        795        794        778        779        796        795        779        780        797        796        780        781        798        797        782        783        800        799        783        784        801        800        784        785        802        801        785        786        803        802        786        787        804        803        787        788        805        804        788        789        806        805        789        790        807        806        790        791        808        807        791        792        809        808        792        793        810        809        793        794        811        810        794        795        812        811        795        796        813        812        796        797        814        813        797        798        815        814        799        800        817        816        800        801        818        817        801        802        819        818        802        803        820        819        803        804        821        820        804        805        822        821        805        806        823        822        806        807        824        823        807        808        825        824        808        809        826        825        809        810        827        826        810        811        828        827        811        812        829        828        812        813        830        829        813        814        831        830        814        815        832        831        816        817        834        833        817        818        835        834        818        819        836        835        819        820        837        836        820        821        838        837        821        822        839        838        822        823        840        839        823        824        841        840        824        825        842        841        825        826        843        842        826        827        844        843        827        828        845        844        828        829        846        845        829        830        847        846        830        831        848        847        831        832        849        848        833        834        562        561        834        835        563        562        835        836        564        563        836        837        565        564        837        838        566        565        838        839        567        566        839        840        568        567        840        841        569        568        841        842        570        569        842        843        571        570        843        844        572        571        844        845        573        572        845        846        574        573        846        847        575        574        847        848        576        575        848        849        577        576        884        885        579        578        885        886        580        579        886        887        581        580        887        888        582        581        888        889        583        582        889        890        584        583        890        891        585        584        891        892        586        585        892        893        587        586        893        894        588        587        894        895        589        588        895        896        590        589        896        897        591        590        897        898        592        591        898        899        593        592        899        900        594        593        901        902        885        884        902        903        886        885        903        904        887        886        904        905        888        887        905        906        889        888        906        907        890        889        907        908        891        890        908        909        892        891        909        910        893        892        910        911        894        893        911        912        895        894        912        913        896        895        913        914        897        896        914        915        898        897        915        916        899        898        916        917        900        899        918        919        902        901        919        920        903        902        920        921        904        903        921        922        905        904        922        923        906        905        923        924        907        906        924        925        908        907        925        926        909        908        926        927        910        909        927        928        911        910        928        929        912        911        929        930        913        912        930        931        914        913        931        932        915        914        932        933        916        915        933        934        917        916        935        936        919        918        936        937        920        919        937        938        921        920        938        939        922        921        939        940        923        922        940        941        924        923        941        942        925        924        942        943        926        925        943        944        927        926        944        945        928        927        945        946        929        928        946        947        930        929        947        948        931        930        948        949        932        931        949        950        933        932        950        951        934        933        952        953        936        935        953        954        937        936        954        955        938        937        955        956        939        938        956        957        940        939        957        958        941        940        958        959        942        941        959        960        943        942        960        961        944        943        961        962        945        944        962        963        946        945        963        964        947        946        964        965        948        947        965        966        949        948        966        967        950        949        967        968        951        950        969        970        953        952        970        971        954        953        971        972        955        954        972        973        956        955        973        974        957        956        974        975        958        957        975        976        959        958        976        977        960        959        977        978        961        960        978        979        962        961        979        980        963        962        980        981        964        963        981        982        965        964        982        983        966        965        983        984        967        966        984        985        968        967        986        987        970        969        987        988        971        970        988        989        972        971        989        990        973        972        990        991        974        973        991        992        975        974        992        993        976        975        993        994        977        976        994        995        978        977        995        996        979        978        996        997        980        979        997        998        981        980        998        999        982        981        999       1000        983        982       1000       1001        984        983       1001       1002        985        984       1003       1004        987        986       1004       1005        988        987       1005       1006        989        988       1006       1007        990        989       1007       1008        991        990       1008       1009        992        991       1009       1010        993        992       1010       1011        994        993       1011       1012        995        994       1012       1013        996        995       1013       1014        997        996       1014       1015        998        997       1015       1016        999        998       1016       1017       1000        999       1017       1018       1001       1000       1018       1019       1002       1001       1020       1021       1004       1003       1021       1022       1005       1004       1022       1023       1006       1005       1023       1024       1007       1006       1024       1025       1008       1007       1025       1026       1009       1008       1026       1027       1010       1009       1027       1028       1011       1010       1028       1029       1012       1011       1029       1030       1013       1012       1030       1031       1014       1013       1031       1032       1015       1014       1032       1033       1016       1015       1033       1034       1017       1016       1034       1035       1018       1017       1035       1036       1019       1018       1037       1038       1021       1020       1038       1039       1022       1021       1039       1040       1023       1022       1040       1041       1024       1023       1041       1042       1025       1024       1042       1043       1026       1025       1043       1044       1027       1026       1044       1045       1028       1027       1045       1046       1029       1028       1046       1047       1030       1029       1047       1048       1031       1030       1048       1049       1032       1031       1049       1050       1033       1032       1050       1051       1034       1033       1051       1052       1035       1034       1052       1053       1036       1035       1054       1055       1038       1037       1055       1056       1039       1038       1056       1057       1040       1039       1057       1058       1041       1040       1058       1059       1042       1041       1059       1060       1043       1042       1060       1061       1044       1043       1061       1062       1045       1044       1062       1063       1046       1045       1063       1064       1047       1046       1064       1065       1048       1047       1065       1066       1049       1048       1066       1067       1050       1049       1067       1068       1051       1050       1068       1069       1052       1051       1069       1070       1053       1052       1071       1072       1055       1054       1072       1073       1056       1055       1073       1074       1057       1056       1074       1075       1058       1057       1075       1076       1059       1058       1076       1077       1060       1059       1077       1078       1061       1060       1078       1079       1062       1061       1079       1080       1063       1062       1080       1081       1064       1063       1081       1082       1065       1064       1082       1083       1066       1065       1083       1084       1067       1066       1084       1085       1068       1067       1085       1086       1069       1068       1086       1087       1070       1069       1088       1089       1072       1071       1089       1090       1073       1072       1090       1091       1074       1073       1091       1092       1075       1074       1092       1093       1076       1075       1093       1094       1077       1076       1094       1095       1078       1077       1095       1096       1079       1078       1096       1097       1080       1079       1097       1098       1081       1080       1098       1099       1082       1081       1099       1100       1083       1082       1100       1101       1084       1083       1101       1102       1085       1084       1102       1103       1086       1085       1103       1104       1087       1086       1105       1106       1089       1088       1106       1107       1090       1089       1107       1108       1091       1090       1108       1109       1092       1091       1109       1110       1093       1092       1110       1111       1094       1093       1111       1112       1095       1094       1112       1113       1096       1095       1113       1114       1097       1096       1114       1115       1098       1097       1115       1116       1099       1098       1116       1117       1100       1099       1117       1118       1101       1100       1118       1119       1102       1101       1119       1120       1103       1102       1120       1121       1104       1103       1122       1123       1106       1105       1123       1124       1107       1106       1124       1125       1108       1107       1125       1126       1109       1108       1126       1127       1110       1109       1127       1128       1111       1110       1128       1129       1112       1111       1129       1130       1113       1112       1130       1131       1114       1113       1131       1132       1115       1114       1132       1133       1116       1115       1133       1134       1117       1116       1134       1135       1118       1117       1135       1136       1119       1118       1136       1137       1120       1119       1137       1138       1121       1120        272        273       1123       1122        273        274       1124       1123        274        275       1125       1124        275        276       1126       1125        276        277       1127       1126        277        278       1128       1127        278        279       1129       1128        279        280       1130       1129        280        281       1131       1130        281        282       1132       1131        282        283       1133       1132        283        284       1134       1133        284        285       1135       1134        285        286       1136       1135        286        287       1137       1136        287        288       1138       1137 </DataArray>
<DataArray type="Int32"                                    Name="offsets"                                                      NumberOfComponents=" 1" format="ascii">
         4          8         12         16         20         24         28         32         36         40         44         48         52         56         60         64         68         72         76         80         84         88         92         96        100        104        108        112        116        120        124        128        132        136        140        144        148        152        156        160        164        168        172        176        180        184        188        192        196        200        204        208        212        216        220        224        228        232        236        240        244        248        252        256        260        264        268        272        276        280        284        288        292        296        300        304        308        312        316        320        324        328        332        336        340        344        348        352        356        360        364        368        372        376        380        384        388        392        396        400        404        408        412        416        420        424        428        432        436        440        444        448        452        456        460        464        468        472        476        480        484        488        492        496        500        504        508        512        516        520        524        528        532        536        540        544        548        552        556        560        564        568        572        576        580        584        588        592        596        600        604        608        612        616        620        624        628        632        636        640        644        648        652        656        660        664        668        672        676        680        684        688        692        696        700        704        708        712        716        720        724        728        732        736        740        744        748        752        756        760        764        768        772        776        780        784        788        792        796        800        804        808        812        816        820        824        828        832        836        840        844        848        852        856        860        864        868        872        876        880        884        888        892        896        900        904        908        912        916        920        924        928        932        936        940        944        948        952        956        960        964        968        972        976        980        984        988        992        996       1000       1004       1008       1012       1016       1020       1024       1028       1032       1036       1040       1044       1048       1052       1056       1060       1064       1068       1072       1076       1080       1084       1088       1092       1096       1100       1104       1108       1112       1116       1120       1124       1128       1132       1136       1140       1144       1148       1152       1156       1160       1164       1168       1172       1176       1180       1184       1188       1192       1196       1200       1204       1208       1212       1216       1220       1224       1228       1232       1236       1240       1244       1248       1252       1256       1260       1264       1268       1272       1276       1280       1284       1288       1292       1296       1300       1304       1308       1312       1316       1320       1324       1328       1332       1336       1340       1344       1348       1352       1356       1360       1364       1368       1372       1376       1380       1384       1388       1392       1396       1400       1404       1408       1412       1416       1420       1424       1428       1432       1436       1440       1444       1448       1452       1456       1460       1464       1468       1472       1476       1480       1484       1488       1492       1496       1500       1504       1508       1512       1516       1520       1524       1528       1532       1536       1540       1544       1548       1552       1556       1560       1564       1568       1572       1576       1580       1584       1588       1592       1596       1600       1604       1608       1612       1616       1620       1624       1628       1632       1636       1640       1644       1648       1652       1656       1660       1664       1668       1672       1676       1680       1684       1688       1692       1696       1700       1704       1708       1712       1716       1720       1724       1728       1732       1736       1740       1744       1748       1752       1756       1760       1764       1768       1772       1776       1780       1784       1788       1792       1796       1800       1804       1808       1812       1816       1820       1824       1828       1832       1836       1840       1844       1848       1852       1856       1860       1864       1868       1872       1876       1880       1884       1888       1892       1896       1900       1904       1908       1912       1916       1920       1924       1928       1932       1936       1940       1944       1948       1952       1956       1960       1964       1968       1972       1976       1980       1984       1988       1992       1996       2000       2004       2008       2012       2016       2020       2024       2028       2032       2036       2040       2044       2048       2052       2056       2060       2064       2068       2072       2076       2080       2084       2088       2092       2096       2100       2104       2108       2112       2116       2120       2124       2128       2132       2136       2140       2144       2148       2152       2156       2160       2164       2168       2172       2176       2180       2184       2188       2192       2196       2200       2204       2208       2212       2216       2220       2224       2228       2232       2236       2240       2244       2248       2252       2256       2260       2264       2268       2272       2276       2280       2284       2288       2292       2296       2300       2304       2308       2312       2316       2320       2324       2328       2332       2336       2340       2344       2348       2352       2356       2360       2364       2368       2372       2376       2380       2384       2388       2392       2396       2400       2404       2408       2412       2416       2420       2424       2428       2432       2436       2440       2444       2448       2452       2456       2460       2464       2468       2472       2476       2480       2484       2488       2492       2496       2500       2504       2508       2512       2516       2520       2524       2528       2532       2536       2540       2544       2548       2552       2556       2560       2564       2568       2572       2576       2580       2584       2588       2592       2596       2600       2604       2608       2612       2616       2620       2624       2628       2632       2636       2640       2644       2648       2652       2656       2660       2664       2668       2672       2676       2680       2684       2688       2692       2696       2700       2704       2708       2712       2716       2720       2724       2728       2732       2736       2740       2744       2748       2752       2756       2760       2764       2768       2772       2776       2780       2784       2788       2792       2796       2800       2804       2808       2812       2816       2820       2824       2828       2832       2836       2840       2844       2848       2852       2856       2860       2864       2868       2872       2876       2880       2884       2888       2892       2896       2900       2904       2908       2912       2916       2920       2924       2928       2932       2936       2940       2944       2948       2952       2956       2960       2964       2968       2972       2976       2980       2984       2988       2992       2996       3000       3004       3008       3012       3016       3020       3024       3028       3032       3036       3040       3044       3048       3052       3056       3060       3064       3068       3072       3076       3080       3084       3088       3092       3096       3100       3104       3108       3112       3116       3120       3124       3128       3132       3136       3140       3144       3148       3152       3156       3160       3164       3168       3172       3176       3180       3184       3188       3192       3196       3200       3204       3208       3212       3216       3220       3224       3228       3232       3236       3240       3244       3248       3252       3256       3260       3264       3268       3272       3276       3280       3284       3288       3292       3296       3300       3304       3308       3312       3316       3320       3324       3328       3332       3336       3340       3344       3348       3352       3356       3360       3364       3368       3372       3376       3380       3384       3388       3392       3396       3400       3404       3408       3412       3416       3420       3424       3428       3432       3436       3440       3444       3448       3452       3456       3460       3464       3468       3472       3476       3480       3484       3488       3492       3496       3500       3504       3508       3512       3516       3520       3524       3528       3532       3536       3540       3544       3548       3552       3556       3560       3564       3568       3572       3576       3580       3584       3588       3592       3596       3600       3604       3608       3612       3616       3620       3624       3628       3632       3636       3640       3644       3648       3652       3656       3660       3664       3668       3672       3676       3680       3684       3688       3692       3696       3700       3704       3708       3712       3716       3720       3724       3728       3732       3736       3740       3744       3748       3752       3756       3760       3764       3768       3772       3776       3780       3784       3788       3792       3796       3800       3804       3808       3812       3816       3820       3824       3828       3832       3836       3840       3844       3848       3852       3856       3860       3864       3868       3872       3876       3880       3884       3888       3892       3896       3900       3904       3908       3912       3916       3920       3924       3928       3932       3936       3940       3944       3948       3952       3956       3960       3964       3968       3972       3976       3980       3984       3988       3992       3996       4000       4004       4008       4012       4016       4020       4024       4028       4032       4036       4040       4044       4048       4052       4056       4060       4064       4068       4072       4076       4080       4084       4088       4092       4096 </DataArray>
<DataArray type="UInt8"                                    Name="types"                                                      NumberOfComponents=" 1" format="ascii">
         9          9          9          9          9          9          9          9          9          9          9          9          9          9          9          9          9          9          9          9          9          9          9          9          9          9          9          9          9          9          9          9          9          9          9          9          9          9          9          9          9          9          9          9          9          9          9          9          9          9          9          9          9          9          9          9          9          9          9          9          9          9          9          9          9          9          9          9          9          9          9          9          9          9          9          9          9          9          9          9          9          9          9          9          9          9          9          9          9          9          9          9          9          9          9          9          9          9          9          9          9          9          9          9          9          9          9          9          9          9          9          9          9          9          9          9          9          9          9          9          9          9          9          9          9          9          9          9          9          9          9          9          9          9          9          9          9          9          9          9          9          9          9          9          9          9          9          9          9          9          9          9          9          9          9          9          9          9          9          9          9          9          9          9          9          9          9          9          9          9          9          9          9          9          9          9          9          9          9          9          9          9          9          9          9          9          9          9          9          9          9          9          9          9          9          9          9          9          9          9          9          9          9          9          9          9          9          9          9          9          9          9          9          9          9          9          9          9          9          9          9          9          9          9          9          9          9          9          9          9          9          9          9          9          9          9          9          9          9          9          9          9          9          9          9          9          9          9          9          9          9          9          9          9          9          9          9          9          9          9          9          9          9          9          9          9          9          9          9          9          9          9          9          9          9          9          9          9          9          9          9          9          9          9          9          9          9          9          9          9          9          9          9          9          9          9          9          9          9          9          9          9          9          9          9          9          9          9          9          9          9          9          9          9          9          9          9          9          9          9          9          9          9          9          9          9          9          9          9          9          9          9          9          9          9          9          9          9          9          9          9          9          9          9          9          9          9          9          9          9          9          9          9          9          9          9          9          9          9          9          9          9          9          9          9          9          9          9          9          9          9          9          9          9          9          9          9          9          9          9          9          9          9          9          9          9          9          9          9          9          9          9          9          9          9          9          9          9          9          9          9          9          9          9          9          9          9          9          9          9          9          9          9          9          9          9          9          9          9          9          9          9          9          9          9          9          9          9          9          9          9          9          9          9          9          9          9          9          9          9          9          9          9          9          9          9          9          9          9          9          9          9          9          9          9          9          9          9          9          9          9          9          9          9          9          9          9          9          9          9          9          9          9          9          9          9          9          9          9          9          9          9          9          9          9          9          9          9          9          9          9          9          9          9          9          9          9          9          9          9          9          9          9          9          9          9          9          9          9          9          9          9          9          9          9          9          9          9          9          9          9          9          9          9          9          9          9          9          9          9          9          9          9          9          9          9          9          9          9          9          9          9          9          9          9          9          9          9          9          9          9          9          9          9          9          9          9          9          9          9          9          9          9          9          9          9          9          9          9          9          9          9          9          9          9          9          9          9          9          9          9          9          9          9          9          9          9          9          9          9          9          9          9          9          9          9          9          9          9          9          9          9          9          9          9          9          9          9          9          9          9          9          9          9          9          9          9          9          9          9          9          9          9          9          9          9          9          9          9          9          9          9          9          9          9          9          9          9          9          9          9          9          9          9          9          9          9          9          9          9          9          9          9          9          9          9          9          9          9          9          9          9          9          9          9          9          9          9          9          9          9          9          9          9          9          9          9          9          9          9          9          9          9          9          9          9          9          9          9          9          9          9          9          9          9          9          9          9          9          9          9          9          9          9          9          9          9          9          9          9          9          9          9          9          9          9          9          9          9          9          9          9          9          9          9          9          9          9          9          9          9          9          9          9          9          9          9          9          9          9          9          9          9          9          9          9          9          9          9          9          9          9          9          9          9          9          9          9          9          9          9          9          9          9          9          9          9          9          9          9          9          9          9          9          9          9          9          9          9          9          9          9          9          9          9          9          9          9          9          9          9          9          9          9          9          9          9          9          9          9          9          9          9          9          9          9          9          9          9          9          9          9          9          9          9          9          9          9          9          9          9          9          9          9          9          9          9          9          9          9          9          9          9          9          9          9          9          9          9          9          9          9          9          9          9          9          9          9          9          9          9          9          9          9          9          9          9          9          9          9          9          9          9          9          9          9          9          9          9          9          9          9          9          9          9          9          9          9          9          9          9          9          9          9          9          9          9          9          9          9          9          9          9          9          9          9          9          9          9          9          9          9          9          9          9          9          9          9          9          9          9          9          9          9          9          9          9          9          9          9          9          9          9          9          9          9          9          9          9          9          9          9          9          9          9          9          9          9          9          9          9          9          9          9          9          9          9          9          9          9          9          9          9          9          9          9          9          9          9          9          9          9          9          9          9          9          9          9          9          9          9          9          9          9          9          9          9          9          9          9          9          9          9          9          9          9          9          9          9          9          9          9          9          9          9          9          9          9          9          9          9          9          9          9          9          9          9          9          9          9          9          9          9          9          9          9          9          9          9          9          9          9          9          9 </DataArray>
</Cells>
<CellData>
<DataArray type="Int32"                                    Name="material"                                                      NumberOfComponents=" 1" format="ascii">
         1          1          1          1          1          1          1          1          1          1          1          1          1          1          1          1          1          1          1          1          1          1          1          1          1          1          1          1          1          1          1          1          1          1          1          1          1          1          1          1          1          1          1          1          1          1          1          1          1          1          1          1          1          1          1          1          1          1          1          1          1          1          1          1          1          1          1          1          1          1          1          1          1          1          1          1          1          1          1          1          1          1          1          1          1          1          1          1          1          1          1          1          1          1          1          1          1          1          1          1          1          1          1          1          1          1          1          1          1          1          1          1          1          1          1          1          1          1          1          1          1          1          1          1          1          1          1          1          1          1          1          1          1          1          1          1          1          1          1          1          1          1          1          1          1          1          1          1          1          1          1          1          1          1          1          1          1          1          1          1          1          1          1          1          1          1          1          1          1          1          1          1          1          1          1          1          1          1          1          1          1          1          1          1          1          1          1          1          1          1          1          1          1          1          1          1          1          1          1          1          1          1          1          1          1          1          1          1          1          1          1          1          1          1          1          1          1          1          1          1          1          1          1          1          1          1          1          1          1          1          1          1          1          1          1          1          1          1          1          1          1          1          1          1          1          1          1          1          1          1          1          1          1          1          1          1          1          1          1          1          1          1          1          1          1          1          1          1          1          1          1          1          1          1          1          1          1          1          1          1          1          1          1          1          1          1          1          1          1          1          1          1          1          1          1          1          1          1          1          1          1          1          1          1          1          1          1          1          1          1          1          1          1          1          1          1          1          1          1          1          1          1          1          1          1          1          1          1          1          1          1          1          1          1          1          1          1          1          1          1          1          1          1          1          1          1          1          1          1          1          1          1          1          1          1          1          1          1          1          1          1          1          1          1          1          1          1          1          1          1          1          1          1          1          1          1          1          1          1          1          1          1          1          1          1          1          1          1          1          1          1          1          1          1          1          1          1          1          1          1          1          1          1          1          1          1          1          1          1          1          1          1          1          1          1          1          1          1          1          1          1          1          1          1          1          1          1          1          1          1          1          1          1          1          1          1          1          1          1          1          1          1          1          1          1          1          1          1          1          1          1          1          1          1          1          1          1          1          1          1          1          1          1          1          1          1          1          1          1          1          1          1          1          1          1          1          1          1          1          1          1          1          1          1          1          1          1          1          1          1          1          1          1          1          1          1          1          1          1          1          1          1          1          1          1          1          1          1          1          1          1          1          1          1          1          1          1          1          1          1          1          1          1          1          1          1          1          1          1          1          1          1          1          1          1          1          1          1          1          1          1          1          1          1          1          1          1          1          1          1          1          1          1          1          1          1          1          1          1          1          1          1          1          1          1          1          1          1          1          1          1          1          1          1          1          1          1          1          1          1          1          1          1          1          1          1          1          1          1          1          1          1          1          1          1          1          1          1          1          1          1          1          1          1          1          1          1          1          1          1          1          1          1          1          1          1          1          1          1          1          1          1          1          1          1          1          1          1          1          1          1          1          1          1          1          1          1          1          1          1          1          1          1          1          1          1          1          1          1          1          1          1          1          1          1          1          1          1          1          1          1          1          1          1          1          1          1          1          1          1          1          1          1          1          1          1          1          1          1          1          1          1          1          1          1          1          1          1          1          1          1          1          1          1          1          1          1          1          1          1          1          1          1          1          1          1          1          1          1          1          1          1          1          1          1          1          1          1          1          1          1          1          1          1          1          1          1          1          1          1          1          1          1          1          1          1          1          1          1          1          1          1          1          1          1          1          1          1          1          1          1          1          1          1          1          1          1          1          1          1          1          1          1          1          1          1          1          1          1          1          1          1          1          1          1          1          1          1          1          1          1          1          1          1          1          1          1          1          1          1          1          1          1          1          1          1          1          1          1          1          1          1          1          1          1          1          1          1          1          1          1          1          1          1          1          1          1          1          1          1          1          1          1          1          1          1          1          1          1          1          1          1          1          1          1          1          1          1          1          1          1          1          1          1          1          1          1          1          1          1          1          1          1          1          1          1          1          1          1          1          1          1          1          1          1          1          1          1          1          1          1          1          1          1          1          1          1          1          1          1          1          1          1          1          1          1          1          1          1          1          1          1          1          1          1          1          1          1          1          1          1          1          1          1          1          1          1          1          1          1          1          1          1          1          1          1          1          1          1          1          1          1          1          1          1          1          1          1          1          1          1          1          1          1          1          1          1          1          1          1          1          1          1          1          1          1          1          1          1          1          1          1          1          1          1          1          1          1          1          1          1          1          1          1          1          1          1          1          1          1          1          1          1          1          1          1          1          1          1          1          1          1          1          1          1          1          1          1          1          1          1          1          1          1          1          1          1          1          1          1          1          1          1          1          1          1          1          1          1          1          1          1          1          1          1          1          1          1          1          1          1          1          1          1 </DataArray>
</CellData>
<PointData>
<DataArray type="Float64"                                    Name="u"                                                      NumberOfComponents=" 3" format="ascii">
             -0.000886465               0.000000000               0.999999985              -0.000936858              -0.000000000               0.999999985              -0.000958261               0.000000000               0.999999985              -0.000970397               0.000000000               0.999999985              -0.000980533              -0.000000000               0.999999985              -0.000991189               0.000000000               0.999999985              -0.001003078              -0.000000000               0.999999985              -0.001016151              -0.000000000               0.999999985              -0.001029981              -0.000000000               0.999999985              -0.001043973              -0.000000000               0.999999985              -0.001057753              -0.000000000               0.999999985              -0.001070909               0.000000000               0.999999985              -0.001083223              -0.000000000               0.999999985              -0.001094358               0.000000000               0.999999985              -0.001103814              -0.000000000               0.999999985              -0.001111018              -0.000000000               0.999999985              -0.001115088              -0.000000000               0.999999985              -0.000881486               0.000131571               0.999999985              -0.000927613               0.000104642               0.999999985              -0.000946285               0.000092418               0.999999985              -0.000956659               0.000087609               0.999999985              -0.000965530               0.000086543               0.999999985              -0.000975163               0.000087158               0.999999985              -0.000986102               0.000088183               0.999999985              -0.000998072               0.000088935               0.999999985              -0.001010567               0.000088730               0.999999985              -0.001023129               0.000087405               0.999999985              -0.001035263               0.000084649               0.999999985              -0.001046616               0.000080262               0.999999985              -0.001056923               0.000074165               0.999999985              -0.001065804               0.000065789               0.999999985              -0.001072841               0.000054335               0.999999985              -0.001077500               0.000038871               0.999999985              -0.001079257               0.000018074               0.999999985              -0.000866603               0.000261994               0.999999985              -0.000900383               0.000208894               0.999999985              -0.000911474               0.000185832               0.999999985              -0.000917134               0.000177295               0.999999985              -0.000922748               0.000175866               0.999999985              -0.000929678               0.000177455               0.999999985              -0.000937878               0.000179903               0.999999985              -0.000946861               0.000181448               0.999999985              -0.000956045               0.000181406               0.999999985              -0.000964869               0.000178869               0.999999985              -0.000972741               0.000173658               0.999999985              -0.000979440               0.000165399               0.999999985              -0.000984649               0.000153910               0.999999985              -0.000987929               0.000138387               0.999999985              -0.000989051               0.000117467               0.999999985              -0.000987692               0.000090221               0.999999985              -0.000983671               0.000055195               0.999999985              -0.000842086               0.000390052               0.999999985              -0.000856547               0.000312602               0.999999985              -0.000856795               0.000281052               0.999999985              -0.000856172               0.000270549               0.999999985              -0.000857570               0.000269847               0.999999985              -0.000861007               0.000273157               0.999999985              -0.000865705               0.000277195               0.999999985              -0.000870753               0.000280002               0.999999985              -0.000875379               0.000280068               0.999999985              -0.000878776               0.000276676               0.999999985              -0.000880696               0.000269491               0.999999985              -0.000880866               0.000258270               0.999999985              -0.000878966               0.000242693               0.999999985              -0.000874651               0.000221842               0.999999985              -0.000867613               0.000194690               0.999999985              -0.000857901               0.000160715               0.999999985              -0.000845911               0.000119163               0.999999985              -0.000808652               0.000514504               0.999999985              -0.000798481               0.000415699               0.999999985              -0.000786481               0.000378621               0.999999985              -0.000779506               0.000368210               0.999999985              -0.000776984               0.000369410               0.999999985              -0.000777193               0.000374928               0.999999985              -0.000778363               0.000380814               0.999999985              -0.000779179               0.000384692               0.999999985              -0.000778538               0.000384940               0.999999985              -0.000775965               0.000380738               0.999999985              -0.000770970               0.000372076               0.999999985              -0.000763372               0.000358787               0.999999985              -0.000752975               0.000340417               0.999999985              -0.000739510               0.000316177               0.999999985              -0.000723113               0.000285735               0.999999985              -0.000704164               0.000249229               0.999999985              -0.000683327               0.000206936               0.999999985              -0.000767000               0.000634304               0.999999985              -0.000729163               0.000518180               0.999999985              -0.000705808               0.000478531               0.999999985              -0.000693935               0.000469907               0.999999985              -0.000688687               0.000473757               0.999999985              -0.000686363               0.000481770               0.999999985              -0.000684365               0.000489361               0.999999985              -0.000680877               0.000494021               0.999999985              -0.000674739               0.000494246               0.999999985              -0.000665474               0.000489445               0.999999985              -0.000652668               0.000479571               0.999999985              -0.000636353               0.000464846               0.999999985              -0.000616524               0.000444595               0.999999985              -0.000593172               0.000418433               0.999999985              -0.000566810               0.000387035               0.999999985              -0.000538157               0.000351001               0.999999985              -0.000508082               0.000311334               0.999999985              -0.000717932               0.000748402               0.999999985              -0.000651952               0.000620086               0.999999985              -0.000619916               0.000580441               0.999999985              -0.000605588               0.000574507               0.999999985              -0.000599259               0.000581268               0.999999985              -0.000595350               0.000591512               0.999999985              -0.000590439               0.000600434               0.999999985              -0.000582403               0.000605524               0.999999985              -0.000570202               0.000605517               0.999999985              -0.000553429               0.000600105               0.999999985              -0.000532084               0.000589246               0.999999985              -0.000506194               0.000573257               0.999999985              -0.000476130               0.000551753               0.999999985              -0.000442353               0.000524865               0.999999985              -0.000405801               0.000493839               0.999999985              -0.000367383               0.000459718               0.999999985              -0.000327954               0.000423761               0.999999985              -0.000662336               0.000855647               0.999999985              -0.000570423               0.000721291               0.999999985              -0.000533567               0.000683452               0.999999985              -0.000519650               0.000680294               0.999999985              -0.000513720               0.000689604               0.999999985              -0.000508713               0.000701672               0.999999985              -0.000500708               0.000711545               0.999999985              -0.000487604               0.000716641               0.999999985              -0.000468502               0.000716169               0.999999985              -0.000443345               0.000710096               0.999999985              -0.000412409               0.000698173               0.999999985              -0.000376147               0.000680876               0.999999985              -0.000335251               0.000658472               0.999999985              -0.000290725               0.000631556               0.999999985              -0.000243699               0.000601777               0.999999985              -0.000195073               0.000570244               0.999999985              -0.000145649               0.000537851               0.999999985              -0.000601890               0.000954082               0.999999985              -0.000487387               0.000821784               0.999999985              -0.000451213               0.000786037               0.999999985              -0.000439883               0.000785070               0.999999985              -0.000435233               0.000796363               0.999999985              -0.000429048               0.000809770               0.999999985              -0.000417293               0.000820251               0.999999985              -0.000398007               0.000825291               0.999999985              -0.000370793               0.000824290               0.999999985              -0.000336102               0.000817166               0.999999985              -0.000294565               0.000804105               0.999999985              -0.000246955               0.000785689               0.999999985              -0.000194497               0.000762676               0.999999985              -0.000138452               0.000736611               0.999999985              -0.000079969               0.000709098               0.999999985              -0.000020363               0.000681286               0.999999985               0.000039429               0.000653478               0.999999985              -0.000539345               0.001047404               0.999999985              -0.000417763               0.000934513               0.999999985              -0.000378869               0.000894906               0.999999985              -0.000367054               0.000888909               0.999999985              -0.000363192               0.000897220               0.999999985              -0.000359033               0.000910318               0.999999985              -0.000350431               0.000923218               0.999999985              -0.000335088               0.000932981               0.999999985              -0.000312354               0.000938283               0.999999985              -0.000282337               0.000938730               0.999999985              -0.000245628               0.000934320               0.999999985              -0.000202589               0.000925173               0.999999985              -0.000153745               0.000911923               0.999999985              -0.000099945               0.000895433               0.999999985              -0.000042394               0.000877026               0.999999985               0.000017336               0.000857674               0.999999985               0.000077661               0.000838535               0.999999985              -0.000471316               0.001132536               0.999999985              -0.000350919               0.001043737               0.999999985              -0.000309527               0.001006759               0.999999985              -0.000296239               0.000998185               0.999999985              -0.000292298               0.001004443               0.999999985              -0.000289329               0.001017474               0.999999985              -0.000283132               0.001032370               0.999999985              -0.000271340               0.001046311               0.999999985              -0.000252918               0.001057448               0.999999985              -0.000227723               0.001064846               0.999999985              -0.000195844               0.001068271               0.999999985              -0.000157486               0.001067784               0.999999985              -0.000112950               0.001063504               0.999999985              -0.000062449               0.001056016               0.999999985              -0.000006636               0.001046215               0.999999985               0.000052873               0.001035186               0.999999985               0.000114323               0.001024084               0.999999985              -0.000399138               0.001207375               0.999999985              -0.000286888               0.001146172               0.999999985              -0.000244878               0.001116443               0.999999985              -0.000229956               0.001108694               0.999999985              -0.000225161               0.001114555               0.999999985              -0.000222642               0.001128042               0.999999985              -0.000218039               0.001145055               0.999999985              -0.000209217               0.001162829               0.999999985              -0.000194910               0.001179341               0.999999985              -0.000174353               0.001193430               0.999999985              -0.000147351               0.001204428               0.999999985              -0.000114070               0.001212224               0.999999985              -0.000074369               0.001216774               0.999999985              -0.000028160               0.001218187               0.999999985               0.000024592               0.001216924               0.999999985               0.000083333               0.001214025               0.999999985               0.000146401               0.001210660               0.999999985              -0.000323474               0.001270576               0.999999985              -0.000225781               0.001237498               0.999999985              -0.000185891               0.001218404               0.999999985              -0.000170231               0.001214332               0.999999985              -0.000164487               0.001221709               0.999999985              -0.000161770               0.001236645               0.999999985              -0.000158285               0.001256126               0.999999985              -0.000151737               0.001277656               0.999999985              -0.000140871               0.001299465               0.999999985              -0.000124750               0.001320101               0.999999985              -0.000102918               0.001338630               0.999999985              -0.000075044               0.001354626               0.999999985              -0.000040996               0.001367997               0.999999985              -0.000000319               0.001378602               0.999999985               0.000047800               0.001386612               0.999999985               0.000103882               0.001392475               0.999999985               0.000167568               0.001397074               0.999999985              -0.000244995               0.001321131               0.999999985              -0.000167174               0.001313632               0.999999985              -0.000132871               0.001306478               0.999999985              -0.000118141               0.001308015               0.999999985              -0.000112003               0.001318387               0.999999985              -0.000109154               0.001335707               0.999999985              -0.000106339               0.001357967               0.999999985              -0.000101466               0.001383225               0.999999985              -0.000093526               0.001409924               0.999999985              -0.000081716               0.001436681               0.999999985              -0.000065313               0.001462375               0.999999985              -0.000043697               0.001486380               0.999999985              -0.000016567               0.001508379               0.999999985               0.000016888               0.001528197               0.999999985               0.000057759               0.001545790               0.999999985               0.000107396               0.001561014               0.999999985               0.000166972               0.001574220               0.999999985              -0.000164501               0.001357936               0.999999985              -0.000110479               0.001370886               0.999999985              -0.000085191               0.001374712               0.999999985              -0.000073575               0.001382221               0.999999985              -0.000068281               0.001396025               0.999999985              -0.000065728               0.001415994               0.999999985              -0.000063637               0.001440877               0.999999985              -0.000060298               0.001469307               0.999999985              -0.000055074               0.001499921               0.999999985              -0.000047442               0.001531568               0.999999985              -0.000036631               0.001563396               0.999999985              -0.000021932               0.001594603               0.999999985              -0.000002914               0.001624640               0.999999985               0.000021174               0.001653184               0.999999985               0.000051380               0.001679833               0.999999985               0.000089288               0.001704092               0.999999985               0.000137068               0.001725704               0.999999985              -0.000082624               0.001380290               0.999999985              -0.000054964               0.001406488               0.999999985              -0.000041512               0.001418053               0.999999985              -0.000035064               0.001430049               0.999999985              -0.000031979               0.001446604               0.999999985              -0.000030457               0.001468513               0.999999985              -0.000029324               0.001495250               0.999999985              -0.000027665               0.001525780               0.999999985              -0.000025121               0.001558932               0.999999985              -0.000021211               0.001593801               0.999999985              -0.000015903               0.001629720               0.999999985              -0.000008590               0.001666051               0.999999985               0.000001234               0.001702104               0.999999985               0.000013869               0.001737318               0.999999985               0.000030057               0.001770900               0.999999985               0.000050882               0.001802105               0.999999985               0.000077936               0.001830253               0.999999985               0.000000000               0.001387772               0.999999985               0.000000000               0.001418553               0.999999985              -0.000000000               0.001432935               0.999999985               0.000000000               0.001446590               0.999999985               0.000000000               0.001464133               0.999999985               0.000000000               0.001486764               0.999999985              -0.000000000               0.001514253               0.999999985              -0.000000000               0.001545653               0.999999985              -0.000000000               0.001579736               0.999999985              -0.000000000               0.001615668               0.999999985              -0.000000000               0.001652915               0.999999985               0.000000000               0.001691065               0.999999985               0.000000000               0.001729395               0.999999985              -0.000000000               0.001767007               0.999999985               0.000000000               0.001803196               0.999999985               0.000000000               0.001837230               0.999999985              -0.000000000               0.001868005               0.999999985              -0.000886465               0.000000000               0.999999985              -0.000936858              -0.000000000               0.999999985              -0.000958261               0.000000000               0.999999985              -0.000970397               0.000000000               0.999999985              -0.000980533              -0.000000000               0.999999985              -0.000991189               0.000000000               0.999999985              -0.001003078              -0.000000000               0.999999985              -0.001016151              -0.000000000               0.999999985              -0.001029981              -0.000000000               0.999999985              -0.001043973              -0.000000000               0.999999985              -0.001057753              -0.000000000               0.999999985              -0.001070909               0.000000000               0.999999985              -0.001083223              -0.000000000               0.999999985              -0.001094358               0.000000000               0.999999985              -0.001103814              -0.000000000               0.999999985              -0.001111018              -0.000000000               0.999999985              -0.001115088              -0.000000000               0.999999985              -0.000881486              -0.000131571               0.999999985              -0.000927613              -0.000104642               0.999999985              -0.000946285              -0.000092418               0.999999985              -0.000956659              -0.000087609               0.999999985              -0.000965530              -0.000086543               0.999999985              -0.000975163              -0.000087158               0.999999985              -0.000986102              -0.000088183               0.999999985              -0.000998072              -0.000088935               0.999999985              -0.001010567              -0.000088730               0.999999985              -0.001023129              -0.000087405               0.999999985              -0.001035263              -0.000084649               0.999999985              -0.001046616              -0.000080262               0.999999985              -0.001056923              -0.000074165               0.999999985              -0.001065804              -0.000065789               0.999999985              -0.001072841              -0.000054335               0.999999985              -0.001077500              -0.000038871               0.999999985              -0.001079257              -0.000018074               0.999999985              -0.000866603              -0.000261994               0.999999985              -0.000900383              -0.000208894               0.999999985              -0.000911474              -0.000185832               0.999999985              -0.000917134              -0.000177295               0.999999985              -0.000922748              -0.000175866               0.999999985              -0.000929678              -0.000177455               0.999999985              -0.000937878              -0.000179903               0.999999985              -0.000946861              -0.000181448               0.999999985              -0.000956045              -0.000181406               0.999999985              -0.000964869              -0.000178869               0.999999985              -0.000972741              -0.000173658               0.999999985              -0.000979440              -0.000165399               0.999999985              -0.000984649              -0.000153910               0.999999985              -0.000987929              -0.000138387               0.999999985              -0.000989051              -0.000117467               0.999999985              -0.000987692              -0.000090221               0.999999985              -0.000983671              -0.000055195               0.999999985              -0.000842086              -0.000390052               0.999999985              -0.000856547              -0.000312602               0.999999985              -0.000856795              -0.000281052               0.999999985              -0.000856172              -0.000270549               0.999999985              -0.000857570              -0.000269847               0.999999985              -0.000861007              -0.000273157               0.999999985              -0.000865705              -0.000277195               0.999999985              -0.000870753              -0.000280002               0.999999985              -0.000875379              -0.000280068               0.999999985              -0.000878776              -0.000276676               0.999999985              -0.000880696              -0.000269491               0.999999985              -0.000880866              -0.000258270               0.999999985              -0.000878966              -0.000242693               0.999999985              -0.000874651              -0.000221842               0.999999985              -0.000867613              -0.000194690               0.999999985              -0.000857901              -0.000160715               0.999999985              -0.000845911              -0.000119163               0.999999985              -0.000808652              -0.000514504               0.999999985              -0.000798481              -0.000415699               0.999999985              -0.000786481              -0.000378621               0.999999985              -0.000779506              -0.000368210               0.999999985              -0.000776984              -0.000369410               0.999999985              -0.000777193              -0.000374928               0.999999985              -0.000778363              -0.000380814               0.999999985              -0.000779179              -0.000384692               0.999999985              -0.000778538              -0.000384940               0.999999985              -0.000775965              -0.000380738               0.999999985              -0.000770970              -0.000372076               0.999999985              -0.000763372              -0.000358787               0.999999985              -0.000752975              -0.000340417               0.999999985              -0.000739510              -0.000316177               0.999999985              -0.000723113              -0.000285735               0.999999985              -0.000704164              -0.000249229               0.999999985              -0.000683327              -0.000206936               0.999999985              -0.000767000              -0.000634304               0.999999985              -0.000729163              -0.000518180               0.999999985              -0.000705808              -0.000478531               0.999999985              -0.000693935              -0.000469907               0.999999985              -0.000688687              -0.000473757               0.999999985              -0.000686363              -0.000481770               0.999999985              -0.000684365              -0.000489361               0.999999985              -0.000680877              -0.000494021               0.999999985              -0.000674739              -0.000494246               0.999999985              -0.000665474              -0.000489445               0.999999985              -0.000652668              -0.000479571               0.999999985              -0.000636353              -0.000464846               0.999999985              -0.000616524              -0.000444595               0.999999985              -0.000593172              -0.000418433               0.999999985              -0.000566810              -0.000387035               0.999999985              -0.000538157              -0.000351001               0.999999985              -0.000508082              -0.000311334               0.999999985              -0.000717932              -0.000748402               0.999999985              -0.000651952              -0.000620086               0.999999985              -0.000619916              -0.000580441               0.999999985              -0.000605588              -0.000574507               0.999999985              -0.000599259              -0.000581268               0.999999985              -0.000595350              -0.000591512               0.999999985              -0.000590439              -0.000600434               0.999999985              -0.000582403              -0.000605524               0.999999985              -0.000570202              -0.000605517               0.999999985              -0.000553429              -0.000600105               0.999999985              -0.000532084              -0.000589246               0.999999985              -0.000506194              -0.000573257               0.999999985              -0.000476130              -0.000551753               0.999999985              -0.000442353              -0.000524865               0.999999985              -0.000405801              -0.000493839               0.999999985              -0.000367383              -0.000459718               0.999999985              -0.000327954              -0.000423761               0.999999985              -0.000662336              -0.000855647               0.999999985              -0.000570423              -0.000721291               0.999999985              -0.000533567              -0.000683452               0.999999985              -0.000519650              -0.000680294               0.999999985              -0.000513720              -0.000689604               0.999999985              -0.000508713              -0.000701672               0.999999985              -0.000500708              -0.000711545               0.999999985              -0.000487604              -0.000716641               0.999999985              -0.000468502              -0.000716169               0.999999985              -0.000443345              -0.000710096               0.999999985              -0.000412409              -0.000698173               0.999999985              -0.000376147              -0.000680876               0.999999985              -0.000335251              -0.000658472               0.999999985              -0.000290725              -0.000631556               0.999999985              -0.000243699              -0.000601777               0.999999985              -0.000195073              -0.000570244               0.999999985              -0.000145649              -0.000537851               0.999999985              -0.000601890              -0.000954082               0.999999985              -0.000487387              -0.000821784               0.999999985              -0.000451213              -0.000786037               0.999999985              -0.000439883              -0.000785070               0.999999985              -0.000435233              -0.000796363               0.999999985              -0.000429048              -0.000809770               0.999999985              -0.000417293              -0.000820251               0.999999985              -0.000398007              -0.000825291               0.999999985              -0.000370793              -0.000824290               0.999999985              -0.000336102              -0.000817166               0.999999985              -0.000294565              -0.000804105               0.999999985              -0.000246955              -0.000785689               0.999999985              -0.000194497              -0.000762676               0.999999985              -0.000138452              -0.000736611               0.999999985              -0.000079969              -0.000709098               0.999999985              -0.000020363              -0.000681286               0.999999985               0.000039429              -0.000653478               0.999999985              -0.000539345              -0.001047404               0.999999985              -0.000417763              -0.000934513               0.999999985              -0.000378869              -0.000894906               0.999999985              -0.000367054              -0.000888909               0.999999985              -0.000363192              -0.000897220               0.999999985              -0.000359033              -0.000910318               0.999999985              -0.000350431              -0.000923218               0.999999985              -0.000335088              -0.000932981               0.999999985              -0.000312354              -0.000938283               0.999999985              -0.000282337              -0.000938730               0.999999985              -0.000245628              -0.000934320               0.999999985              -0.000202589              -0.000925173               0.999999985              -0.000153745              -0.000911923               0.999999985              -0.000099945              -0.000895433               0.999999985              -0.000042394              -0.000877026               0.999999985               0.000017336              -0.000857674               0.999999985               0.000077661              -0.000838535               0.999999985              -0.000471316              -0.001132536               0.999999985              -0.000350919              -0.001043737               0.999999985              -0.000309527              -0.001006759               0.999999985              -0.000296239              -0.000998185               0.999999985              -0.000292298              -0.001004443               0.999999985              -0.000289329              -0.001017474               0.999999985              -0.000283132              -0.001032370               0.999999985              -0.000271340              -0.001046311               0.999999985              -0.000252918              -0.001057448               0.999999985              -0.000227723              -0.001064846               0.999999985              -0.000195844              -0.001068271               0.999999985              -0.000157486              -0.001067784               0.999999985              -0.000112950              -0.001063504               0.999999985              -0.000062449              -0.001056016               0.999999985              -0.000006636              -0.001046215               0.999999985               0.000052873              -0.001035186               0.999999985               0.000114323              -0.001024084               0.999999985              -0.000399138              -0.001207375               0.999999985              -0.000286888              -0.001146172               0.999999985              -0.000244878              -0.001116443               0.999999985              -0.000229956              -0.001108694               0.999999985              -0.000225161              -0.001114555               0.999999985              -0.000222642              -0.001128042               0.999999985              -0.000218039              -0.001145055               0.999999985              -0.000209217              -0.001162829               0.999999985              -0.000194910              -0.001179341               0.999999985              -0.000174353              -0.001193430               0.999999985              -0.000147351              -0.001204428               0.999999985              -0.000114070              -0.001212224               0.999999985              -0.000074369              -0.001216774               0.999999985              -0.000028160              -0.001218187               0.999999985               0.000024592              -0.001216924               0.999999985               0.000083333              -0.001214025               0.999999985               0.000146401              -0.001210660               0.999999985              -0.000323474              -0.001270576               0.999999985              -0.000225781              -0.001237498               0.999999985              -0.000185891              -0.001218404               0.999999985              -0.000170231              -0.001214332               0.999999985              -0.000164487              -0.001221709               0.999999985              -0.000161770              -0.001236645               0.999999985              -0.000158285              -0.001256126               0.999999985              -0.000151737              -0.001277656               0.999999985              -0.000140871              -0.001299465               0.999999985              -0.000124750              -0.001320101               0.999999985              -0.000102918              -0.001338630               0.999999985              -0.000075044              -0.001354626               0.999999985              -0.000040996              -0.001367997               0.999999985              -0.000000319              -0.001378602               0.999999985               0.000047800              -0.001386612               0.999999985               0.000103882              -0.001392475               0.999999985               0.000167568              -0.001397074               0.999999985              -0.000244995              -0.001321131               0.999999985              -0.000167174              -0.001313632               0.999999985              -0.000132871              -0.001306478               0.999999985              -0.000118141              -0.001308015               0.999999985              -0.000112003              -0.001318387               0.999999985              -0.000109154              -0.001335707               0.999999985              -0.000106339              -0.001357967               0.999999985              -0.000101466              -0.001383225               0.999999985              -0.000093526              -0.001409924               0.999999985              -0.000081716              -0.001436681               0.999999985              -0.000065313              -0.001462375               0.999999985              -0.000043697              -0.001486380               0.999999985              -0.000016567              -0.001508379               0.999999985               0.000016888              -0.001528197               0.999999985               0.000057759              -0.001545790               0.999999985               0.000107396              -0.001561014               0.999999985               0.000166972              -0.001574220               0.999999985              -0.000164501              -0.001357936               0.999999985              -0.000110479              -0.001370886               0.999999985              -0.000085191              -0.001374712               0.999999985              -0.000073575              -0.001382221               0.999999985              -0.000068281              -0.001396025               0.999999985              -0.000065728              -0.001415994               0.999999985              -0.000063637              -0.001440877               0.999999985              -0.000060298              -0.001469307               0.999999985              -0.000055074              -0.001499921               0.999999985              -0.000047442              -0.001531568               0.999999985              -0.000036631              -0.001563396               0.999999985              -0.000021932              -0.001594603               0.999999985              -0.000002914              -0.001624640               0.999999985               0.000021174              -0.001653184               0.999999985               0.000051380              -0.001679833               0.999999985               0.000089288              -0.001704092               0.999999985               0.000137068              -0.001725704               0.999999985              -0.000082624              -0.001380290               0.999999985              -0.000054964              -0.001406488               0.999999985              -0.000041512              -0.001418053               0.999999985              -0.000035064              -0.001430049               0.999999985              -0.000031979              -0.001446604               0.999999985              -0.000030457              -0.001468513               0.999999985              -0.000029324              -0.001495250               0.999999985              -0.000027665              -0.001525780               0.999999985              -0.000025121              -0.001558932               0.999999985              -0.000021211              -0.001593801               0.999999985              -0.000015903              -0.001629720               0.999999985              -0.000008590              -0.001666051               0.999999985               0.000001234              -0.001702104               0.999999985               0.000013869              -0.001737318               0.999999985               0.000030057              -0.001770900               0.999999985               0.000050882              -0.001802105               0.999999985               0.000077936              -0.001830253               0.999999985              -0.000000000              -0.001387772               0.999999985              -0.000000000              -0.001418553               0.999999985              -0.000000000              -0.001432935               0.999999985               0.000000000              -0.001446590               0.999999985              -0.000000000              -0.001464133               0.999999985               0.000000000              -0.001486764               0.999999985              -0.000000000              -0.001514253               0.999999985               0.000000000              -0.001545653               0.999999985               0.000000000              -0.001579736               0.999999985               0.000000000              -0.001615668               0.999999985               0.000000000              -0.001652915               0.999999985              -0.000000000              -0.001691065               0.999999985              -0.000000000              -0.001729395               0.999999985               0.000000000              -0.001767007               0.999999985               0.000000000              -0.001803196               0.999999985               0.000000000              -0.001837230               0.999999985               0.000000000              -0.001868005               0.999999985               0.000886465              -0.000000000               0.999999985               0.000936858               0.000000000               0.999999985               0.000958261               0.000000000               0.999999985               0.000970397               0.000000000               0.999999985               0.000980533               0.000000000               0.999999985               0.000991189              -0.000000000               0.999999985               0.001003078              -0.000000000               0.999999985               0.001016151              -0.000000000               0.999999985               0.001029981               0.000000000               0.999999985               0.001043973              -0.000000000               0.999999985               0.001057753               0.000000000               0.999999985               0.001070909               0.000000000               0.999999985               0.001083223               0.000000000               0.999999985               0.001094358               0.000000000               0.999999985               0.001103814               0.000000000               0.999999985               0.001111018               0.000000000               0.999999985               0.001115088               0.000000000               0.999999985               0.000881486              -0.000131571               0.999999985               0.000927613              -0.000104642               0.999999985               0.000946285              -0.000092418               0.999999985               0.000956659              -0.000087609               0.999999985               0.000965530              -0.000086543               0.999999985               0.000975163              -0.000087158               0.999999985               0.000986102              -0.000088183               0.999999985               0.000998072              -0.000088935               0.999999985               0.001010567              -0.000088730               0.999999985               0.001023129              -0.000087405               0.999999985               0.001035263              -0.000084649               0.999999985               0.001046616              -0.000080262               0.999999985               0.001056923              -0.000074165               0.999999985               0.001065804              -0.000065789               0.999999985               0.001072841              -0.000054335               0.999999985               0.001077500              -0.000038871               0.999999985               0.001079257              -0.000018074               0.999999985               0.000866603              -0.000261994               0.999999985               0.000900383              -0.000208894               0.999999985               0.000911474              -0.000185832               0.999999985               0.000917134              -0.000177295               0.999999985               0.000922748              -0.000175866               0.999999985               0.000929678              -0.000177455               0.999999985               0.000937878              -0.000179903               0.999999985               0.000946861              -0.000181448               0.999999985               0.000956045              -0.000181406               0.999999985               0.000964869              -0.000178869               0.999999985               0.000972741              -0.000173658               0.999999985               0.000979440              -0.000165399               0.999999985               0.000984649              -0.000153910               0.999999985               0.000987929              -0.000138387               0.999999985               0.000989051              -0.000117467               0.999999985               0.000987692              -0.000090221               0.999999985               0.000983671              -0.000055195               0.999999985               0.000842086              -0.000390052               0.999999985               0.000856547              -0.000312602               0.999999985               0.000856795              -0.000281052               0.999999985               0.000856172              -0.000270549               0.999999985               0.000857570              -0.000269847               0.999999985               0.000861007              -0.000273157               0.999999985               0.000865705              -0.000277195               0.999999985               0.000870753              -0.000280002               0.999999985               0.000875379              -0.000280068               0.999999985               0.000878776              -0.000276676               0.999999985               0.000880696              -0.000269491               0.999999985               0.000880866              -0.000258270               0.999999985               0.000878966              -0.000242693               0.999999985               0.000874651              -0.000221842               0.999999985               0.000867613              -0.000194690               0.999999985               0.000857901              -0.000160715               0.999999985               0.000845911              -0.000119163               0.999999985               0.000808652              -0.000514504               0.999999985               0.000798481              -0.000415699               0.999999985               0.000786481              -0.000378621               0.999999985               0.000779506              -0.000368210               0.999999985               0.000776984              -0.000369410               0.999999985               0.000777193              -0.000374928               0.999999985               0.000778363              -0.000380814               0.999999985               0.000779179              -0.000384692               0.999999985               0.000778538              -0.000384940               0.999999985               0.000775965              -0.000380738               0.999999985               0.000770970              -0.000372076               0.999999985               0.000763372              -0.000358787               0.999999985               0.000752975              -0.000340417               0.999999985               0.000739510              -0.000316177               0.999999985               0.000723113              -0.000285735               0.999999985               0.000704164              -0.000249229               0.999999985               0.000683327              -0.000206936               0.999999985               0.000767000              -0.000634304               0.999999985               0.000729163              -0.000518180               0.999999985               0.000705808              -0.000478531               0.999999985               0.000693935              -0.000469907               0.999999985               0.000688687              -0.000473757               0.999999985               0.000686363              -0.000481770               0.999999985               0.000684365              -0.000489361               0.999999985               0.000680877              -0.000494021               0.999999985               0.000674739              -0.000494246               0.999999985               0.000665474              -0.000489445               0.999999985               0.000652668              -0.000479571               0.999999985               0.000636353              -0.000464846               0.999999985               0.000616524              -0.000444595               0.999999985               0.000593172              -0.000418433               0.999999985               0.000566810              -0.000387035               0.999999985               0.000538157              -0.000351001               0.999999985               0.000508082              -0.000311334               0.999999985               0.000717932              -0.000748402               0.999999985               0.000651952              -0.000620086               0.999999985               0.000619916              -0.000580441               0.999999985               0.000605588              -0.000574507               0.999999985               0.000599259              -0.000581268               0.999999985               0.000595350              -0.000591512               0.999999985               0.000590439              -0.000600434               0.999999985               0.000582403              -0.000605524               0.999999985               0.000570202              -0.000605517               0.999999985               0.000553429              -0.000600105               0.999999985               0.000532084              -0.000589246               0.999999985               0.000506194              -0.000573257               0.999999985               0.000476130              -0.000551753               0.999999985               0.000442353              -0.000524865               0.999999985               0.000405801              -0.000493839               0.999999985               0.000367383              -0.000459718               0.999999985               0.000327954              -0.000423761               0.999999985               0.000662336              -0.000855647               0.999999985               0.000570423              -0.000721291               0.999999985               0.000533567              -0.000683452               0.999999985               0.000519650              -0.000680294               0.999999985               0.000513720              -0.000689604               0.999999985               0.000508713              -0.000701672               0.999999985               0.000500708              -0.000711545               0.999999985               0.000487604              -0.000716641               0.999999985               0.000468502              -0.000716169               0.999999985               0.000443345              -0.000710096               0.999999985               0.000412409              -0.000698173               0.999999985               0.000376147              -0.000680876               0.999999985               0.000335251              -0.000658472               0.999999985               0.000290725              -0.000631556               0.999999985               0.000243699              -0.000601777               0.999999985               0.000195073              -0.000570244               0.999999985               0.000145649              -0.000537851               0.999999985               0.000601890              -0.000954082               0.999999985               0.000487387              -0.000821784               0.999999985               0.000451213              -0.000786037               0.999999985               0.000439883              -0.000785070               0.999999985               0.000435233              -0.000796363               0.999999985               0.000429048              -0.000809770               0.999999985               0.000417293              -0.000820251               0.999999985               0.000398007              -0.000825291               0.999999985               0.000370793              -0.000824290               0.999999985               0.000336102              -0.000817166               0.999999985               0.000294565              -0.000804105               0.999999985               0.000246955              -0.000785689               0.999999985               0.000194497              -0.000762676               0.999999985               0.000138452              -0.000736611               0.999999985               0.000079969              -0.000709098               0.999999985               0.000020363              -0.000681286               0.999999985              -0.000039429              -0.000653478               0.999999985               0.000539345              -0.001047404               0.999999985               0.000417763              -0.000934513               0.999999985               0.000378869              -0.000894906               0.999999985               0.000367054              -0.000888909               0.999999985               0.000363192              -0.000897220               0.999999985               0.000359033              -0.000910318               0.999999985               0.000350431              -0.000923218               0.999999985               0.000335088              -0.000932981               0.999999985               0.000312354              -0.000938283               0.999999985               0.000282337              -0.000938730               0.999999985               0.000245628              -0.000934320               0.999999985               0.000202589              -0.000925173               0.999999985               0.000153745              -0.000911923               0.999999985               0.000099945              -0.000895433               0.999999985               0.000042394              -0.000877026               0.999999985              -0.000017336              -0.000857674               0.999999985              -0.000077661              -0.000838535               0.999999985               0.000471316              -0.001132536               0.999999985               0.000350919              -0.001043737               0.999999985               0.000309527              -0.001006759               0.999999985               0.000296239              -0.000998185               0.999999985               0.000292298              -0.001004443               0.999999985               0.000289329              -0.001017474               0.999999985               0.000283132              -0.001032370               0.999999985               0.000271340              -0.001046311               0.999999985               0.000252918              -0.001057448               0.999999985               0.000227723              -0.001064846               0.999999985               0.000195844              -0.001068271               0.999999985               0.000157486              -0.001067784               0.999999985               0.000112950              -0.001063504               0.999999985               0.000062449              -0.001056016               0.999999985               0.000006636              -0.001046215               0.999999985              -0.000052873              -0.001035186               0.999999985              -0.000114323              -0.001024084               0.999999985               0.000399138              -0.001207375               0.999999985               0.000286888              -0.001146172               0.999999985               0.000244878              -0.001116443               0.999999985               0.000229956              -0.001108694               0.999999985               0.000225161              -0.001114555               0.999999985               0.000222642              -0.001128042               0.999999985               0.000218039              -0.001145055               0.999999985               0.000209217              -0.001162829               0.999999985               0.000194910              -0.001179341               0.999999985               0.000174353              -0.001193430               0.999999985               0.000147351              -0.001204428               0.999999985               0.000114070              -0.001212224               0.999999985               0.000074369              -0.001216774               0.999999985               0.000028160              -0.001218187               0.999999985              -0.000024592              -0.001216924               0.999999985              -0.000083333              -0.001214025               0.999999985              -0.000146401              -0.001210660               0.999999985               0.000323474              -0.001270576               0.999999985               0.000225781              -0.001237498               0.999999985               0.000185891              -0.001218404               0.999999985               0.000170231              -0.001214332               0.999999985               0.000164487              -0.001221709               0.999999985               0.000161770              -0.001236645               0.999999985               0.000158285              -0.001256126               0.999999985               0.000151737              -0.001277656               0.999999985               0.000140871              -0.001299465               0.999999985               0.000124750              -0.001320101               0.999999985               0.000102918              -0.001338630               0.999999985               0.000075044              -0.001354626               0.999999985               0.000040996              -0.001367997               0.999999985               0.000000319              -0.001378602               0.999999985              -0.000047800              -0.001386612               0.999999985              -0.000103882              -0.001392475               0.999999985              -0.000167568              -0.001397074               0.999999985               0.000244995              -0.001321131               0.999999985               0.000167174              -0.001313632               0.999999985               0.000132871              -0.001306478               0.999999985               0.000118141              -0.001308015               0.999999985               0.000112003              -0.001318387               0.999999985               0.000109154              -0.001335707               0.999999985               0.000106339              -0.001357967               0.999999985               0.000101466              -0.001383225               0.999999985               0.000093526              -0.001409924               0.999999985               0.000081716              -0.001436681               0.999999985               0.000065313              -0.001462375               0.999999985               0.000043697              -0.001486380               0.999999985               0.000016567              -0.001508379               0.999999985              -0.000016888              -0.001528197               0.999999985              -0.000057759              -0.001545790               0.999999985              -0.000107396              -0.001561014               0.999999985              -0.000166972              -0.001574220               0.999999985               0.000164501              -0.001357936               0.999999985               0.000110479              -0.001370886               0.999999985               0.000085191              -0.001374712               0.999999985               0.000073575              -0.001382221               0.999999985               0.000068281              -0.001396025               0.999999985               0.000065728              -0.001415994               0.999999985               0.000063637              -0.001440877               0.999999985               0.000060298              -0.001469307               0.999999985               0.000055074              -0.001499921               0.999999985               0.000047442              -0.001531568               0.999999985               0.000036631              -0.001563396               0.999999985               0.000021932              -0.001594603               0.999999985               0.000002914              -0.001624640               0.999999985              -0.000021174              -0.001653184               0.999999985              -0.000051380              -0.001679833               0.999999985              -0.000089288              -0.001704092               0.999999985              -0.000137068              -0.001725704               0.999999985               0.000082624              -0.001380290               0.999999985               0.000054964              -0.001406488               0.999999985               0.000041512              -0.001418053               0.999999985               0.000035064              -0.001430049               0.999999985               0.000031979              -0.001446604               0.999999985               0.000030457              -0.001468513               0.999999985               0.000029324              -0.001495250               0.999999985               0.000027665              -0.001525780               0.999999985               0.000025121              -0.001558932               0.999999985               0.000021211              -0.001593801               0.999999985               0.000015903              -0.001629720               0.999999985               0.000008590              -0.001666051               0.999999985              -0.000001234              -0.001702104               0.999999985              -0.000013869              -0.001737318               0.999999985              -0.000030057              -0.001770900               0.999999985              -0.000050882              -0.001802105               0.999999985              -0.000077936              -0.001830253               0.999999985              -0.000000000              -0.001387772               0.999999985              -0.000000000              -0.001418553               0.999999985              -0.000000000              -0.001432935               0.999999985               0.000000000              -0.001446590               0.999999985              -0.000000000              -0.001464133               0.999999985               0.000000000              -0.001486764               0.999999985              -0.000000000              -0.001514253               0.999999985               0.000000000              -0.001545653               0.999999985               0.000000000              -0.001579736               0.999999985               0.000000000              -0.001615668               0.999999985               0.000000000              -0.001652915               0.999999985              -0.000000000              -0.001691065               0.999999985              -0.000000000              -0.001729395               0.999999985               0.000000000              -0.001767007               0.999999985               0.000000000              -0.001803196               0.999999985               0.000000000              -0.001837230               0.999999985               0.000000000              -0.001868005               0.999999985               0.000886465              -0.000000000               0.999999985               0.000936858               0.000000000               0.999999985               0.000958261               0.000000000               0.999999985               0.000970397               0.000000000               0.999999985               0.000980533               0.000000000               0.999999985               0.000991189              -0.000000000               0.999999985               0.001003078              -0.000000000               0.999999985               0.001016151              -0.000000000               0.999999985               0.001029981               0.000000000               0.999999985               0.001043973              -0.000000000               0.999999985               0.001057753               0.000000000               0.999999985               0.001070909               0.000000000               0.999999985               0.001083223               0.000000000               0.999999985               0.001094358               0.000000000               0.999999985               0.001103814               0.000000000               0.999999985               0.001111018               0.000000000               0.999999985               0.001115088               0.000000000               0.999999985               0.000881486               0.000131571               0.999999985               0.000927613               0.000104642               0.999999985               0.000946285               0.000092418               0.999999985               0.000956659               0.000087609               0.999999985               0.000965530               0.000086543               0.999999985               0.000975163               0.000087158               0.999999985               0.000986102               0.000088183               0.999999985               0.000998072               0.000088935               0.999999985               0.001010567               0.000088730               0.999999985               0.001023129               0.000087405               0.999999985               0.001035263               0.000084649               0.999999985               0.001046616               0.000080262               0.999999985               0.001056923               0.000074165               0.999999985               0.001065804               0.000065789               0.999999985               0.001072841               0.000054335               0.999999985               0.001077500               0.000038871               0.999999985               0.001079257               0.000018074               0.999999985               0.000866603               0.000261994               0.999999985               0.000900383               0.000208894               0.999999985               0.000911474               0.000185832               0.999999985               0.000917134               0.000177295               0.999999985               0.000922748               0.000175866               0.999999985               0.000929678               0.000177455               0.999999985               0.000937878               0.000179903               0.999999985               0.000946861               0.000181448               0.999999985               0.000956045               0.000181406               0.999999985               0.000964869               0.000178869               0.999999985               0.000972741               0.000173658               0.999999985               0.000979440               0.000165399               0.999999985               0.000984649               0.000153910               0.999999985               0.000987929               0.000138387               0.999999985               0.000989051               0.000117467               0.999999985               0.000987692               0.000090221               0.999999985               0.000983671               0.000055195               0.999999985               0.000842086               0.000390052               0.999999985               0.000856547               0.000312602               0.999999985               0.000856795               0.000281052               0.999999985               0.000856172               0.000270549               0.999999985               0.000857570               0.000269847               0.999999985               0.000861007               0.000273157               0.999999985               0.000865705               0.000277195               0.999999985               0.000870753               0.000280002               0.999999985               0.000875379               0.000280068               0.999999985               0.000878776               0.000276676               0.999999985               0.000880696               0.000269491               0.999999985               0.000880866               0.000258270               0.999999985               0.000878966               0.000242693               0.999999985               0.000874651               0.000221842               0.999999985               0.000867613               0.000194690               0.999999985               0.000857901               0.000160715               0.999999985               0.000845911               0.000119163               0.999999985               0.000808652               0.000514504               0.999999985               0.000798481               0.000415699               0.999999985               0.000786481               0.000378621               0.999999985               0.000779506               0.000368210               0.999999985               0.000776984               0.000369410               0.999999985               0.000777193               0.000374928               0.999999985               0.000778363               0.000380814               0.999999985               0.000779179               0.000384692               0.999999985               0.000778538               0.000384940               0.999999985               0.000775965               0.000380738               0.999999985               0.000770970               0.000372076               0.999999985               0.000763372               0.000358787               0.999999985               0.000752975               0.000340417               0.999999985               0.000739510               0.000316177               0.999999985               0.000723113               0.000285735               0.999999985               0.000704164               0.000249229               0.999999985               0.000683327               0.000206936               0.999999985               0.000767000               0.000634304               0.999999985               0.000729163               0.000518180               0.999999985               0.000705808               0.000478531               0.999999985               0.000693935               0.000469907               0.999999985               0.000688687               0.000473757               0.999999985               0.000686363               0.000481770               0.999999985               0.000684365               0.000489361               0.999999985               0.000680877               0.000494021               0.999999985               0.000674739               0.000494246               0.999999985               0.000665474               0.000489445               0.999999985               0.000652668               0.000479571               0.999999985               0.000636353               0.000464846               0.999999985               0.000616524               0.000444595               0.999999985               0.000593172               0.000418433               0.999999985               0.000566810               0.000387035               0.999999985               0.000538157               0.000351001               0.999999985               0.000508082               0.000311334               0.999999985               0.000717932               0.000748402               0.999999985               0.000651952               0.000620086               0.999999985               0.000619916               0.000580441               0.999999985               0.000605588               0.000574507               0.999999985               0.000599259               0.000581268               0.999999985               0.000595350               0.000591512               0.999999985               0.000590439               0.000600434               0.999999985               0.000582403               0.000605524               0.999999985               0.000570202               0.000605517               0.999999985               0.000553429               0.000600105               0.999999985               0.000532084               0.000589246               0.999999985               0.000506194               0.000573257               0.999999985               0.000476130               0.000551753               0.999999985               0.000442353               0.000524865               0.999999985               0.000405801               0.000493839               0.999999985               0.000367383               0.000459718               0.999999985               0.000327954               0.000423761               0.999999985               0.000662336               0.000855647               0.999999985               0.000570423               0.000721291               0.999999985               0.000533567               0.000683452               0.999999985               0.000519650               0.000680294               0.999999985               0.000513720               0.000689604               0.999999985               0.000508713               0.000701672               0.999999985               0.000500708               0.000711545               0.999999985               0.000487604               0.000716641               0.999999985               0.000468502               0.000716169               0.999999985               0.000443345               0.000710096               0.999999985               0.000412409               0.000698173               0.999999985               0.000376147               0.000680876               0.999999985               0.000335251               0.000658472               0.999999985               0.000290725               0.000631556               0.999999985               0.000243699               0.000601777               0.999999985               0.000195073               0.000570244               0.999999985               0.000145649               0.000537851               0.999999985               0.000601890               0.000954082               0.999999985               0.000487387               0.000821784               0.999999985               0.000451213               0.000786037               0.999999985               0.000439883               0.000785070               0.999999985               0.000435233               0.000796363               0.999999985               0.000429048               0.000809770               0.999999985               0.000417293               0.000820251               0.999999985               0.000398007               0.000825291               0.999999985               0.000370793               0.000824290               0.999999985               0.000336102               0.000817166               0.999999985               0.000294565               0.000804105               0.999999985               0.000246955               0.000785689               0.999999985               0.000194497               0.000762676               0.999999985               0.000138452               0.000736611               0.999999985               0.000079969               0.000709098               0.999999985               0.000020363               0.000681286               0.999999985              -0.000039429               0.000653478               0.999999985               0.000539345               0.001047404               0.999999985               0.000417763               0.000934513               0.999999985               0.000378869               0.000894906               0.999999985               0.000367054               0.000888909               0.999999985               0.000363192               0.000897220               0.999999985               0.000359033               0.000910318               0.999999985               0.000350431               0.000923218               0.999999985               0.000335088               0.000932981               0.999999985               0.000312354               0.000938283               0.999999985               0.000282337               0.000938730               0.999999985               0.000245628               0.000934320               0.999999985               0.000202589               0.000925173               0.999999985               0.000153745               0.000911923               0.999999985               0.000099945               0.000895433               0.999999985               0.000042394               0.000877026               0.999999985              -0.000017336               0.000857674               0.999999985              -0.000077661               0.000838535               0.999999985               0.000471316               0.001132536               0.999999985               0.000350919               0.001043737               0.999999985               0.000309527               0.001006759               0.999999985               0.000296239               0.000998185               0.999999985               0.000292298               0.001004443               0.999999985               0.000289329               0.001017474               0.999999985               0.000283132               0.001032370               0.999999985               0.000271340               0.001046311               0.999999985               0.000252918               0.001057448               0.999999985               0.000227723               0.001064846               0.999999985               0.000195844               0.001068271               0.999999985               0.000157486               0.001067784               0.999999985               0.000112950               0.001063504               0.999999985               0.000062449               0.001056016               0.999999985               0.000006636               0.001046215               0.999999985              -0.000052873               0.001035186               0.999999985              -0.000114323               0.001024084               0.999999985               0.000399138               0.001207375               0.999999985               0.000286888               0.001146172               0.999999985               0.000244878               0.001116443               0.999999985               0.000229956               0.001108694               0.999999985               0.000225161               0.001114555               0.999999985               0.000222642               0.001128042               0.999999985               0.000218039               0.001145055               0.999999985               0.000209217               0.001162829               0.999999985               0.000194910               0.001179341               0.999999985               0.000174353               0.001193430               0.999999985               0.000147351               0.001204428               0.999999985               0.000114070               0.001212224               0.999999985               0.000074369               0.001216774               0.999999985               0.000028160               0.001218187               0.999999985              -0.000024592               0.001216924               0.999999985              -0.000083333               0.001214025               0.999999985              -0.000146401               0.001210660               0.999999985               0.000323474               0.001270576               0.999999985               0.000225781               0.001237498               0.999999985               0.000185891               0.001218404               0.999999985               0.000170231               0.001214332               0.999999985               0.000164487               0.001221709               0.999999985               0.000161770               0.001236645               0.999999985               0.000158285               0.001256126               0.999999985               0.000151737               0.001277656               0.999999985               0.000140871               0.001299465               0.999999985               0.000124750               0.001320101               0.999999985               0.000102918               0.001338630               0.999999985               0.000075044               0.001354626               0.999999985               0.000040996               0.001367997               0.999999985               0.000000319               0.001378602               0.999999985              -0.000047800               0.001386612               0.999999985              -0.000103882               0.001392475               0.999999985              -0.000167568               0.001397074               0.999999985               0.000244995               0.001321131               0.999999985               0.000167174               0.001313632               0.999999985               0.000132871               0.001306478               0.999999985               0.000118141               0.001308015               0.999999985               0.000112003               0.001318387               0.999999985               0.000109154               0.001335707               0.999999985               0.000106339               0.001357967               0.999999985               0.000101466               0.001383225               0.999999985               0.000093526               0.001409924               0.999999985               0.000081716               0.001436681               0.999999985               0.000065313               0.001462375               0.999999985               0.000043697               0.001486380               0.999999985               0.000016567               0.001508379               0.999999985              -0.000016888               0.001528197               0.999999985              -0.000057759               0.001545790               0.999999985              -0.000107396               0.001561014               0.999999985              -0.000166972               0.001574220               0.999999985               0.000164501               0.001357936               0.999999985               0.000110479               0.001370886               0.999999985               0.000085191               0.001374712               0.999999985               0.000073575               0.001382221               0.999999985               0.000068281               0.001396025               0.999999985               0.000065728               0.001415994               0.999999985               0.000063637               0.001440877               0.999999985               0.000060298               0.001469307               0.999999985               0.000055074               0.001499921               0.999999985               0.000047442               0.001531568               0.999999985               0.000036631               0.001563396               0.999999985               0.000021932               0.001594603               0.999999985               0.000002914               0.001624640               0.999999985              -0.000021174               0.001653184               0.999999985              -0.000051380               0.001679833               0.999999985              -0.000089288               0.001704092               0.999999985              -0.000137068               0.001725704               0.999999985               0.000082624               0.001380290               0.999999985               0.000054964               0.001406488               0.999999985               0.000041512               0.001418053               0.999999985               0.000035064               0.001430049               0.999999985               0.000031979               0.001446604               0.999999985               0.000030457               0.001468513               0.999999985               0.000029324               0.001495250               0.999999985               0.000027665               0.001525780               0.999999985               0.000025121               0.001558932               0.999999985               0.000021211               0.001593801               0.999999985               0.000015903               0.001629720               0.999999985               0.000008590               0.001666051               0.999999985              -0.000001234               0.001702104               0.999999985              -0.000013869               0.001737318               0.999999985              -0.000030057               0.001770900               0.999999985              -0.000050882               0.001802105               0.999999985              -0.000077936               0.001830253               0.999999985               0.000000000               0.001387772               0.999999985               0.000000000               0.001418553               0.999999985              -0.000000000               0.001432935               0.999999985               0.000000000               0.001446590               0.999999985               0.000000000               0.001464133               0.999999985               0.000000000               0.001486764               0.999999985              -0.000000000               0.001514253               0.999999985              -0.000000000               0.001545653               0.999999985              -0.000000000               0.001579736               0.999999985              -0.000000000               0.001615668               0.999999985              -0.000000000               0.001652915               0.999999985               0.000000000               0.001691065               0.999999985               0.000000000               0.001729395               0.999999985              -0.000000000               0.001767007               0.999999985               0.000000000               0.001803196               0.999999985               0.000000000               0.001837230               0.999999985              -0.000000000               0.001868005               0.999999985 </DataArray>
<DataArray type="Float64"                                    Name="defo"                                                      NumberOfComponents=" 3" format="ascii">
             -0.000886465               0.000000000               0.999999985              -0.000936858              -0.000000000               0.999999985              -0.000958261               0.000000000               0.999999985              -0.000970397               0.000000000               0.999999985              -0.000980533              -0.000000000               0.999999985              -0.000991189               0.000000000               0.999999985              -0.001003078              -0.000000000               0.999999985              -0.001016151              -0.000000000               0.999999985              -0.001029981              -0.000000000               0.999999985              -0.001043973              -0.000000000               0.999999985              -0.001057753              -0.000000000               0.999999985              -0.001070909               0.000000000               0.999999985              -0.001083223              -0.000000000               0.999999985              -0.001094358               0.000000000               0.999999985              -0.001103814              -0.000000000               0.999999985              -0.001111018              -0.000000000               0.999999985              -0.001115088              -0.000000000               0.999999985              -0.000881486               0.000131571               0.999999985              -0.000927613               0.000104642               0.999999985              -0.000946285               0.000092418               0.999999985              -0.000956659               0.000087609               0.999999985              -0.000965530               0.000086543               0.999999985              -0.000975163               0.000087158               0.999999985              -0.000986102               0.000088183               0.999999985              -0.000998072               0.000088935               0.999999985              -0.001010567               0.000088730               0.999999985              -0.001023129               0.000087405               0.999999985              -0.001035263               0.000084649               0.999999985              -0.001046616               0.000080262               0.999999985              -0.001056923               0.000074165               0.999999985              -0.001065804               0.000065789               0.999999985              -0.001072841               0.000054335               0.999999985              -0.001077500               0.000038871               0.999999985              -0.001079257               0.000018074               0.999999985              -0.000866603               0.000261994               0.999999985              -0.000900383               0.000208894               0.999999985              -0.000911474               0.000185832               0.999999985              -0.000917134               0.000177295               0.999999985              -0.000922748               0.000175866               0.999999985              -0.000929678               0.000177455               0.999999985              -0.000937878               0.000179903               0.999999985              -0.000946861               0.000181448               0.999999985              -0.000956045               0.000181406               0.999999985              -0.000964869               0.000178869               0.999999985              -0.000972741               0.000173658               0.999999985              -0.000979440               0.000165399               0.999999985              -0.000984649               0.000153910               0.999999985              -0.000987929               0.000138387               0.999999985              -0.000989051               0.000117467               0.999999985              -0.000987692               0.000090221               0.999999985              -0.000983671               0.000055195               0.999999985              -0.000842086               0.000390052               0.999999985              -0.000856547               0.000312602               0.999999985              -0.000856795               0.000281052               0.999999985              -0.000856172               0.000270549               0.999999985              -0.000857570               0.000269847               0.999999985              -0.000861007               0.000273157               0.999999985              -0.000865705               0.000277195               0.999999985              -0.000870753               0.000280002               0.999999985              -0.000875379               0.000280068               0.999999985              -0.000878776               0.000276676               0.999999985              -0.000880696               0.000269491               0.999999985              -0.000880866               0.000258270               0.999999985              -0.000878966               0.000242693               0.999999985              -0.000874651               0.000221842               0.999999985              -0.000867613               0.000194690               0.999999985              -0.000857901               0.000160715               0.999999985              -0.000845911               0.000119163               0.999999985              -0.000808652               0.000514504               0.999999985              -0.000798481               0.000415699               0.999999985              -0.000786481               0.000378621               0.999999985              -0.000779506               0.000368210               0.999999985              -0.000776984               0.000369410               0.999999985              -0.000777193               0.000374928               0.999999985              -0.000778363               0.000380814               0.999999985              -0.000779179               0.000384692               0.999999985              -0.000778538               0.000384940               0.999999985              -0.000775965               0.000380738               0.999999985              -0.000770970               0.000372076               0.999999985              -0.000763372               0.000358787               0.999999985              -0.000752975               0.000340417               0.999999985              -0.000739510               0.000316177               0.999999985              -0.000723113               0.000285735               0.999999985              -0.000704164               0.000249229               0.999999985              -0.000683327               0.000206936               0.999999985              -0.000767000               0.000634304               0.999999985              -0.000729163               0.000518180               0.999999985              -0.000705808               0.000478531               0.999999985              -0.000693935               0.000469907               0.999999985              -0.000688687               0.000473757               0.999999985              -0.000686363               0.000481770               0.999999985              -0.000684365               0.000489361               0.999999985              -0.000680877               0.000494021               0.999999985              -0.000674739               0.000494246               0.999999985              -0.000665474               0.000489445               0.999999985              -0.000652668               0.000479571               0.999999985              -0.000636353               0.000464846               0.999999985              -0.000616524               0.000444595               0.999999985              -0.000593172               0.000418433               0.999999985              -0.000566810               0.000387035               0.999999985              -0.000538157               0.000351001               0.999999985              -0.000508082               0.000311334               0.999999985              -0.000717932               0.000748402               0.999999985              -0.000651952               0.000620086               0.999999985              -0.000619916               0.000580441               0.999999985              -0.000605588               0.000574507               0.999999985              -0.000599259               0.000581268               0.999999985              -0.000595350               0.000591512               0.999999985              -0.000590439               0.000600434               0.999999985              -0.000582403               0.000605524               0.999999985              -0.000570202               0.000605517               0.999999985              -0.000553429               0.000600105               0.999999985              -0.000532084               0.000589246               0.999999985              -0.000506194               0.000573257               0.999999985              -0.000476130               0.000551753               0.999999985              -0.000442353               0.000524865               0.999999985              -0.000405801               0.000493839               0.999999985              -0.000367383               0.000459718               0.999999985              -0.000327954               0.000423761               0.999999985              -0.000662336               0.000855647               0.999999985              -0.000570423               0.000721291               0.999999985              -0.000533567               0.000683452               0.999999985              -0.000519650               0.000680294               0.999999985              -0.000513720               0.000689604               0.999999985              -0.000508713               0.000701672               0.999999985              -0.000500708               0.000711545               0.999999985              -0.000487604               0.000716641               0.999999985              -0.000468502               0.000716169               0.999999985              -0.000443345               0.000710096               0.999999985              -0.000412409               0.000698173               0.999999985              -0.000376147               0.000680876               0.999999985              -0.000335251               0.000658472               0.999999985              -0.000290725               0.000631556               0.999999985              -0.000243699               0.000601777               0.999999985              -0.000195073               0.000570244               0.999999985              -0.000145649               0.000537851               0.999999985              -0.000601890               0.000954082               0.999999985              -0.000487387               0.000821784               0.999999985              -0.000451213               0.000786037               0.999999985              -0.000439883               0.000785070               0.999999985              -0.000435233               0.000796363               0.999999985              -0.000429048               0.000809770               0.999999985              -0.000417293               0.000820251               0.999999985              -0.000398007               0.000825291               0.999999985              -0.000370793               0.000824290               0.999999985              -0.000336102               0.000817166               0.999999985              -0.000294565               0.000804105               0.999999985              -0.000246955               0.000785689               0.999999985              -0.000194497               0.000762676               0.999999985              -0.000138452               0.000736611               0.999999985              -0.000079969               0.000709098               0.999999985              -0.000020363               0.000681286               0.999999985               0.000039429               0.000653478               0.999999985              -0.000539345               0.001047404               0.999999985              -0.000417763               0.000934513               0.999999985              -0.000378869               0.000894906               0.999999985              -0.000367054               0.000888909               0.999999985              -0.000363192               0.000897220               0.999999985              -0.000359033               0.000910318               0.999999985              -0.000350431               0.000923218               0.999999985              -0.000335088               0.000932981               0.999999985              -0.000312354               0.000938283               0.999999985              -0.000282337               0.000938730               0.999999985              -0.000245628               0.000934320               0.999999985              -0.000202589               0.000925173               0.999999985              -0.000153745               0.000911923               0.999999985              -0.000099945               0.000895433               0.999999985              -0.000042394               0.000877026               0.999999985               0.000017336               0.000857674               0.999999985               0.000077661               0.000838535               0.999999985              -0.000471316               0.001132536               0.999999985              -0.000350919               0.001043737               0.999999985              -0.000309527               0.001006759               0.999999985              -0.000296239               0.000998185               0.999999985              -0.000292298               0.001004443               0.999999985              -0.000289329               0.001017474               0.999999985              -0.000283132               0.001032370               0.999999985              -0.000271340               0.001046311               0.999999985              -0.000252918               0.001057448               0.999999985              -0.000227723               0.001064846               0.999999985              -0.000195844               0.001068271               0.999999985              -0.000157486               0.001067784               0.999999985              -0.000112950               0.001063504               0.999999985              -0.000062449               0.001056016               0.999999985              -0.000006636               0.001046215               0.999999985               0.000052873               0.001035186               0.999999985               0.000114323               0.001024084               0.999999985              -0.000399138               0.001207375               0.999999985              -0.000286888               0.001146172               0.999999985              -0.000244878               0.001116443               0.999999985              -0.000229956               0.001108694               0.999999985              -0.000225161               0.001114555               0.999999985              -0.000222642               0.001128042               0.999999985              -0.000218039               0.001145055               0.999999985              -0.000209217               0.001162829               0.999999985              -0.000194910               0.001179341               0.999999985              -0.000174353               0.001193430               0.999999985              -0.000147351               0.001204428               0.999999985              -0.000114070               0.001212224               0.999999985              -0.000074369               0.001216774               0.999999985              -0.000028160               0.001218187               0.999999985               0.000024592               0.001216924               0.999999985               0.000083333               0.001214025               0.999999985               0.000146401               0.001210660               0.999999985              -0.000323474               0.001270576               0.999999985              -0.000225781               0.001237498               0.999999985              -0.000185891               0.001218404               0.999999985              -0.000170231               0.001214332               0.999999985              -0.000164487               0.001221709               0.999999985              -0.000161770               0.001236645               0.999999985              -0.000158285               0.001256126               0.999999985              -0.000151737               0.001277656               0.999999985              -0.000140871               0.001299465               0.999999985              -0.000124750               0.001320101               0.999999985              -0.000102918               0.001338630               0.999999985              -0.000075044               0.001354626               0.999999985              -0.000040996               0.001367997               0.999999985              -0.000000319               0.001378602               0.999999985               0.000047800               0.001386612               0.999999985               0.000103882               0.001392475               0.999999985               0.000167568               0.001397074               0.999999985              -0.000244995               0.001321131               0.999999985              -0.000167174               0.001313632               0.999999985              -0.000132871               0.001306478               0.999999985              -0.000118141               0.001308015               0.999999985              -0.000112003               0.001318387               0.999999985              -0.000109154               0.001335707               0.999999985              -0.000106339               0.001357967               0.999999985              -0.000101466               0.001383225               0.999999985              -0.000093526               0.001409924               0.999999985              -0.000081716               0.001436681               0.999999985              -0.000065313               0.001462375               0.999999985              -0.000043697               0.001486380               0.999999985              -0.000016567               0.001508379               0.999999985               0.000016888               0.001528197               0.999999985               0.000057759               0.001545790               0.999999985               0.000107396               0.001561014               0.999999985               0.000166972               0.001574220               0.999999985              -0.000164501               0.001357936               0.999999985              -0.000110479               0.001370886               0.999999985              -0.000085191               0.001374712               0.999999985              -0.000073575               0.001382221               0.999999985              -0.000068281               0.001396025               0.999999985              -0.000065728               0.001415994               0.999999985              -0.000063637               0.001440877               0.999999985              -0.000060298               0.001469307               0.999999985              -0.000055074               0.001499921               0.999999985              -0.000047442               0.001531568               0.999999985              -0.000036631               0.001563396               0.999999985              -0.000021932               0.001594603               0.999999985              -0.000002914               0.001624640               0.999999985               0.000021174               0.001653184               0.999999985               0.000051380               0.001679833               0.999999985               0.000089288               0.001704092               0.999999985               0.000137068               0.001725704               0.999999985              -0.000082624               0.001380290               0.999999985              -0.000054964               0.001406488               0.999999985              -0.000041512               0.001418053               0.999999985              -0.000035064               0.001430049               0.999999985              -0.000031979               0.001446604               0.999999985              -0.000030457               0.001468513               0.999999985              -0.000029324               0.001495250               0.999999985              -0.000027665               0.001525780               0.999999985              -0.000025121               0.001558932               0.999999985              -0.000021211               0.001593801               0.999999985              -0.000015903               0.001629720               0.999999985              -0.000008590               0.001666051               0.999999985               0.000001234               0.001702104               0.999999985               0.000013869               0.001737318               0.999999985               0.000030057               0.001770900               0.999999985               0.000050882               0.001802105               0.999999985               0.000077936               0.001830253               0.999999985               0.000000000               0.001387772               0.999999985               0.000000000               0.001418553               0.999999985              -0.000000000               0.001432935               0.999999985               0.000000000               0.001446590               0.999999985               0.000000000               0.001464133               0.999999985               0.000000000               0.001486764               0.999999985              -0.000000000               0.001514253               0.999999985              -0.000000000               0.001545653               0.999999985              -0.000000000               0.001579736               0.999999985              -0.000000000               0.001615668               0.999999985              -0.000000000               0.001652915               0.999999985               0.000000000               0.001691065               0.999999985               0.000000000               0.001729395               0.999999985              -0.000000000               0.001767007               0.999999985               0.000000000               0.001803196               0.999999985               0.000000000               0.001837230               0.999999985              -0.000000000               0.001868005               0.999999985              -0.000886465               0.000000000               0.999999985              -0.000936858              -0.000000000               0.999999985              -0.000958261               0.000000000               0.999999985              -0.000970397               0.000000000               0.999999985              -0.000980533              -0.000000000               0.999999985              -0.000991189               0.000000000               0.999999985              -0.001003078              -0.000000000               0.999999985              -0.001016151              -0.000000000               0.999999985              -0.001029981              -0.000000000               0.999999985              -0.001043973              -0.000000000               0.999999985              -0.001057753              -0.000000000               0.999999985              -0.001070909               0.000000000               0.999999985              -0.001083223              -0.000000000               0.999999985              -0.001094358               0.000000000               0.999999985              -0.001103814              -0.000000000               0.999999985              -0.001111018              -0.000000000               0.999999985              -0.001115088              -0.000000000               0.999999985              -0.000881486              -0.000131571               0.999999985              -0.000927613              -0.000104642               0.999999985              -0.000946285              -0.000092418               0.999999985              -0.000956659              -0.000087609               0.999999985              -0.000965530              -0.000086543               0.999999985              -0.000975163              -0.000087158               0.999999985              -0.000986102              -0.000088183               0.999999985              -0.000998072              -0.000088935               0.999999985              -0.001010567              -0.000088730               0.999999985              -0.001023129              -0.000087405               0.999999985              -0.001035263              -0.000084649               0.999999985              -0.001046616              -0.000080262               0.999999985              -0.001056923              -0.000074165               0.999999985              -0.001065804              -0.000065789               0.999999985              -0.001072841              -0.000054335               0.999999985              -0.001077500              -0.000038871               0.999999985              -0.001079257              -0.000018074               0.999999985              -0.000866603              -0.000261994               0.999999985              -0.000900383              -0.000208894               0.999999985              -0.000911474              -0.000185832               0.999999985              -0.000917134              -0.000177295               0.999999985              -0.000922748              -0.000175866               0.999999985              -0.000929678              -0.000177455               0.999999985              -0.000937878              -0.000179903               0.999999985              -0.000946861              -0.000181448               0.999999985              -0.000956045              -0.000181406               0.999999985              -0.000964869              -0.000178869               0.999999985              -0.000972741              -0.000173658               0.999999985              -0.000979440              -0.000165399               0.999999985              -0.000984649              -0.000153910               0.999999985              -0.000987929              -0.000138387               0.999999985              -0.000989051              -0.000117467               0.999999985              -0.000987692              -0.000090221               0.999999985              -0.000983671              -0.000055195               0.999999985              -0.000842086              -0.000390052               0.999999985              -0.000856547              -0.000312602               0.999999985              -0.000856795              -0.000281052               0.999999985              -0.000856172              -0.000270549               0.999999985              -0.000857570              -0.000269847               0.999999985              -0.000861007              -0.000273157               0.999999985              -0.000865705              -0.000277195               0.999999985              -0.000870753              -0.000280002               0.999999985              -0.000875379              -0.000280068               0.999999985              -0.000878776              -0.000276676               0.999999985              -0.000880696              -0.000269491               0.999999985              -0.000880866              -0.000258270               0.999999985              -0.000878966              -0.000242693               0.999999985              -0.000874651              -0.000221842               0.999999985              -0.000867613              -0.000194690               0.999999985              -0.000857901              -0.000160715               0.999999985              -0.000845911              -0.000119163               0.999999985              -0.000808652              -0.000514504               0.999999985              -0.000798481              -0.000415699               0.999999985              -0.000786481              -0.000378621               0.999999985              -0.000779506              -0.000368210               0.999999985              -0.000776984              -0.000369410               0.999999985              -0.000777193              -0.000374928               0.999999985              -0.000778363              -0.000380814               0.999999985              -0.000779179              -0.000384692               0.999999985              -0.000778538              -0.000384940               0.999999985              -0.000775965              -0.000380738               0.999999985              -0.000770970              -0.000372076               0.999999985              -0.000763372              -0.000358787               0.999999985              -0.000752975              -0.000340417               0.999999985              -0.000739510              -0.000316177               0.999999985              -0.000723113              -0.000285735               0.999999985              -0.000704164              -0.000249229               0.999999985              -0.000683327              -0.000206936               0.999999985              -0.000767000              -0.000634304               0.999999985              -0.000729163              -0.000518180               0.999999985              -0.000705808              -0.000478531               0.999999985              -0.000693935              -0.000469907               0.999999985              -0.000688687              -0.000473757               0.999999985              -0.000686363              -0.000481770               0.999999985              -0.000684365              -0.000489361               0.999999985              -0.000680877              -0.000494021               0.999999985              -0.000674739              -0.000494246               0.999999985              -0.000665474              -0.000489445               0.999999985              -0.000652668              -0.000479571               0.999999985              -0.000636353              -0.000464846               0.999999985              -0.000616524              -0.000444595               0.999999985              -0.000593172              -0.000418433               0.999999985              -0.000566810              -0.000387035               0.999999985              -0.000538157              -0.000351001               0.999999985              -0.000508082              -0.000311334               0.999999985              -0.000717932              -0.000748402               0.999999985              -0.000651952              -0.000620086               0.999999985              -0.000619916              -0.000580441               0.999999985              -0.000605588              -0.000574507               0.999999985              -0.000599259              -0.000581268               0.999999985              -0.000595350              -0.000591512               0.999999985              -0.000590439              -0.000600434               0.999999985              -0.000582403              -0.000605524               0.999999985              -0.000570202              -0.000605517               0.999999985              -0.000553429              -0.000600105               0.999999985              -0.000532084              -0.000589246               0.999999985              -0.000506194              -0.000573257               0.999999985              -0.000476130              -0.000551753               0.999999985              -0.000442353              -0.000524865               0.999999985              -0.000405801              -0.000493839               0.999999985              -0.000367383              -0.000459718               0.999999985              -0.000327954              -0.000423761               0.999999985              -0.000662336              -0.000855647               0.999999985              -0.000570423              -0.000721291               0.999999985              -0.000533567              -0.000683452               0.999999985              -0.000519650              -0.000680294               0.999999985              -0.000513720              -0.000689604               0.999999985              -0.000508713              -0.000701672               0.999999985              -0.000500708              -0.000711545               0.999999985              -0.000487604              -0.000716641               0.999999985              -0.000468502              -0.000716169               0.999999985              -0.000443345              -0.000710096               0.999999985              -0.000412409              -0.000698173               0.999999985              -0.000376147              -0.000680876               0.999999985              -0.000335251              -0.000658472               0.999999985              -0.000290725              -0.000631556               0.999999985              -0.000243699              -0.000601777               0.999999985              -0.000195073              -0.000570244               0.999999985              -0.000145649              -0.000537851               0.999999985              -0.000601890              -0.000954082               0.999999985              -0.000487387              -0.000821784               0.999999985              -0.000451213              -0.000786037               0.999999985              -0.000439883              -0.000785070               0.999999985              -0.000435233              -0.000796363               0.999999985              -0.000429048              -0.000809770               0.999999985              -0.000417293              -0.000820251               0.999999985              -0.000398007              -0.000825291               0.999999985              -0.000370793              -0.000824290               0.999999985              -0.000336102              -0.000817166               0.999999985              -0.000294565              -0.000804105               0.999999985              -0.000246955              -0.000785689               0.999999985              -0.000194497              -0.000762676               0.999999985              -0.000138452              -0.000736611               0.999999985              -0.000079969              -0.000709098               0.999999985              -0.000020363              -0.000681286               0.999999985               0.000039429              -0.000653478               0.999999985              -0.000539345              -0.001047404               0.999999985              -0.000417763              -0.000934513               0.999999985              -0.000378869              -0.000894906               0.999999985              -0.000367054              -0.000888909               0.999999985              -0.000363192              -0.000897220               0.999999985              -0.000359033              -0.000910318               0.999999985              -0.000350431              -0.000923218               0.999999985              -0.000335088              -0.000932981               0.999999985              -0.000312354              -0.000938283               0.999999985              -0.000282337              -0.000938730               0.999999985              -0.000245628              -0.000934320               0.999999985              -0.000202589              -0.000925173               0.999999985              -0.000153745              -0.000911923               0.999999985              -0.000099945              -0.000895433               0.999999985              -0.000042394              -0.000877026               0.999999985               0.000017336              -0.000857674               0.999999985               0.000077661              -0.000838535               0.999999985              -0.000471316              -0.001132536               0.999999985              -0.000350919              -0.001043737               0.999999985              -0.000309527              -0.001006759               0.999999985              -0.000296239              -0.000998185               0.999999985              -0.000292298              -0.001004443               0.999999985              -0.000289329              -0.001017474               0.999999985              -0.000283132              -0.001032370               0.999999985              -0.000271340              -0.001046311               0.999999985              -0.000252918              -0.001057448               0.999999985              -0.000227723              -0.001064846               0.999999985              -0.000195844              -0.001068271               0.999999985              -0.000157486              -0.001067784               0.999999985              -0.000112950              -0.001063504               0.999999985              -0.000062449              -0.001056016               0.999999985              -0.000006636              -0.001046215               0.999999985               0.000052873              -0.001035186               0.999999985               0.000114323              -0.001024084               0.999999985              -0.000399138              -0.001207375               0.999999985              -0.000286888              -0.001146172               0.999999985              -0.000244878              -0.001116443               0.999999985              -0.000229956              -0.001108694               0.999999985              -0.000225161              -0.001114555               0.999999985              -0.000222642              -0.001128042               0.999999985              -0.000218039              -0.001145055               0.999999985              -0.000209217              -0.001162829               0.999999985              -0.000194910              -0.001179341               0.999999985              -0.000174353              -0.001193430               0.999999985              -0.000147351              -0.001204428               0.999999985              -0.000114070              -0.001212224               0.999999985              -0.000074369              -0.001216774               0.999999985              -0.000028160              -0.001218187               0.999999985               0.000024592              -0.001216924               0.999999985               0.000083333              -0.001214025               0.999999985               0.000146401              -0.001210660               0.999999985              -0.000323474              -0.001270576               0.999999985              -0.000225781              -0.001237498               0.999999985              -0.000185891              -0.001218404               0.999999985              -0.000170231              -0.001214332               0.999999985              -0.000164487              -0.001221709               0.999999985              -0.000161770              -0.001236645               0.999999985              -0.000158285              -0.001256126               0.999999985              -0.000151737              -0.001277656               0.999999985              -0.000140871              -0.001299465               0.999999985              -0.000124750              -0.001320101               0.999999985              -0.000102918              -0.001338630               0.999999985              -0.000075044              -0.001354626               0.999999985              -0.000040996              -0.001367997               0.999999985              -0.000000319              -0.001378602               0.999999985               0.000047800              -0.001386612               0.999999985               0.000103882              -0.001392475               0.999999985               0.000167568              -0.001397074               0.999999985              -0.000244995              -0.001321131               0.999999985              -0.000167174              -0.001313632               0.999999985              -0.000132871              -0.001306478               0.999999985              -0.000118141              -0.001308015               0.999999985              -0.000112003              -0.001318387               0.999999985              -0.000109154              -0.001335707               0.999999985              -0.000106339              -0.001357967               0.999999985              -0.000101466              -0.001383225               0.999999985              -0.000093526              -0.001409924               0.999999985              -0.000081716              -0.001436681               0.999999985              -0.000065313              -0.001462375               0.999999985              -0.000043697              -0.001486380               0.999999985              -0.000016567              -0.001508379               0.999999985               0.000016888              -0.001528197               0.999999985               0.000057759              -0.001545790               0.999999985               0.000107396              -0.001561014               0.999999985               0.000166972              -0.001574220               0.999999985              -0.000164501              -0.001357936               0.999999985              -0.000110479              -0.001370886               0.999999985              -0.000085191              -0.001374712               0.999999985              -0.000073575              -0.001382221               0.999999985              -0.000068281              -0.001396025               0.999999985              -0.000065728              -0.001415994               0.999999985              -0.000063637              -0.001440877               0.999999985              -0.000060298              -0.001469307               0.999999985              -0.000055074              -0.001499921               0.999999985              -0.000047442              -0.001531568               0.999999985              -0.000036631              -0.001563396               0.999999985              -0.000021932              -0.001594603               0.999999985              -0.000002914              -0.001624640               0.999999985               0.000021174              -0.001653184               0.999999985               0.000051380              -0.001679833               0.999999985               0.000089288              -0.001704092               0.999999985               0.000137068              -0.001725704               0.999999985              -0.000082624              -0.001380290               0.999999985              -0.000054964              -0.001406488               0.999999985              -0.000041512              -0.001418053               0.999999985              -0.000035064              -0.001430049               0.999999985              -0.000031979              -0.001446604               0.999999985              -0.000030457              -0.001468513               0.999999985              -0.000029324              -0.001495250               0.999999985              -0.000027665              -0.001525780               0.999999985              -0.000025121              -0.001558932               0.999999985              -0.000021211              -0.001593801               0.999999985              -0.000015903              -0.001629720               0.999999985              -0.000008590              -0.001666051               0.999999985               0.000001234              -0.001702104               0.999999985               0.000013869              -0.001737318               0.999999985               0.000030057              -0.001770900               0.999999985               0.000050882              -0.001802105               0.999999985               0.000077936              -0.001830253               0.999999985              -0.000000000              -0.001387772               0.999999985              -0.000000000              -0.001418553               0.999999985              -0.000000000              -0.001432935               0.999999985               0.000000000              -0.001446590               0.999999985              -0.000000000              -0.001464133               0.999999985               0.000000000              -0.001486764               0.999999985              -0.000000000              -0.001514253               0.999999985               0.000000000              -0.001545653               0.999999985               0.000000000              -0.001579736               0.999999985               0.000000000              -0.001615668               0.999999985               0.000000000              -0.001652915               0.999999985              -0.000000000              -0.001691065               0.999999985              -0.000000000              -0.001729395               0.999999985               0.000000000              -0.001767007               0.999999985               0.000000000              -0.001803196               0.999999985               0.000000000              -0.001837230               0.999999985               0.000000000              -0.001868005               0.999999985               0.000886465              -0.000000000               0.999999985               0.000936858               0.000000000               0.999999985               0.000958261               0.000000000               0.999999985               0.000970397               0.000000000               0.999999985               0.000980533               0.000000000               0.999999985               0.000991189              -0.000000000               0.999999985               0.001003078              -0.000000000               0.999999985               0.001016151              -0.000000000               0.999999985               0.001029981               0.000000000               0.999999985               0.001043973              -0.000000000               0.999999985               0.001057753               0.000000000               0.999999985               0.001070909               0.000000000               0.999999985               0.001083223               0.000000000               0.999999985               0.001094358               0.000000000               0.999999985               0.001103814               0.000000000               0.999999985               0.001111018               0.000000000               0.999999985               0.001115088               0.000000000               0.999999985               0.000881486              -0.000131571               0.999999985               0.000927613              -0.000104642               0.999999985               0.000946285              -0.000092418               0.999999985               0.000956659              -0.000087609               0.999999985               0.000965530              -0.000086543               0.999999985               0.000975163              -0.000087158               0.999999985               0.000986102              -0.000088183               0.999999985               0.000998072              -0.000088935               0.999999985               0.001010567              -0.000088730               0.999999985               0.001023129              -0.000087405               0.999999985               0.001035263              -0.000084649               0.999999985               0.001046616              -0.000080262               0.999999985               0.001056923              -0.000074165               0.999999985               0.001065804              -0.000065789               0.999999985               0.001072841              -0.000054335               0.999999985               0.001077500              -0.000038871               0.999999985               0.001079257              -0.000018074               0.999999985               0.000866603              -0.000261994               0.999999985               0.000900383              -0.000208894               0.999999985               0.000911474              -0.000185832               0.999999985               0.000917134              -0.000177295               0.999999985               0.000922748              -0.000175866               0.999999985               0.000929678              -0.000177455               0.999999985               0.000937878              -0.000179903               0.999999985               0.000946861              -0.000181448               0.999999985               0.000956045              -0.000181406               0.999999985               0.000964869              -0.000178869               0.999999985               0.000972741              -0.000173658               0.999999985               0.000979440              -0.000165399               0.999999985               0.000984649              -0.000153910               0.999999985               0.000987929              -0.000138387               0.999999985               0.000989051              -0.000117467               0.999999985               0.000987692              -0.000090221               0.999999985               0.000983671              -0.000055195               0.999999985               0.000842086              -0.000390052               0.999999985               0.000856547              -0.000312602               0.999999985               0.000856795              -0.000281052               0.999999985               0.000856172              -0.000270549               0.999999985               0.000857570              -0.000269847               0.999999985               0.000861007              -0.000273157               0.999999985               0.000865705              -0.000277195               0.999999985               0.000870753              -0.000280002               0.999999985               0.000875379              -0.000280068               0.999999985               0.000878776              -0.000276676               0.999999985               0.000880696              -0.000269491               0.999999985               0.000880866              -0.000258270               0.999999985               0.000878966              -0.000242693               0.999999985               0.000874651              -0.000221842               0.999999985               0.000867613              -0.000194690               0.999999985               0.000857901              -0.000160715               0.999999985               0.000845911              -0.000119163               0.999999985               0.000808652              -0.000514504               0.999999985               0.000798481              -0.000415699               0.999999985               0.000786481              -0.000378621               0.999999985               0.000779506              -0.000368210               0.999999985               0.000776984              -0.000369410               0.999999985               0.000777193              -0.000374928               0.999999985               0.000778363              -0.000380814               0.999999985               0.000779179              -0.000384692               0.999999985               0.000778538              -0.000384940               0.999999985               0.000775965              -0.000380738               0.999999985               0.000770970              -0.000372076               0.999999985               0.000763372              -0.000358787               0.999999985               0.000752975              -0.000340417               0.999999985               0.000739510              -0.000316177               0.999999985               0.000723113              -0.000285735               0.999999985               0.000704164              -0.000249229               0.999999985               0.000683327              -0.000206936               0.999999985               0.000767000              -0.000634304               0.999999985               0.000729163              -0.000518180               0.999999985               0.000705808              -0.000478531               0.999999985               0.000693935              -0.000469907               0.999999985               0.000688687              -0.000473757               0.999999985               0.000686363              -0.000481770               0.999999985               0.000684365              -0.000489361               0.999999985               0.000680877              -0.000494021               0.999999985               0.000674739              -0.000494246               0.999999985               0.000665474              -0.000489445               0.999999985               0.000652668              -0.000479571               0.999999985               0.000636353              -0.000464846               0.999999985               0.000616524              -0.000444595               0.999999985               0.000593172              -0.000418433               0.999999985               0.000566810              -0.000387035               0.999999985               0.000538157              -0.000351001               0.999999985               0.000508082              -0.000311334               0.999999985               0.000717932              -0.000748402               0.999999985               0.000651952              -0.000620086               0.999999985               0.000619916              -0.000580441               0.999999985               0.000605588              -0.000574507               0.999999985               0.000599259              -0.000581268               0.999999985               0.000595350              -0.000591512               0.999999985               0.000590439              -0.000600434               0.999999985               0.000582403              -0.000605524               0.999999985               0.000570202              -0.000605517               0.999999985               0.000553429              -0.000600105               0.999999985               0.000532084              -0.000589246               0.999999985               0.000506194              -0.000573257               0.999999985               0.000476130              -0.000551753               0.999999985               0.000442353              -0.000524865               0.999999985               0.000405801              -0.000493839               0.999999985               0.000367383              -0.000459718               0.999999985               0.000327954              -0.000423761               0.999999985               0.000662336              -0.000855647               0.999999985               0.000570423              -0.000721291               0.999999985               0.000533567              -0.000683452               0.999999985               0.000519650              -0.000680294               0.999999985               0.000513720              -0.000689604               0.999999985               0.000508713              -0.000701672               0.999999985               0.000500708              -0.000711545               0.999999985               0.000487604              -0.000716641               0.999999985               0.000468502              -0.000716169               0.999999985               0.000443345              -0.000710096               0.999999985               0.000412409              -0.000698173               0.999999985               0.000376147              -0.000680876               0.999999985               0.000335251              -0.000658472               0.999999985               0.000290725              -0.000631556               0.999999985               0.000243699              -0.000601777               0.999999985               0.000195073              -0.000570244               0.999999985               0.000145649              -0.000537851               0.999999985               0.000601890              -0.000954082               0.999999985               0.000487387              -0.000821784               0.999999985               0.000451213              -0.000786037               0.999999985               0.000439883              -0.000785070               0.999999985               0.000435233              -0.000796363               0.999999985               0.000429048              -0.000809770               0.999999985               0.000417293              -0.000820251               0.999999985               0.000398007              -0.000825291               0.999999985               0.000370793              -0.000824290               0.999999985               0.000336102              -0.000817166               0.999999985               0.000294565              -0.000804105               0.999999985               0.000246955              -0.000785689               0.999999985               0.000194497              -0.000762676               0.999999985               0.000138452              -0.000736611               0.999999985               0.000079969              -0.000709098               0.999999985               0.000020363              -0.000681286               0.999999985              -0.000039429              -0.000653478               0.999999985               0.000539345              -0.001047404               0.999999985               0.000417763              -0.000934513               0.999999985               0.000378869              -0.000894906               0.999999985               0.000367054              -0.000888909               0.999999985               0.000363192              -0.000897220               0.999999985               0.000359033              -0.000910318               0.999999985               0.000350431              -0.000923218               0.999999985               0.000335088              -0.000932981               0.999999985               0.000312354              -0.000938283               0.999999985               0.000282337              -0.000938730               0.999999985               0.000245628              -0.000934320               0.999999985               0.000202589              -0.000925173               0.999999985               0.000153745              -0.000911923               0.999999985               0.000099945              -0.000895433               0.999999985               0.000042394              -0.000877026               0.999999985              -0.000017336              -0.000857674               0.999999985              -0.000077661              -0.000838535               0.999999985               0.000471316              -0.001132536               0.999999985               0.000350919              -0.001043737               0.999999985               0.000309527              -0.001006759               0.999999985               0.000296239              -0.000998185               0.999999985               0.000292298              -0.001004443               0.999999985               0.000289329              -0.001017474               0.999999985               0.000283132              -0.001032370               0.999999985               0.000271340              -0.001046311               0.999999985               0.000252918              -0.001057448               0.999999985               0.000227723              -0.001064846               0.999999985               0.000195844              -0.001068271               0.999999985               0.000157486              -0.001067784               0.999999985               0.000112950              -0.001063504               0.999999985               0.000062449              -0.001056016               0.999999985               0.000006636              -0.001046215               0.999999985              -0.000052873              -0.001035186               0.999999985              -0.000114323              -0.001024084               0.999999985               0.000399138              -0.001207375               0.999999985               0.000286888              -0.001146172               0.999999985               0.000244878              -0.001116443               0.999999985               0.000229956              -0.001108694               0.999999985               0.000225161              -0.001114555               0.999999985               0.000222642              -0.001128042               0.999999985               0.000218039              -0.001145055               0.999999985               0.000209217              -0.001162829               0.999999985               0.000194910              -0.001179341               0.999999985               0.000174353              -0.001193430               0.999999985               0.000147351              -0.001204428               0.999999985               0.000114070              -0.001212224               0.999999985               0.000074369              -0.001216774               0.999999985               0.000028160              -0.001218187               0.999999985              -0.000024592              -0.001216924               0.999999985              -0.000083333              -0.001214025               0.999999985              -0.000146401              -0.001210660               0.999999985               0.000323474              -0.001270576               0.999999985               0.000225781              -0.001237498               0.999999985               0.000185891              -0.001218404               0.999999985               0.000170231              -0.001214332               0.999999985               0.000164487              -0.001221709               0.999999985               0.000161770              -0.001236645               0.999999985               0.000158285              -0.001256126               0.999999985               0.000151737              -0.001277656               0.999999985               0.000140871              -0.001299465               0.999999985               0.000124750              -0.001320101               0.999999985               0.000102918              -0.001338630               0.999999985               0.000075044              -0.001354626               0.999999985               0.000040996              -0.001367997               0.999999985               0.000000319              -0.001378602               0.999999985              -0.000047800              -0.001386612               0.999999985              -0.000103882              -0.001392475               0.999999985              -0.000167568              -0.001397074               0.999999985               0.000244995              -0.001321131               0.999999985               0.000167174              -0.001313632               0.999999985               0.000132871              -0.001306478               0.999999985               0.000118141              -0.001308015               0.999999985               0.000112003              -0.001318387               0.999999985               0.000109154              -0.001335707               0.999999985               0.000106339              -0.001357967               0.999999985               0.000101466              -0.001383225               0.999999985               0.000093526              -0.001409924               0.999999985               0.000081716              -0.001436681               0.999999985               0.000065313              -0.001462375               0.999999985               0.000043697              -0.001486380               0.999999985               0.000016567              -0.001508379               0.999999985              -0.000016888              -0.001528197               0.999999985              -0.000057759              -0.001545790               0.999999985              -0.000107396              -0.001561014               0.999999985              -0.000166972              -0.001574220               0.999999985               0.000164501              -0.001357936               0.999999985               0.000110479              -0.001370886               0.999999985               0.000085191              -0.001374712               0.999999985               0.000073575              -0.001382221               0.999999985               0.000068281              -0.001396025               0.999999985               0.000065728              -0.001415994               0.999999985               0.000063637              -0.001440877               0.999999985               0.000060298              -0.001469307               0.999999985               0.000055074              -0.001499921               0.999999985               0.000047442              -0.001531568               0.999999985               0.000036631              -0.001563396               0.999999985               0.000021932              -0.001594603               0.999999985               0.000002914              -0.001624640               0.999999985              -0.000021174              -0.001653184               0.999999985              -0.000051380              -0.001679833               0.999999985              -0.000089288              -0.001704092               0.999999985              -0.000137068              -0.001725704               0.999999985               0.000082624              -0.001380290               0.999999985               0.000054964              -0.001406488               0.999999985               0.000041512              -0.001418053               0.999999985               0.000035064              -0.001430049               0.999999985               0.000031979              -0.001446604               0.999999985               0.000030457              -0.001468513               0.999999985               0.000029324              -0.001495250               0.999999985               0.000027665              -0.001525780               0.999999985               0.000025121              -0.001558932               0.999999985               0.000021211              -0.001593801               0.999999985               0.000015903              -0.001629720               0.999999985               0.000008590              -0.001666051               0.999999985              -0.000001234              -0.001702104               0.999999985              -0.000013869              -0.001737318               0.999999985              -0.000030057              -0.001770900               0.999999985              -0.000050882              -0.001802105               0.999999985              -0.000077936              -0.001830253               0.999999985              -0.000000000              -0.001387772               0.999999985              -0.000000000              -0.001418553               0.999999985              -0.000000000              -0.001432935               0.999999985               0.000000000              -0.001446590               0.999999985              -0.000000000              -0.001464133               0.999999985               0.000000000              -0.001486764               0.999999985              -0.000000000              -0.001514253               0.999999985               0.000000000              -0.001545653               0.999999985               0.000000000              -0.001579736               0.999999985               0.000000000              -0.001615668               0.999999985               0.000000000              -0.001652915               0.999999985              -0.000000000              -0.001691065               0.999999985              -0.000000000              -0.001729395               0.999999985               0.000000000              -0.001767007               0.999999985               0.000000000              -0.001803196               0.999999985               0.000000000              -0.001837230               0.999999985               0.000000000              -0.001868005               0.999999985               0.000886465              -0.000000000               0.999999985               0.000936858               0.000000000               0.999999985               0.000958261               0.000000000               0.999999985               0.000970397               0.000000000               0.999999985               0.000980533               0.000000000               0.999999985               0.000991189              -0.000000000               0.999999985               0.001003078              -0.000000000               0.999999985               0.001016151              -0.000000000               0.999999985               0.001029981               0.000000000               0.999999985               0.001043973              -0.000000000               0.999999985               0.001057753               0.000000000               0.999999985               0.001070909               0.000000000               0.999999985               0.001083223               0.000000000               0.999999985               0.001094358               0.000000000               0.999999985               0.001103814               0.000000000               0.999999985               0.001111018               0.000000000               0.999999985               0.001115088               0.000000000               0.999999985               0.000881486               0.000131571               0.999999985               0.000927613               0.000104642               0.999999985               0.000946285               0.000092418               0.999999985               0.000956659               0.000087609               0.999999985               0.000965530               0.000086543               0.999999985               0.000975163               0.000087158               0.999999985               0.000986102               0.000088183               0.999999985               0.000998072               0.000088935               0.999999985               0.001010567               0.000088730               0.999999985               0.001023129               0.000087405               0.999999985               0.001035263               0.000084649               0.999999985               0.001046616               0.000080262               0.999999985               0.001056923               0.000074165               0.999999985               0.001065804               0.000065789               0.999999985               0.001072841               0.000054335               0.999999985               0.001077500               0.000038871               0.999999985               0.001079257               0.000018074               0.999999985               0.000866603               0.000261994               0.999999985               0.000900383               0.000208894               0.999999985               0.000911474               0.000185832               0.999999985               0.000917134               0.000177295               0.999999985               0.000922748               0.000175866               0.999999985               0.000929678               0.000177455               0.999999985               0.000937878               0.000179903               0.999999985               0.000946861               0.000181448               0.999999985               0.000956045               0.000181406               0.999999985               0.000964869               0.000178869               0.999999985               0.000972741               0.000173658               0.999999985               0.000979440               0.000165399               0.999999985               0.000984649               0.000153910               0.999999985               0.000987929               0.000138387               0.999999985               0.000989051               0.000117467               0.999999985               0.000987692               0.000090221               0.999999985               0.000983671               0.000055195               0.999999985               0.000842086               0.000390052               0.999999985               0.000856547               0.000312602               0.999999985               0.000856795               0.000281052               0.999999985               0.000856172               0.000270549               0.999999985               0.000857570               0.000269847               0.999999985               0.000861007               0.000273157               0.999999985               0.000865705               0.000277195               0.999999985               0.000870753               0.000280002               0.999999985               0.000875379               0.000280068               0.999999985               0.000878776               0.000276676               0.999999985               0.000880696               0.000269491               0.999999985               0.000880866               0.000258270               0.999999985               0.000878966               0.000242693               0.999999985               0.000874651               0.000221842               0.999999985               0.000867613               0.000194690               0.999999985               0.000857901               0.000160715               0.999999985               0.000845911               0.000119163               0.999999985               0.000808652               0.000514504               0.999999985               0.000798481               0.000415699               0.999999985               0.000786481               0.000378621               0.999999985               0.000779506               0.000368210               0.999999985               0.000776984               0.000369410               0.999999985               0.000777193               0.000374928               0.999999985               0.000778363               0.000380814               0.999999985               0.000779179               0.000384692               0.999999985               0.000778538               0.000384940               0.999999985               0.000775965               0.000380738               0.999999985               0.000770970               0.000372076               0.999999985               0.000763372               0.000358787               0.999999985               0.000752975               0.000340417               0.999999985               0.000739510               0.000316177               0.999999985               0.000723113               0.000285735               0.999999985               0.000704164               0.000249229               0.999999985               0.000683327               0.000206936               0.999999985               0.000767000               0.000634304               0.999999985               0.000729163               0.000518180               0.999999985               0.000705808               0.000478531               0.999999985               0.000693935               0.000469907               0.999999985               0.000688687               0.000473757               0.999999985               0.000686363               0.000481770               0.999999985               0.000684365               0.000489361               0.999999985               0.000680877               0.000494021               0.999999985               0.000674739               0.000494246               0.999999985               0.000665474               0.000489445               0.999999985               0.000652668               0.000479571               0.999999985               0.000636353               0.000464846               0.999999985               0.000616524               0.000444595               0.999999985               0.000593172               0.000418433               0.999999985               0.000566810               0.000387035               0.999999985               0.000538157               0.000351001               0.999999985               0.000508082               0.000311334               0.999999985               0.000717932               0.000748402               0.999999985               0.000651952               0.000620086               0.999999985               0.000619916               0.000580441               0.999999985               0.000605588               0.000574507               0.999999985               0.000599259               0.000581268               0.999999985               0.000595350               0.000591512               0.999999985               0.000590439               0.000600434               0.999999985               0.000582403               0.000605524               0.999999985               0.000570202               0.000605517               0.999999985               0.000553429               0.000600105               0.999999985               0.000532084               0.000589246               0.999999985               0.000506194               0.000573257               0.999999985               0.000476130               0.000551753               0.999999985               0.000442353               0.000524865               0.999999985               0.000405801               0.000493839               0.999999985               0.000367383               0.000459718               0.999999985               0.000327954               0.000423761               0.999999985               0.000662336               0.000855647               0.999999985               0.000570423               0.000721291               0.999999985               0.000533567               0.000683452               0.999999985               0.000519650               0.000680294               0.999999985               0.000513720               0.000689604               0.999999985               0.000508713               0.000701672               0.999999985               0.000500708               0.000711545               0.999999985               0.000487604               0.000716641               0.999999985               0.000468502               0.000716169               0.999999985               0.000443345               0.000710096               0.999999985               0.000412409               0.000698173               0.999999985               0.000376147               0.000680876               0.999999985               0.000335251               0.000658472               0.999999985               0.000290725               0.000631556               0.999999985               0.000243699               0.000601777               0.999999985               0.000195073               0.000570244               0.999999985               0.000145649               0.000537851               0.999999985               0.000601890               0.000954082               0.999999985               0.000487387               0.000821784               0.999999985               0.000451213               0.000786037               0.999999985               0.000439883               0.000785070               0.999999985               0.000435233               0.000796363               0.999999985               0.000429048               0.000809770               0.999999985               0.000417293               0.000820251               0.999999985               0.000398007               0.000825291               0.999999985               0.000370793               0.000824290               0.999999985               0.000336102               0.000817166               0.999999985               0.000294565               0.000804105               0.999999985               0.000246955               0.000785689               0.999999985               0.000194497               0.000762676               0.999999985               0.000138452               0.000736611               0.999999985               0.000079969               0.000709098               0.999999985               0.000020363               0.000681286               0.999999985              -0.000039429               0.000653478               0.999999985               0.000539345               0.001047404               0.999999985               0.000417763               0.000934513               0.999999985               0.000378869               0.000894906               0.999999985               0.000367054               0.000888909               0.999999985               0.000363192               0.000897220               0.999999985               0.000359033               0.000910318               0.999999985               0.000350431               0.000923218               0.999999985               0.000335088               0.000932981               0.999999985               0.000312354               0.000938283               0.999999985               0.000282337               0.000938730               0.999999985               0.000245628               0.000934320               0.999999985               0.000202589               0.000925173               0.999999985               0.000153745               0.000911923               0.999999985               0.000099945               0.000895433               0.999999985               0.000042394               0.000877026               0.999999985              -0.000017336               0.000857674               0.999999985              -0.000077661               0.000838535               0.999999985               0.000471316               0.001132536               0.999999985               0.000350919               0.001043737               0.999999985               0.000309527               0.001006759               0.999999985               0.000296239               0.000998185               0.999999985               0.000292298               0.001004443               0.999999985               0.000289329               0.001017474               0.999999985               0.000283132               0.001032370               0.999999985               0.000271340               0.001046311               0.999999985               0.000252918               0.001057448               0.999999985               0.000227723               0.001064846               0.999999985               0.000195844               0.001068271               0.999999985               0.000157486               0.001067784               0.999999985               0.000112950               0.001063504               0.999999985               0.000062449               0.001056016               0.999999985               0.000006636               0.001046215               0.999999985              -0.000052873               0.001035186               0.999999985              -0.000114323               0.001024084               0.999999985               0.000399138               0.001207375               0.999999985               0.000286888               0.001146172               0.999999985               0.000244878               0.001116443               0.999999985               0.000229956               0.001108694               0.999999985               0.000225161               0.001114555               0.999999985               0.000222642               0.001128042               0.999999985               0.000218039               0.001145055               0.999999985               0.000209217               0.001162829               0.999999985               0.000194910               0.001179341               0.999999985               0.000174353               0.001193430               0.999999985               0.000147351               0.001204428               0.999999985               0.000114070               0.001212224               0.999999985               0.000074369               0.001216774               0.999999985               0.000028160               0.001218187               0.999999985              -0.000024592               0.001216924               0.999999985              -0.000083333               0.001214025               0.999999985              -0.000146401               0.001210660               0.999999985               0.000323474               0.001270576               0.999999985               0.000225781               0.001237498               0.999999985               0.000185891               0.001218404               0.999999985               0.000170231               0.001214332               0.999999985               0.000164487               0.001221709               0.999999985               0.000161770               0.001236645               0.999999985               0.000158285               0.001256126               0.999999985               0.000151737               0.001277656               0.999999985               0.000140871               0.001299465               0.999999985               0.000124750               0.001320101               0.999999985               0.000102918               0.001338630               0.999999985               0.000075044               0.001354626               0.999999985               0.000040996               0.001367997               0.999999985               0.000000319               0.001378602               0.999999985              -0.000047800               0.001386612               0.999999985              -0.000103882               0.001392475               0.999999985              -0.000167568               0.001397074               0.999999985               0.000244995               0.001321131               0.999999985               0.000167174               0.001313632               0.999999985               0.000132871               0.001306478               0.999999985               0.000118141               0.001308015               0.999999985               0.000112003               0.001318387               0.999999985               0.000109154               0.001335707               0.999999985               0.000106339               0.001357967               0.999999985               0.000101466               0.001383225               0.999999985               0.000093526               0.001409924               0.999999985               0.000081716               0.001436681               0.999999985               0.000065313               0.001462375               0.999999985               0.000043697               0.001486380               0.999999985               0.000016567               0.001508379               0.999999985              -0.000016888               0.001528197               0.999999985              -0.000057759               0.001545790               0.999999985              -0.000107396               0.001561014               0.999999985              -0.000166972               0.001574220               0.999999985               0.000164501               0.001357936               0.999999985               0.000110479               0.001370886               0.999999985               0.000085191               0.001374712               0.999999985               0.000073575               0.001382221               0.999999985               0.000068281               0.001396025               0.999999985               0.000065728               0.001415994               0.999999985               0.000063637               0.001440877               0.999999985               0.000060298               0.001469307               0.999999985               0.000055074               0.001499921               0.999999985               0.000047442               0.001531568               0.999999985               0.000036631               0.001563396               0.999999985               0.000021932               0.001594603               0.999999985               0.000002914               0.001624640               0.999999985              -0.000021174               0.001653184               0.999999985              -0.000051380               0.001679833               0.999999985              -0.000089288               0.001704092               0.999999985              -0.000137068               0.001725704               0.999999985               0.000082624               0.001380290               0.999999985               0.000054964               0.001406488               0.999999985               0.000041512               0.001418053               0.999999985               0.000035064               0.001430049               0.999999985               0.000031979               0.001446604               0.999999985               0.000030457               0.001468513               0.999999985               0.000029324               0.001495250               0.999999985               0.000027665               0.001525780               0.999999985               0.000025121               0.001558932               0.999999985               0.000021211               0.001593801               0.999999985               0.000015903               0.001629720               0.999999985               0.000008590               0.001666051               0.999999985              -0.000001234               0.001702104               0.999999985              -0.000013869               0.001737318               0.999999985              -0.000030057               0.001770900               0.999999985              -0.000050882               0.001802105               0.999999985              -0.000077936               0.001830253               0.999999985               0.000000000               0.001387772               0.999999985               0.000000000               0.001418553               0.999999985              -0.000000000               0.001432935               0.999999985               0.000000000               0.001446590               0.999999985               0.000000000               0.001464133               0.999999985               0.000000000               0.001486764               0.999999985              -0.000000000               0.001514253               0.999999985              -0.000000000               0.001545653               0.999999985              -0.000000000               0.001579736               0.999999985              -0.000000000               0.001615668               0.999999985              -0.000000000               0.001652915               0.999999985               0.000000000               0.001691065               0.999999985               0.000000000               0.001729395               0.999999985              -0.000000000               0.001767007               0.999999985               0.000000000               0.001803196               0.999999985               0.000000000               0.001837230               0.999999985              -0.000000000               0.001868005               0.999999985 </DataArray>
<DataArray type="Float64"                                    Name="stress"                                                      NumberOfComponents="10" format="ascii">
              0.002230835               0.023891539              -0.000000000              -0.002149874               0.008680391               0.006530517               0.000000000               0.000000000               0.000000000               0.000000000               0.002129969               0.018359613               0.000000000              -0.001496209               0.006618546               0.005122337               0.000000000               0.000000000               0.000000000               0.000000000               0.002720177               0.013874641               0.000000000              -0.000714262               0.004862921               0.004148659               0.000000000               0.000000000               0.000000000               0.000000000               0.002484575               0.011360478              -0.000000000              -0.000488343               0.003949569               0.003461226               0.000000000               0.000000000               0.000000000               0.000000000               0.002026150               0.009782039               0.000000000              -0.000462947               0.003414963               0.002952016               0.000000000               0.000000000               0.000000000               0.000000000               0.001551225               0.008675329               0.000000000              -0.000502706               0.003059316               0.002556610               0.000000000               0.000000000               0.000000000               0.000000000               0.001128402               0.007813684              -0.000000000              -0.000553559               0.002789055               0.002235496               0.000000000               0.000000000               0.000000000               0.000000000               0.000782896               0.007084858               0.000000000              -0.000592020               0.002558936               0.001966916               0.000000000               0.000000000               0.000000000               0.000000000               0.000516466               0.006421287              -0.000000000              -0.000608985               0.002343403               0.001734418               0.000000000               0.000000000               0.000000000               0.000000000               0.000316566               0.005792127               0.000000000              -0.000605302               0.002132457               0.001527155               0.000000000               0.000000000               0.000000000               0.000000000               0.000166199               0.005172898               0.000000000              -0.000584286               0.001919044               0.001334758               0.000000000               0.000000000               0.000000000               0.000000000               0.000049804               0.004548522              -0.000000000              -0.000549887               0.001699455               0.001149567               0.000000000               0.000000000               0.000000000               0.000000000              -0.000037360               0.003910829               0.000000000              -0.000502862               0.001471218               0.000968355               0.000000000               0.000000000               0.000000000               0.000000000              -0.000087998               0.003239935               0.000000000              -0.000437990               0.001225964               0.000787974               0.000000000               0.000000000               0.000000000               0.000000000              -0.000099418               0.002507164              -0.000000000              -0.000350676               0.000952605               0.000601929               0.000000000               0.000000000               0.000000000               0.000000000              -0.000064280               0.001682988              -0.000000000              -0.000234478               0.000639150               0.000404672               0.000000000               0.000000000               0.000000000               0.000000000              -0.000101321               0.001050862              -0.000000000              -0.000169353               0.000406735               0.000237382               0.000000000               0.000000000               0.000000000               0.000000000               0.002296675               0.023382560              -0.001575185              -0.002061562               0.008481296               0.006419734               0.000000000               0.000000000               0.000000000               0.000000000               0.002064446               0.018037213              -0.000704694              -0.001480481               0.006505838               0.005025357               0.000000000               0.000000000               0.000000000               0.000000000               0.002516179               0.013752380               0.000155252              -0.000775478               0.004842574               0.004067095               0.000000000               0.000000000               0.000000000               0.000000000               0.002230758               0.011339445               0.000509387              -0.000580895               0.003973409               0.003392514               0.000000000               0.000000000               0.000000000               0.000000000               0.001765238               0.009807937               0.000644793              -0.000564027               0.003457289               0.002893262               0.000000000               0.000000000               0.000000000               0.000000000               0.001302756               0.008721235               0.000681609              -0.000601620               0.003107589               0.002505969               0.000000000               0.000000000               0.000000000               0.000000000               0.000905591               0.007872763               0.000674704              -0.000644497               0.002839060               0.002194563               0.000000000               0.000000000               0.000000000               0.000000000               0.000589796               0.007148821               0.000648105              -0.000672428               0.002607059               0.001934631               0.000000000               0.000000000               0.000000000               0.000000000               0.000349745               0.006493109               0.000613907              -0.000680483               0.002391176               0.001710693               0.000000000               0.000000000               0.000000000               0.000000000               0.000172847               0.005867942               0.000578453              -0.000668674               0.002178852               0.001510179               0.000000000               0.000000000               0.000000000               0.000000000               0.000044889               0.005256750               0.000542615              -0.000640259               0.001965652               0.001325393               0.000000000               0.000000000               0.000000000               0.000000000              -0.000050519               0.004645960               0.000507469              -0.000599688               0.001748534               0.001148846               0.000000000               0.000000000               0.000000000               0.000000000              -0.000112479               0.004029349               0.000465488              -0.000545847               0.001525052               0.000979205               0.000000000               0.000000000               0.000000000               0.000000000              -0.000138234               0.003390908               0.000402155              -0.000475700               0.001288858               0.000813158               0.000000000               0.000000000               0.000000000               0.000000000              -0.000126963               0.002708426               0.000310203              -0.000386163               0.001031521               0.000645357               0.000000000               0.000000000               0.000000000               0.000000000              -0.000074832               0.001967942               0.000178878              -0.000274054               0.000747326               0.000473271               0.000000000               0.000000000               0.000000000               0.000000000              -0.000096973               0.001417396               0.000111279              -0.000213539               0.000543640               0.000330101               0.000000000               0.000000000               0.000000000               0.000000000               0.002439575               0.021921831              -0.002910855              -0.001825385               0.007915665               0.006090280               0.000000000               0.000000000               0.000000000               0.000000000               0.001850446               0.017124852              -0.001298116              -0.001446686               0.006190455               0.004743769               0.000000000               0.000000000               0.000000000               0.000000000               0.001924142               0.013403422               0.000277269              -0.000953872               0.004785720               0.003831848               0.000000000               0.000000000               0.000000000               0.000000000               0.001514200               0.011265788               0.000900068              -0.000840397               0.004035357               0.003194961               0.000000000               0.000000000               0.000000000               0.000000000               0.001044831               0.009864003               0.001127178              -0.000841187               0.003568364               0.002727177               0.000000000               0.000000000               0.000000000               0.000000000               0.000635702               0.008838718               0.001183652              -0.000866450               0.003235026               0.002368577               0.000000000               0.000000000               0.000000000               0.000000000               0.000313561               0.008018059               0.001162657              -0.000884670               0.002967549               0.002082879               0.000000000               0.000000000               0.000000000               0.000000000               0.000074449               0.007310477               0.001107066              -0.000885889               0.002732098               0.001846208               0.000000000               0.000000000               0.000000000               0.000000000              -0.000093806               0.006664820               0.001037790              -0.000868278               0.002511010               0.001642732               0.000000000               0.000000000               0.000000000               0.000000000              -0.000202829               0.006054127               0.000967085              -0.000832825               0.002295630               0.001462805               0.000000000               0.000000000               0.000000000               0.000000000              -0.000270889               0.005466884               0.000898212              -0.000784942               0.002083924               0.001298981               0.000000000               0.000000000               0.000000000               0.000000000              -0.000309213               0.004895709               0.000828416              -0.000727917               0.001874526               0.001146609               0.000000000               0.000000000               0.000000000               0.000000000              -0.000308369               0.004336634               0.000746282              -0.000657716               0.001664769               0.001007053               0.000000000               0.000000000               0.000000000               0.000000000              -0.000272000               0.003780814               0.000628402              -0.000574600               0.001451792               0.000877192               0.000000000               0.000000000               0.000000000               0.000000000              -0.000205729               0.003225390               0.000470445              -0.000480321               0.001235226               0.000754905               0.000000000               0.000000000               0.000000000               0.000000000              -0.000110080               0.002680080               0.000263302              -0.000376289               0.001018781               0.000642492               0.000000000               0.000000000               0.000000000               0.000000000              -0.000094278               0.002308781               0.000157507              -0.000323951               0.000877570               0.000553618               0.000000000               0.000000000               0.000000000               0.000000000               0.002542711               0.019699083              -0.003830413              -0.001508867               0.007069251               0.005560383               0.000000000               0.000000000               0.000000000               0.000000000               0.001459840               0.015760599              -0.001707893              -0.001422632               0.005727691               0.004305059               0.000000000               0.000000000               0.000000000               0.000000000               0.001009734               0.012879066               0.000335092              -0.001231230               0.004703389               0.003472159               0.000000000               0.000000000               0.000000000               0.000000000               0.000465233               0.011133861               0.001094846              -0.001217268               0.004117006               0.002899738               0.000000000               0.000000000               0.000000000               0.000000000               0.000029287               0.009914282               0.001351859              -0.001228300               0.003714161               0.002485861               0.000000000               0.000000000               0.000000000               0.000000000              -0.000279812               0.008970790               0.001399711              -0.001226276               0.003398992               0.002172716               0.000000000               0.000000000               0.000000000               0.000000000              -0.000481193               0.008182977               0.001358680              -0.001203317               0.003128737               0.001925420               0.000000000               0.000000000               0.000000000               0.000000000              -0.000598328               0.007491905               0.001276757              -0.001160859               0.002884229               0.001723371               0.000000000               0.000000000               0.000000000               0.000000000              -0.000650730               0.006857129               0.001180441              -0.001101163               0.002652741               0.001551578               0.000000000               0.000000000               0.000000000               0.000000000              -0.000658369               0.006266929               0.001085804              -0.001030252               0.002432373               0.001402120               0.000000000               0.000000000               0.000000000               0.000000000              -0.000641522               0.005715289               0.000995928              -0.000954980               0.002223404               0.001268424               0.000000000               0.000000000               0.000000000               0.000000000              -0.000597909               0.005200862               0.000904925              -0.000874322               0.002025044               0.001150722               0.000000000               0.000000000               0.000000000               0.000000000              -0.000519454               0.004717249               0.000796495              -0.000784450               0.001833884               0.001049434               0.000000000               0.000000000               0.000000000               0.000000000              -0.000406228               0.004264967               0.000652818              -0.000685455               0.001650126               0.000964672               0.000000000               0.000000000               0.000000000               0.000000000              -0.000270161               0.003858888               0.000474852              -0.000583670               0.001480840               0.000897170               0.000000000               0.000000000               0.000000000               0.000000000              -0.000132260               0.003513452               0.000258670              -0.000488778               0.001334065               0.000845287               0.000000000               0.000000000               0.000000000               0.000000000              -0.000085315               0.003310058               0.000148914              -0.000445749               0.001251925               0.000806176               0.000000000               0.000000000               0.000000000               0.000000000               0.002473613               0.016993966              -0.004249738              -0.001196641               0.006063478               0.004866837               0.000000000               0.000000000               0.000000000               0.000000000               0.000883455               0.014124995              -0.001915298              -0.001434326               0.005186393               0.003752067               0.000000000               0.000000000               0.000000000               0.000000000              -0.000104515               0.012240470               0.000294604              -0.001569248               0.004603199               0.003033950               0.000000000               0.000000000               0.000000000               0.000000000              -0.000729477               0.010928464               0.001055856              -0.001639608               0.004189321               0.002549713               0.000000000               0.000000000               0.000000000               0.000000000              -0.001075720               0.009900081               0.001287969              -0.001640901               0.003846961               0.002206060               0.000000000               0.000000000               0.000000000               0.000000000              -0.001236683               0.009040486               0.001313786              -0.001593813               0.003544736               0.001950923               0.000000000               0.000000000               0.000000000               0.000000000              -0.001277522               0.008287278               0.001256730              -0.001514977               0.003267391               0.001752414               0.000000000               0.000000000               0.000000000               0.000000000              -0.001240143               0.007608211               0.001164578              -0.001416077               0.003008070               0.001591993               0.000000000               0.000000000               0.000000000               0.000000000              -0.001158691               0.006989582               0.001059766              -0.001308204               0.002765905               0.001457701               0.000000000               0.000000000               0.000000000               0.000000000              -0.001050765               0.006427448               0.000960854              -0.001197465               0.002541616               0.001344151               0.000000000               0.000000000               0.000000000               0.000000000              -0.000927412               0.005919875               0.000873611              -0.001087761               0.002335859               0.001248098               0.000000000               0.000000000               0.000000000               0.000000000              -0.000792386               0.005464181               0.000782062              -0.000980165               0.002148097               0.001167932               0.000000000               0.000000000               0.000000000               0.000000000              -0.000634434               0.005053440               0.000668691              -0.000869591               0.001974327               0.001104736               0.000000000               0.000000000               0.000000000               0.000000000              -0.000460515               0.004694920               0.000529784              -0.000759557               0.001818143               0.001058587               0.000000000               0.000000000               0.000000000               0.000000000              -0.000287989               0.004410141               0.000370442              -0.000659262               0.001689786               0.001030524               0.000000000               0.000000000               0.000000000               0.000000000              -0.000135229               0.004211742               0.000192479              -0.000577177               0.001596292               0.001019115               0.000000000               0.000000000               0.000000000               0.000000000              -0.000074077               0.004121272               0.000103713              -0.000542936               0.001554722               0.001011786               0.000000000               0.000000000               0.000000000               0.000000000               0.002104474               0.014095253              -0.004181572              -0.000972730               0.005022613               0.004049883               0.000000000               0.000000000               0.000000000               0.000000000               0.000120811               0.012397868              -0.001950295              -0.001504427               0.004634057               0.003129630               0.000000000               0.000000000               0.000000000               0.000000000              -0.001290274               0.011539295               0.000129354              -0.001926260               0.004488480               0.002562220               0.000000000               0.000000000               0.000000000               0.000000000              -0.001885602               0.010629842               0.000790083              -0.002035826               0.004221854               0.002186028               0.000000000               0.000000000               0.000000000               0.000000000              -0.002070468               0.009773273               0.000972764              -0.001998080               0.003923751               0.001925672               0.000000000               0.000000000               0.000000000               0.000000000              -0.002044962               0.008987850               0.000982509              -0.001890338               0.003626033               0.001735695               0.000000000               0.000000000               0.000000000               0.000000000              -0.001906135               0.008267204               0.000926641              -0.001748197               0.003338439               0.001590243               0.000000000               0.000000000               0.000000000               0.000000000              -0.001707684               0.007609578               0.000847732              -0.001591575               0.003067026               0.001475451               0.000000000               0.000000000               0.000000000               0.000000000              -0.001488897               0.007017340               0.000762760              -0.001435500               0.002817590               0.001382089               0.000000000               0.000000000               0.000000000               0.000000000              -0.001265504               0.006493872               0.000685130              -0.001286295               0.002593367               0.001307072               0.000000000               0.000000000               0.000000000               0.000000000              -0.001044446               0.006031032               0.000619623              -0.001145544               0.002392172               0.001246628               0.000000000               0.000000000               0.000000000               0.000000000              -0.000834412               0.005622545               0.000546865              -0.001015720               0.002212736               0.001197016               0.000000000               0.000000000               0.000000000               0.000000000              -0.000622592               0.005269469               0.000448672              -0.000892153               0.002053857               0.001161703               0.000000000               0.000000000               0.000000000               0.000000000              -0.000418537               0.004984162               0.000338269              -0.000779970               0.001921361               0.001141391               0.000000000               0.000000000               0.000000000               0.000000000              -0.000242947               0.004781228               0.000223681              -0.000688757               0.001823312               0.001134555               0.000000000               0.000000000               0.000000000               0.000000000              -0.000106704               0.004665213               0.000106967              -0.000623164               0.001762777               0.001139613               0.000000000               0.000000000               0.000000000               0.000000000              -0.000052353               0.004627747               0.000051233              -0.000598099               0.001741933               0.001143834               0.000000000               0.000000000               0.000000000               0.000000000               0.001362734               0.011243674              -0.003714007              -0.000894435               0.004045998               0.003151563               0.000000000               0.000000000               0.000000000               0.000000000              -0.000790024               0.010725394              -0.001872315              -0.001636930               0.004120739               0.002483808               0.000000000               0.000000000               0.000000000               0.000000000              -0.002422096               0.010810536              -0.000165923              -0.002259597               0.004356675               0.002097078               0.000000000               0.000000000               0.000000000               0.000000000              -0.002860405               0.010233647               0.000346620              -0.002351852               0.004195132               0.001843280               0.000000000               0.000000000               0.000000000               0.000000000              -0.002825339               0.009516424               0.000489203              -0.002249050               0.003921793               0.001672743               0.000000000               0.000000000               0.000000000               0.000000000              -0.002593496               0.008797027               0.000505610              -0.002072184               0.003623041               0.001550857               0.000000000               0.000000000               0.000000000               0.000000000              -0.002274000               0.008117175               0.000476926              -0.001867392               0.003328162               0.001460770               0.000000000               0.000000000               0.000000000               0.000000000              -0.001926759               0.007491704               0.000435676              -0.001658994               0.003050207               0.001391214               0.000000000               0.000000000               0.000000000               0.000000000              -0.001588152               0.006935691               0.000394225              -0.001462515               0.002799379               0.001336864               0.000000000               0.000000000               0.000000000               0.000000000              -0.001274484               0.006450833               0.000355412              -0.001284283               0.002578350               0.001294068               0.000000000               0.000000000               0.000000000               0.000000000              -0.000986160               0.006024475               0.000322225              -0.001122867               0.002382427               0.001259560               0.000000000               0.000000000               0.000000000               0.000000000              -0.000727257               0.005650559               0.000281276              -0.000979039               0.002209847               0.001230808               0.000000000               0.000000000               0.000000000               0.000000000              -0.000496328               0.005340320               0.000216863              -0.000853661               0.002064642               0.001210982               0.000000000               0.000000000               0.000000000               0.000000000              -0.000301910               0.005105519               0.000148306              -0.000751404               0.001952291               0.001200886               0.000000000               0.000000000               0.000000000               0.000000000              -0.000156985               0.004948760               0.000086876              -0.000677463               0.001875391               0.001197928               0.000000000               0.000000000               0.000000000               0.000000000              -0.000062235               0.004864007               0.000033869              -0.000631338               0.001831765               0.001200428               0.000000000               0.000000000               0.000000000               0.000000000              -0.000032060               0.004835091               0.000013135              -0.000616407               0.001817150               0.001200743               0.000000000               0.000000000               0.000000000               0.000000000               0.000276397               0.008615997              -0.002961061              -0.000973351               0.003196420               0.002223069               0.000000000               0.000000000               0.000000000               0.000000000              -0.001793808               0.009206862              -0.001741433              -0.001823532               0.003676767               0.001853235               0.000000000               0.000000000               0.000000000               0.000000000              -0.003385163               0.010055775              -0.000581311              -0.002526402               0.004194025               0.001667624               0.000000000               0.000000000               0.000000000               0.000000000              -0.003556751               0.009731937              -0.000205204              -0.002550267               0.004094036               0.001543768               0.000000000               0.000000000               0.000000000               0.000000000              -0.003274267               0.009132320              -0.000064690              -0.002369384               0.003833871               0.001464487               0.000000000               0.000000000               0.000000000               0.000000000              -0.002844084               0.008482824              -0.000008957              -0.002126879               0.003536540               0.001409660               0.000000000               0.000000000               0.000000000               0.000000000              -0.002370011               0.007855072               0.000012260              -0.001870633               0.003241875               0.001371242               0.000000000               0.000000000               0.000000000               0.000000000              -0.001905948               0.007276504               0.000024795              -0.001624289               0.002966907               0.001342618               0.000000000               0.000000000               0.000000000               0.000000000              -0.001483853               0.006762390               0.000038980              -0.001401740               0.002721354               0.001319614               0.000000000               0.000000000               0.000000000               0.000000000              -0.001115542               0.006307683               0.000047989              -0.001206786               0.002504802               0.001298016               0.000000000               0.000000000               0.000000000               0.000000000              -0.000796898               0.005908683               0.000052096              -0.001037420               0.002315348               0.001277928               0.000000000               0.000000000               0.000000000               0.000000000              -0.000528710               0.005564351               0.000049050              -0.000893808               0.002152701               0.001258893               0.000000000               0.000000000               0.000000000               0.000000000              -0.000314834               0.005287940               0.000030247              -0.000779053               0.002022313               0.001243260               0.000000000               0.000000000               0.000000000               0.000000000              -0.000158687               0.005094839               0.000012206              -0.000696361               0.001930383               0.001234022               0.000000000               0.000000000               0.000000000               0.000000000              -0.000062550               0.004977844               0.000004974              -0.000645685               0.001874493               0.001228808               0.000000000               0.000000000               0.000000000               0.000000000              -0.000016795               0.004921789               0.000000341              -0.000621520               0.001847753               0.001226233               0.000000000               0.000000000               0.000000000               0.000000000              -0.000011058               0.004903383               0.000000721              -0.000617068               0.001840134               0.001223066               0.000000000               0.000000000               0.000000000               0.000000000              -0.001007491               0.006397565              -0.002050924              -0.001177503               0.002525001               0.001347498               0.000000000               0.000000000               0.000000000               0.000000000              -0.002771105               0.007845847              -0.001603836              -0.002019891               0.003288553               0.001268662               0.000000000               0.000000000               0.000000000               0.000000000              -0.004136328               0.009287966              -0.001083070              -0.002712112               0.003999995               0.001287883               0.000000000               0.000000000               0.000000000               0.000000000              -0.004027871               0.009227945              -0.000792242              -0.002663938               0.003963930               0.001299992               0.000000000               0.000000000               0.000000000               0.000000000              -0.003538464               0.008775997              -0.000619365              -0.002423918               0.003733276               0.001309358               0.000000000               0.000000000               0.000000000               0.000000000              -0.002949752               0.008221656              -0.000503799              -0.002133859               0.003451811               0.001317952               0.000000000               0.000000000               0.000000000               0.000000000              -0.002356795               0.007662423              -0.000418792              -0.001841597               0.003167981               0.001326385               0.000000000               0.000000000               0.000000000               0.000000000              -0.001808881               0.007138464              -0.000346988              -0.001570635               0.002903009               0.001332374               0.000000000               0.000000000               0.000000000               0.000000000              -0.001332490               0.006661284              -0.000282422              -0.001332341               0.002664519               0.001332179               0.000000000               0.000000000               0.000000000               0.000000000              -0.000933374               0.006226119              -0.000227519              -0.001128277               0.002451445               0.001323167               0.000000000               0.000000000               0.000000000               0.000000000              -0.000599469               0.005842162              -0.000181979              -0.000955069               0.002265724               0.001310656               0.000000000               0.000000000               0.000000000               0.000000000              -0.000337306               0.005509584              -0.000142084              -0.000815186               0.002108238               0.001293052               0.000000000               0.000000000               0.000000000               0.000000000              -0.000150504               0.005249554              -0.000106308              -0.000712632               0.001987378               0.001274746               0.000000000               0.000000000               0.000000000               0.000000000              -0.000031087               0.005084152              -0.000066644              -0.000647175               0.001910426               0.001263251               0.000000000               0.000000000               0.000000000               0.000000000               0.000024051               0.004997639              -0.000026084              -0.000615684               0.001871091               0.001255407               0.000000000               0.000000000               0.000000000               0.000000000               0.000030161               0.004963820               0.000000544              -0.000609166               0.001857645               0.001248480               0.000000000               0.000000000               0.000000000               0.000000000               0.000022460               0.004959210               0.000008758              -0.000611477               0.001856879               0.001245402               0.000000000               0.000000000               0.000000000               0.000000000              -0.002482210               0.004337334              -0.001102085              -0.001472992               0.001936761               0.000463768               0.000000000               0.000000000               0.000000000               0.000000000              -0.003586286               0.006251971              -0.001453964              -0.002126349               0.002792752               0.000666403               0.000000000               0.000000000               0.000000000               0.000000000              -0.004581496               0.008124600              -0.001607883              -0.002733629               0.003619383               0.000885753               0.000000000               0.000000000               0.000000000               0.000000000              -0.004324935               0.008470800              -0.001408106              -0.002680694               0.003717137               0.001036442               0.000000000               0.000000000               0.000000000               0.000000000              -0.003753987               0.008304347              -0.001200307              -0.002445783               0.003583349               0.001137566               0.000000000               0.000000000               0.000000000               0.000000000              -0.003113821               0.007959240              -0.001024218              -0.002162583               0.003373914               0.001211332               0.000000000               0.000000000               0.000000000               0.000000000              -0.002485168               0.007549925              -0.000873631              -0.001875674               0.003141841               0.001266167               0.000000000               0.000000000               0.000000000               0.000000000              -0.001905147               0.007128584              -0.000744327              -0.001605499               0.002911337               0.001305838               0.000000000               0.000000000               0.000000000               0.000000000              -0.001395802               0.006718383              -0.000632606              -0.001363220               0.002693845               0.001330625               0.000000000               0.000000000               0.000000000               0.000000000              -0.000964300               0.006328622              -0.000534870              -0.001152688               0.002493749               0.001341061               0.000000000               0.000000000               0.000000000               0.000000000              -0.000609646               0.005963662              -0.000444318              -0.000974073               0.002312558               0.001338486               0.000000000               0.000000000               0.000000000               0.000000000              -0.000329193               0.005634301              -0.000353643              -0.000827733               0.002153993               0.001326260               0.000000000               0.000000000               0.000000000               0.000000000              -0.000124263               0.005360959              -0.000260176              -0.000716717               0.002025874               0.001309157               0.000000000               0.000000000               0.000000000               0.000000000               0.000005279               0.005164637              -0.000164161              -0.000643598               0.001936061               0.001292463               0.000000000               0.000000000               0.000000000               0.000000000               0.000065427               0.005043564              -0.000079200              -0.000605909               0.001883141               0.001277232               0.000000000               0.000000000               0.000000000               0.000000000               0.000078272               0.004996455              -0.000023506              -0.000595203               0.001863869               0.001268666               0.000000000               0.000000000               0.000000000               0.000000000               0.000071349               0.004990787              -0.000002581              -0.000597091               0.001862609               0.001265518               0.000000000               0.000000000               0.000000000               0.000000000              -0.004344816               0.002480037              -0.000184720              -0.001939307               0.001473105              -0.000466202               0.000000000               0.000000000               0.000000000               0.000000000              -0.004502599               0.004643326              -0.001239200              -0.002268885               0.002304054               0.000035169               0.000000000               0.000000000               0.000000000               0.000000000              -0.004937352               0.006741956              -0.002028019              -0.002694245               0.003145377               0.000451132               0.000000000               0.000000000               0.000000000               0.000000000              -0.004550173               0.007473746              -0.001991095              -0.002640527               0.003371399               0.000730872               0.000000000               0.000000000               0.000000000               0.000000000              -0.003938337               0.007637063              -0.001786559              -0.002431504               0.003356163               0.000924660               0.000000000               0.000000000               0.000000000               0.000000000              -0.003281550               0.007543328              -0.001568209              -0.002173492               0.003238914               0.001065422               0.000000000               0.000000000               0.000000000               0.000000000              -0.002642654               0.007325789              -0.001366288              -0.001906714               0.003077476               0.001170762               0.000000000               0.000000000               0.000000000               0.000000000              -0.002040047               0.007047954              -0.001190033              -0.001646008               0.002897964               0.001251956               0.000000000               0.000000000               0.000000000               0.000000000              -0.001497021               0.006734165              -0.001037676              -0.001403150               0.002712416               0.001309266               0.000000000               0.000000000               0.000000000               0.000000000              -0.001028089               0.006409267              -0.000900162              -0.001186689               0.002531964               0.001345275               0.000000000               0.000000000               0.000000000               0.000000000              -0.000636387               0.006090289              -0.000767957              -0.000999929               0.002363386               0.001363457               0.000000000               0.000000000               0.000000000               0.000000000              -0.000314660               0.005786720              -0.000636812              -0.000841336               0.002209332               0.001367997               0.000000000               0.000000000               0.000000000               0.000000000              -0.000062588               0.005509163              -0.000498244              -0.000712114               0.002073740               0.001361626               0.000000000               0.000000000               0.000000000               0.000000000               0.000116724               0.005279817              -0.000349042              -0.000616204               0.001965323               0.001349118               0.000000000               0.000000000               0.000000000               0.000000000               0.000214868               0.005113216              -0.000204470              -0.000558575               0.001890580               0.001332005               0.000000000               0.000000000               0.000000000               0.000000000               0.000235403               0.005027681              -0.000087343              -0.000540183               0.001855938               0.001315755               0.000000000               0.000000000               0.000000000               0.000000000               0.000211799               0.004996269              -0.000031773              -0.000545107               0.001847109               0.001302001               0.000000000               0.000000000               0.000000000               0.000000000              -0.006472898               0.000976483               0.000613710              -0.002549394               0.001175284              -0.001374110               0.000000000               0.000000000               0.000000000               0.000000000              -0.005560347               0.003127524              -0.000948329              -0.002476066               0.001867851              -0.000608216               0.000000000               0.000000000               0.000000000               0.000000000              -0.005226342               0.005162289              -0.002233577              -0.002605159               0.002589131              -0.000016028               0.000000000               0.000000000               0.000000000               0.000000000              -0.004620121               0.006161248              -0.002396800              -0.002502696               0.002887960               0.000385264               0.000000000               0.000000000               0.000000000               0.000000000              -0.003954920               0.006624009              -0.002249879              -0.002311091               0.002978344               0.000667253               0.000000000               0.000000000               0.000000000               0.000000000              -0.003291446               0.006795284              -0.002027995              -0.002083698               0.002959638               0.000875939               0.000000000               0.000000000               0.000000000               0.000000000              -0.002651229               0.006802352              -0.001805078              -0.001844501               0.002882261               0.001037760               0.000000000               0.000000000               0.000000000               0.000000000              -0.002048696               0.006699775              -0.001603488              -0.001605730               0.002768479               0.001162749               0.000000000               0.000000000               0.000000000               0.000000000              -0.001492670               0.006524886              -0.001422965              -0.001375359               0.002633393               0.001258034               0.000000000               0.000000000               0.000000000               0.000000000              -0.000996659               0.006305767              -0.001256415              -0.001161966               0.002489223               0.001327257               0.000000000               0.000000000               0.000000000               0.000000000              -0.000564151               0.006067851              -0.001099456              -0.000970036               0.002345942               0.001375906               0.000000000               0.000000000               0.000000000               0.000000000              -0.000194383               0.005826575              -0.000942899              -0.000801214               0.002209243               0.001408030               0.000000000               0.000000000               0.000000000               0.000000000               0.000112360               0.005586650              -0.000776067              -0.000656195               0.002080930               0.001424735               0.000000000               0.000000000               0.000000000               0.000000000               0.000351989               0.005361864              -0.000589643              -0.000538236               0.001966682               0.001428446               0.000000000               0.000000000               0.000000000               0.000000000               0.000510843               0.005181283              -0.000385333              -0.000456093               0.001879108               0.001423015               0.000000000               0.000000000               0.000000000               0.000000000               0.000567922               0.005066899              -0.000184241              -0.000420390               0.001829080               0.001408689               0.000000000               0.000000000               0.000000000               0.000000000               0.000547037               0.005014456              -0.000082014              -0.000421667               0.001812024               0.001390357               0.000000000               0.000000000               0.000000000               0.000000000              -0.008718924              -0.000096888               0.001166502              -0.003257483               0.001053524              -0.002203959               0.000000000               0.000000000               0.000000000               0.000000000              -0.006697222               0.001787399              -0.000631921              -0.002734880               0.001507416              -0.001227464               0.000000000               0.000000000               0.000000000               0.000000000              -0.005469670               0.003521077              -0.002193963              -0.002491257               0.002004097              -0.000487160               0.000000000               0.000000000               0.000000000               0.000000000              -0.004562770               0.004642716              -0.002530541              -0.002291374               0.002311346               0.000019973               0.000000000               0.000000000               0.000000000               0.000000000              -0.003807727               0.005339803              -0.002468923              -0.002095369               0.002478372               0.000383003               0.000000000               0.000000000               0.000000000               0.000000000              -0.003130260               0.005759364              -0.002284819              -0.001893764               0.002551023               0.000657259               0.000000000               0.000000000               0.000000000               0.000000000              -0.002498726               0.005992617              -0.002073201              -0.001686096               0.002559551               0.000873454               0.000000000               0.000000000               0.000000000               0.000000000              -0.001912426               0.006087345              -0.001869308              -0.001478075               0.002521786               0.001043711               0.000000000               0.000000000               0.000000000               0.000000000              -0.001362970               0.006081024              -0.001683313              -0.001271239               0.002450734               0.001179494               0.000000000               0.000000000               0.000000000               0.000000000              -0.000849187               0.005996785              -0.001512058              -0.001068041               0.002354922               0.001286881               0.000000000               0.000000000               0.000000000               0.000000000              -0.000376398               0.005865960              -0.001349018              -0.000874393               0.002246764               0.001372372               0.000000000               0.000000000               0.000000000               0.000000000               0.000049769               0.005715077              -0.001186027              -0.000695720               0.002136913               0.001441193               0.000000000               0.000000000               0.000000000               0.000000000               0.000429175               0.005551593              -0.001012459              -0.000533008               0.002028182               0.001495174               0.000000000               0.000000000               0.000000000               0.000000000               0.000754435               0.005383356              -0.000809320              -0.000390006               0.001924436               0.001534430               0.000000000               0.000000000               0.000000000               0.000000000               0.001011823               0.005228120              -0.000566001              -0.000274081               0.001834050               0.001559969               0.000000000               0.000000000               0.000000000               0.000000000               0.001173382               0.005102208              -0.000289981              -0.000197757               0.001766638               0.001568881               0.000000000               0.000000000               0.000000000               0.000000000               0.001220639               0.005045175              -0.000145379              -0.000172907               0.001739344               0.001566437               0.000000000               0.000000000               0.000000000               0.000000000              -0.010862120              -0.000768015               0.001372271              -0.003977290               0.001069751              -0.002907540               0.000000000               0.000000000               0.000000000               0.000000000              -0.007816894               0.000695531              -0.000351654              -0.003018274               0.001237926              -0.001780347               0.000000000               0.000000000               0.000000000               0.000000000              -0.005681924               0.001985015              -0.001906649              -0.002378845               0.001454610              -0.000924236               0.000000000               0.000000000               0.000000000               0.000000000              -0.004422982               0.003101517              -0.002332402              -0.002046304               0.001715928              -0.000330377               0.000000000               0.000000000               0.000000000               0.000000000              -0.003541607               0.003947287              -0.002349349              -0.001821510               0.001922918               0.000101408               0.000000000               0.000000000               0.000000000               0.000000000              -0.002832811               0.004563748              -0.002223242              -0.001632769               0.002065490               0.000432720               0.000000000               0.000000000               0.000000000               0.000000000              -0.002211000               0.004994669              -0.002046743              -0.001453456               0.002149357               0.000695902               0.000000000               0.000000000               0.000000000               0.000000000              -0.001643550               0.005275191              -0.001866280              -0.001275728               0.002183622               0.000907894               0.000000000               0.000000000               0.000000000               0.000000000              -0.001106398               0.005435087              -0.001700760              -0.001094283               0.002176438               0.001082155               0.000000000               0.000000000               0.000000000               0.000000000              -0.000585885               0.005497905              -0.001547943              -0.000906944               0.002134931               0.001227987               0.000000000               0.000000000               0.000000000               0.000000000              -0.000082804               0.005494684              -0.001400721              -0.000717886               0.002070838               0.001352952               0.000000000               0.000000000               0.000000000               0.000000000               0.000400063               0.005454521              -0.001255239              -0.000531791               0.001995419               0.001463628               0.000000000               0.000000000               0.000000000               0.000000000               0.000860151               0.005391922              -0.001098314              -0.000351433               0.001914434               0.001563000               0.000000000               0.000000000               0.000000000               0.000000000               0.001295395               0.005315042              -0.000908049              -0.000178607               0.001831199               0.001652591               0.000000000               0.000000000               0.000000000               0.000000000               0.001697360               0.005219219              -0.000665981              -0.000015893               0.001745020               0.001729127               0.000000000               0.000000000               0.000000000               0.000000000               0.002045053               0.005112440              -0.000359544               0.000127838               0.001661517               0.001789355               0.000000000               0.000000000               0.000000000               0.000000000               0.002245237               0.005076614              -0.000198486               0.000207385               0.001623059               0.001830445               0.000000000               0.000000000               0.000000000               0.000000000              -0.012649010              -0.001117900               0.001199737              -0.004603638               0.001161905              -0.003441734               0.000000000               0.000000000               0.000000000               0.000000000              -0.008779820              -0.000095209              -0.000152540              -0.003280529               0.001061766              -0.002218763               0.000000000               0.000000000               0.000000000               0.000000000              -0.005861431               0.000730965              -0.001404222              -0.002289405               0.001006783              -0.001282622               0.000000000               0.000000000               0.000000000               0.000000000              -0.004260803               0.001755777              -0.001795931              -0.001817270               0.001191007              -0.000626264               0.000000000               0.000000000               0.000000000               0.000000000              -0.003237003               0.002669471              -0.001852426              -0.001547557               0.001405666              -0.000141892               0.000000000               0.000000000               0.000000000               0.000000000              -0.002485309               0.003416522              -0.001780781              -0.001359053               0.001591846               0.000232793               0.000000000               0.000000000               0.000000000               0.000000000              -0.001864344               0.003995174              -0.001656190              -0.001198523               0.001731219               0.000532695               0.000000000               0.000000000               0.000000000               0.000000000              -0.001308422               0.004422949              -0.001521580              -0.001043525               0.001822143               0.000778618               0.000000000               0.000000000               0.000000000               0.000000000              -0.000786602               0.004721827              -0.001397681              -0.000885202               0.001868994               0.000983791               0.000000000               0.000000000               0.000000000               0.000000000              -0.000276308               0.004925409              -0.001282373              -0.000719290               0.001881550               0.001162259               0.000000000               0.000000000               0.000000000               0.000000000               0.000242161               0.005060661              -0.001170884              -0.000541772               0.001867461               0.001325689               0.000000000               0.000000000               0.000000000               0.000000000               0.000769092               0.005142047              -0.001061385              -0.000354346               0.001832114               0.001477768               0.000000000               0.000000000               0.000000000               0.000000000               0.001303543               0.005187060              -0.000944954              -0.000159554               0.001782187               0.001622633               0.000000000               0.000000000               0.000000000               0.000000000               0.001852415               0.005199930              -0.000802444               0.000044663               0.001718405               0.001763068               0.000000000               0.000000000               0.000000000               0.000000000               0.002414976               0.005167026              -0.000609944               0.000259735               0.001635746               0.001895481               0.000000000               0.000000000               0.000000000               0.000000000               0.002991564               0.005094742              -0.000341347               0.000484989               0.001536567               0.002021556               0.000000000               0.000000000               0.000000000               0.000000000               0.003397269               0.005093848              -0.000200139               0.000637238               0.001485520               0.002122758               0.000000000               0.000000000               0.000000000               0.000000000              -0.013845917              -0.001255577               0.000697567              -0.005035268               0.001259889              -0.003775380               0.000000000               0.000000000               0.000000000               0.000000000              -0.009438962              -0.000565082              -0.000045680              -0.003468973               0.000967957              -0.002501016               0.000000000               0.000000000               0.000000000               0.000000000              -0.005985312              -0.000092283              -0.000744231              -0.002232955               0.000713552              -0.001519403               0.000000000               0.000000000               0.000000000               0.000000000              -0.004132711               0.000829740              -0.000978337              -0.001653482               0.000827735              -0.000825747               0.000000000               0.000000000               0.000000000               0.000000000              -0.002996555               0.001757996              -0.001023621              -0.001343455               0.001033810              -0.000309646               0.000000000               0.000000000               0.000000000               0.000000000              -0.002205426               0.002576012              -0.000993095              -0.001149034               0.001241673               0.000092639               0.000000000               0.000000000               0.000000000               0.000000000              -0.001583292               0.003247767              -0.000930633              -0.000999703               0.001415812               0.000416109               0.000000000               0.000000000               0.000000000               0.000000000              -0.001039067               0.003769608              -0.000860522              -0.000860849               0.001543473               0.000682624               0.000000000               0.000000000               0.000000000               0.000000000              -0.000531830               0.004163034              -0.000791999              -0.000719814               0.001627602               0.000907788               0.000000000               0.000000000               0.000000000               0.000000000              -0.000030682               0.004468939              -0.000729326              -0.000570122               0.001679672               0.001109550               0.000000000               0.000000000               0.000000000               0.000000000               0.000489715               0.004712851              -0.000670615              -0.000405462               0.001706089               0.001300626               0.000000000               0.000000000               0.000000000               0.000000000               0.001041700               0.004898550              -0.000610480              -0.000221681               0.001706727               0.001485046               0.000000000               0.000000000               0.000000000               0.000000000               0.001630610               0.005029050              -0.000548633              -0.000017153               0.001682051               0.001664898               0.000000000               0.000000000               0.000000000               0.000000000               0.002264567               0.005101847              -0.000473168               0.000211480               0.001630105               0.001841585               0.000000000               0.000000000               0.000000000               0.000000000               0.002957153               0.005112644              -0.000366437               0.000469847               0.001547582               0.002017429               0.000000000               0.000000000               0.000000000               0.000000000               0.003734425               0.005070574              -0.000209789               0.000766580               0.001434648               0.002201228               0.000000000               0.000000000               0.000000000               0.000000000               0.004329430               0.005102282              -0.000128409               0.000985741               0.001372163               0.002357904               0.000000000               0.000000000               0.000000000               0.000000000              -0.014269074              -0.001287599               0.000000000              -0.005189949               0.001300775              -0.003889175               0.000000000               0.000000000               0.000000000               0.000000000              -0.009673856              -0.000719654              -0.000000000              -0.003537737               0.000939355              -0.002598382               0.000000000               0.000000000               0.000000000               0.000000000              -0.006029079              -0.000379240               0.000000000              -0.002213498               0.000611415              -0.001602083               0.000000000               0.000000000               0.000000000               0.000000000              -0.004083394               0.000497346               0.000000000              -0.001593439               0.000696923              -0.000896516               0.000000000               0.000000000               0.000000000               0.000000000              -0.002904824               0.001425151               0.000000000              -0.001267451               0.000897528              -0.000369923               0.000000000               0.000000000               0.000000000               0.000000000              -0.002097429               0.002268911              -0.000000000              -0.001070147               0.001113012               0.000042864               0.000000000               0.000000000               0.000000000               0.000000000              -0.001474353               0.002975798              -0.000000000              -0.000924855               0.001300208               0.000375353               0.000000000               0.000000000               0.000000000               0.000000000              -0.000938262               0.003528092               0.000000000              -0.000792858               0.001440305               0.000647447               0.000000000               0.000000000               0.000000000               0.000000000              -0.000439274               0.003949856              -0.000000000              -0.000658458               0.001536092               0.000877633               0.000000000               0.000000000               0.000000000               0.000000000               0.000062760               0.004290720               0.000000000              -0.000512804               0.001601160               0.001088356               0.000000000               0.000000000               0.000000000               0.000000000               0.000582525               0.004576794               0.000000000              -0.000353651               0.001643466               0.001289815               0.000000000               0.000000000               0.000000000               0.000000000               0.001140625               0.004807069              -0.000000000              -0.000173149               0.001660057               0.001486908               0.000000000               0.000000000               0.000000000               0.000000000               0.001747823               0.004967679              -0.000000000               0.000034473               0.001644385               0.001678859               0.000000000               0.000000000               0.000000000               0.000000000               0.002412164               0.005059419               0.000000000               0.000272131               0.001595746               0.001867877               0.000000000               0.000000000               0.000000000               0.000000000               0.003158540               0.005093364               0.000000000               0.000547777               0.001515179               0.002062955               0.000000000               0.000000000               0.000000000               0.000000000               0.004020069               0.005066906              -0.000000000               0.000874154               0.001397567               0.002271721               0.000000000               0.000000000               0.000000000               0.000000000               0.004693469               0.005110344              -0.000000000               0.001121247               0.001329682               0.002450929               0.000000000               0.000000000               0.000000000               0.000000000               0.000000000               0.000000000               0.000000000               0.000000000               0.000000000               0.000000000               0.000000000               0.000000000               0.000000000               0.000000000               0.000000000               0.000000000               0.000000000               0.000000000               0.000000000               0.000000000               0.000000000               0.000000000               0.000000000               0.000000000               0.000000000               0.000000000               0.000000000               0.000000000               0.000000000               0.000000000               0.000000000               0.000000000               0.000000000               0.000000000               0.000000000               0.000000000               0.000000000               0.000000000               0.000000000               0.000000000               0.000000000               0.000000000               0.000000000               0.000000000               0.000000000               0.000000000               0.000000000               0.000000000               0.000000000               0.000000000               0.000000000               0.000000000               0.000000000               0.000000000               0.000000000               0.000000000               0.000000000               0.000000000               0.000000000               0.000000000               0.000000000               0.000000000               0.000000000               0.000000000               0.000000000               0.000000000               0.000000000               0.000000000               0.000000000               0.000000000               0.000000000               0.000000000               0.000000000               0.000000000               0.000000000               0.000000000               0.000000000               0.000000000               0.000000000               0.000000000               0.000000000               0.000000000               0.000000000               0.000000000               0.000000000               0.000000000               0.000000000               0.000000000               0.000000000               0.000000000               0.000000000               0.000000000               0.000000000               0.000000000               0.000000000               0.000000000               0.000000000               0.000000000               0.000000000               0.000000000               0.000000000               0.000000000               0.000000000               0.000000000               0.000000000               0.000000000               0.000000000               0.000000000               0.000000000               0.000000000               0.000000000               0.000000000               0.000000000               0.000000000               0.000000000               0.000000000               0.000000000               0.000000000               0.000000000               0.000000000               0.000000000               0.000000000               0.000000000               0.000000000               0.000000000               0.000000000               0.000000000               0.000000000               0.000000000               0.000000000               0.000000000               0.000000000               0.000000000               0.000000000               0.000000000               0.000000000               0.000000000               0.000000000               0.000000000               0.000000000               0.000000000               0.000000000               0.000000000               0.000000000               0.000000000               0.000000000               0.000000000               0.000000000               0.000000000               0.000000000               0.000000000               0.000000000               0.000000000               0.000000000               0.000000000               0.000000000               0.000000000               0.000000000               0.000000000               0.000000000               0.000000000               0.000000000               0.000000000               0.000000000               0.000000000               0.000000000               0.000000000               0.000000000               0.000000000               0.000000000               0.000000000               0.000000000               0.000000000               0.000000000               0.002296675               0.023382560               0.001575185              -0.002061562               0.008481296               0.006419734               0.000000000               0.000000000               0.000000000               0.000000000               0.002064446               0.018037213               0.000704694              -0.001480481               0.006505838               0.005025357               0.000000000               0.000000000               0.000000000               0.000000000               0.002516179               0.013752380              -0.000155252              -0.000775478               0.004842574               0.004067095               0.000000000               0.000000000               0.000000000               0.000000000               0.002230758               0.011339445              -0.000509387              -0.000580895               0.003973409               0.003392514               0.000000000               0.000000000               0.000000000               0.000000000               0.001765238               0.009807937              -0.000644793              -0.000564027               0.003457289               0.002893262               0.000000000               0.000000000               0.000000000               0.000000000               0.001302756               0.008721235              -0.000681609              -0.000601620               0.003107589               0.002505969               0.000000000               0.000000000               0.000000000               0.000000000               0.000905591               0.007872763              -0.000674704              -0.000644497               0.002839060               0.002194563               0.000000000               0.000000000               0.000000000               0.000000000               0.000589796               0.007148821              -0.000648105              -0.000672428               0.002607059               0.001934631               0.000000000               0.000000000               0.000000000               0.000000000               0.000349745               0.006493109              -0.000613907              -0.000680483               0.002391176               0.001710693               0.000000000               0.000000000               0.000000000               0.000000000               0.000172847               0.005867942              -0.000578453              -0.000668674               0.002178852               0.001510179               0.000000000               0.000000000               0.000000000               0.000000000               0.000044889               0.005256750              -0.000542615              -0.000640259               0.001965652               0.001325393               0.000000000               0.000000000               0.000000000               0.000000000              -0.000050519               0.004645960              -0.000507469              -0.000599688               0.001748534               0.001148846               0.000000000               0.000000000               0.000000000               0.000000000              -0.000112479               0.004029349              -0.000465488              -0.000545847               0.001525052               0.000979205               0.000000000               0.000000000               0.000000000               0.000000000              -0.000138234               0.003390908              -0.000402155              -0.000475700               0.001288858               0.000813158               0.000000000               0.000000000               0.000000000               0.000000000              -0.000126963               0.002708426              -0.000310203              -0.000386163               0.001031521               0.000645357               0.000000000               0.000000000               0.000000000               0.000000000              -0.000074832               0.001967942              -0.000178878              -0.000274054               0.000747326               0.000473271               0.000000000               0.000000000               0.000000000               0.000000000              -0.000096973               0.001417396              -0.000111279              -0.000213539               0.000543640               0.000330101               0.000000000               0.000000000               0.000000000               0.000000000               0.002439575               0.021921831               0.002910855              -0.001825385               0.007915665               0.006090280               0.000000000               0.000000000               0.000000000               0.000000000               0.001850446               0.017124852               0.001298116              -0.001446686               0.006190455               0.004743769               0.000000000               0.000000000               0.000000000               0.000000000               0.001924142               0.013403422              -0.000277269              -0.000953872               0.004785720               0.003831848               0.000000000               0.000000000               0.000000000               0.000000000               0.001514200               0.011265788              -0.000900068              -0.000840397               0.004035357               0.003194961               0.000000000               0.000000000               0.000000000               0.000000000               0.001044831               0.009864003              -0.001127178              -0.000841187               0.003568364               0.002727177               0.000000000               0.000000000               0.000000000               0.000000000               0.000635702               0.008838718              -0.001183652              -0.000866450               0.003235026               0.002368577               0.000000000               0.000000000               0.000000000               0.000000000               0.000313561               0.008018059              -0.001162657              -0.000884670               0.002967549               0.002082879               0.000000000               0.000000000               0.000000000               0.000000000               0.000074449               0.007310477              -0.001107066              -0.000885889               0.002732098               0.001846208               0.000000000               0.000000000               0.000000000               0.000000000              -0.000093806               0.006664820              -0.001037790              -0.000868278               0.002511010               0.001642732               0.000000000               0.000000000               0.000000000               0.000000000              -0.000202829               0.006054127              -0.000967085              -0.000832825               0.002295630               0.001462805               0.000000000               0.000000000               0.000000000               0.000000000              -0.000270889               0.005466884              -0.000898212              -0.000784942               0.002083924               0.001298981               0.000000000               0.000000000               0.000000000               0.000000000              -0.000309213               0.004895709              -0.000828416              -0.000727917               0.001874526               0.001146609               0.000000000               0.000000000               0.000000000               0.000000000              -0.000308369               0.004336634              -0.000746282              -0.000657716               0.001664769               0.001007053               0.000000000               0.000000000               0.000000000               0.000000000              -0.000272000               0.003780814              -0.000628402              -0.000574600               0.001451792               0.000877192               0.000000000               0.000000000               0.000000000               0.000000000              -0.000205729               0.003225390              -0.000470445              -0.000480321               0.001235226               0.000754905               0.000000000               0.000000000               0.000000000               0.000000000              -0.000110080               0.002680080              -0.000263302              -0.000376289               0.001018781               0.000642492               0.000000000               0.000000000               0.000000000               0.000000000              -0.000094278               0.002308781              -0.000157507              -0.000323951               0.000877570               0.000553618               0.000000000               0.000000000               0.000000000               0.000000000               0.002542711               0.019699083               0.003830413              -0.001508867               0.007069251               0.005560383               0.000000000               0.000000000               0.000000000               0.000000000               0.001459840               0.015760599               0.001707893              -0.001422632               0.005727691               0.004305059               0.000000000               0.000000000               0.000000000               0.000000000               0.001009734               0.012879066              -0.000335092              -0.001231230               0.004703389               0.003472159               0.000000000               0.000000000               0.000000000               0.000000000               0.000465233               0.011133861              -0.001094846              -0.001217268               0.004117006               0.002899738               0.000000000               0.000000000               0.000000000               0.000000000               0.000029287               0.009914282              -0.001351859              -0.001228300               0.003714161               0.002485861               0.000000000               0.000000000               0.000000000               0.000000000              -0.000279812               0.008970790              -0.001399711              -0.001226276               0.003398992               0.002172716               0.000000000               0.000000000               0.000000000               0.000000000              -0.000481193               0.008182977              -0.001358680              -0.001203317               0.003128737               0.001925420               0.000000000               0.000000000               0.000000000               0.000000000              -0.000598328               0.007491905              -0.001276757              -0.001160859               0.002884229               0.001723371               0.000000000               0.000000000               0.000000000               0.000000000              -0.000650730               0.006857129              -0.001180441              -0.001101163               0.002652741               0.001551578               0.000000000               0.000000000               0.000000000               0.000000000              -0.000658369               0.006266929              -0.001085804              -0.001030252               0.002432373               0.001402120               0.000000000               0.000000000               0.000000000               0.000000000              -0.000641522               0.005715289              -0.000995928              -0.000954980               0.002223404               0.001268424               0.000000000               0.000000000               0.000000000               0.000000000              -0.000597909               0.005200862              -0.000904925              -0.000874322               0.002025044               0.001150722               0.000000000               0.000000000               0.000000000               0.000000000              -0.000519454               0.004717249              -0.000796495              -0.000784450               0.001833884               0.001049434               0.000000000               0.000000000               0.000000000               0.000000000              -0.000406228               0.004264967              -0.000652818              -0.000685455               0.001650126               0.000964672               0.000000000               0.000000000               0.000000000               0.000000000              -0.000270161               0.003858888              -0.000474852              -0.000583670               0.001480840               0.000897170               0.000000000               0.000000000               0.000000000               0.000000000              -0.000132260               0.003513452              -0.000258670              -0.000488778               0.001334065               0.000845287               0.000000000               0.000000000               0.000000000               0.000000000              -0.000085315               0.003310058              -0.000148914              -0.000445749               0.001251925               0.000806176               0.000000000               0.000000000               0.000000000               0.000000000               0.002473613               0.016993966               0.004249738              -0.001196641               0.006063478               0.004866837               0.000000000               0.000000000               0.000000000               0.000000000               0.000883455               0.014124995               0.001915298              -0.001434326               0.005186393               0.003752067               0.000000000               0.000000000               0.000000000               0.000000000              -0.000104515               0.012240470              -0.000294604              -0.001569248               0.004603199               0.003033950               0.000000000               0.000000000               0.000000000               0.000000000              -0.000729477               0.010928464              -0.001055856              -0.001639608               0.004189321               0.002549713               0.000000000               0.000000000               0.000000000               0.000000000              -0.001075720               0.009900081              -0.001287969              -0.001640901               0.003846961               0.002206060               0.000000000               0.000000000               0.000000000               0.000000000              -0.001236683               0.009040486              -0.001313786              -0.001593813               0.003544736               0.001950923               0.000000000               0.000000000               0.000000000               0.000000000              -0.001277522               0.008287278              -0.001256730              -0.001514977               0.003267391               0.001752414               0.000000000               0.000000000               0.000000000               0.000000000              -0.001240143               0.007608211              -0.001164578              -0.001416077               0.003008070               0.001591993               0.000000000               0.000000000               0.000000000               0.000000000              -0.001158691               0.006989582              -0.001059766              -0.001308204               0.002765905               0.001457701               0.000000000               0.000000000               0.000000000               0.000000000              -0.001050765               0.006427448              -0.000960854              -0.001197465               0.002541616               0.001344151               0.000000000               0.000000000               0.000000000               0.000000000              -0.000927412               0.005919875              -0.000873611              -0.001087761               0.002335859               0.001248098               0.000000000               0.000000000               0.000000000               0.000000000              -0.000792386               0.005464181              -0.000782062              -0.000980165               0.002148097               0.001167932               0.000000000               0.000000000               0.000000000               0.000000000              -0.000634434               0.005053440              -0.000668691              -0.000869591               0.001974327               0.001104736               0.000000000               0.000000000               0.000000000               0.000000000              -0.000460515               0.004694920              -0.000529784              -0.000759557               0.001818143               0.001058587               0.000000000               0.000000000               0.000000000               0.000000000              -0.000287989               0.004410141              -0.000370442              -0.000659262               0.001689786               0.001030524               0.000000000               0.000000000               0.000000000               0.000000000              -0.000135229               0.004211742              -0.000192479              -0.000577177               0.001596292               0.001019115               0.000000000               0.000000000               0.000000000               0.000000000              -0.000074077               0.004121272              -0.000103713              -0.000542936               0.001554722               0.001011786               0.000000000               0.000000000               0.000000000               0.000000000               0.002104474               0.014095253               0.004181572              -0.000972730               0.005022613               0.004049883               0.000000000               0.000000000               0.000000000               0.000000000               0.000120811               0.012397868               0.001950295              -0.001504427               0.004634057               0.003129630               0.000000000               0.000000000               0.000000000               0.000000000              -0.001290274               0.011539295              -0.000129354              -0.001926260               0.004488480               0.002562220               0.000000000               0.000000000               0.000000000               0.000000000              -0.001885602               0.010629842              -0.000790083              -0.002035826               0.004221854               0.002186028               0.000000000               0.000000000               0.000000000               0.000000000              -0.002070468               0.009773273              -0.000972764              -0.001998080               0.003923751               0.001925672               0.000000000               0.000000000               0.000000000               0.000000000              -0.002044962               0.008987850              -0.000982509              -0.001890338               0.003626033               0.001735695               0.000000000               0.000000000               0.000000000               0.000000000              -0.001906135               0.008267204              -0.000926641              -0.001748197               0.003338439               0.001590243               0.000000000               0.000000000               0.000000000               0.000000000              -0.001707684               0.007609578              -0.000847732              -0.001591575               0.003067026               0.001475451               0.000000000               0.000000000               0.000000000               0.000000000              -0.001488897               0.007017340              -0.000762760              -0.001435500               0.002817590               0.001382089               0.000000000               0.000000000               0.000000000               0.000000000              -0.001265504               0.006493872              -0.000685130              -0.001286295               0.002593367               0.001307072               0.000000000               0.000000000               0.000000000               0.000000000              -0.001044446               0.006031032              -0.000619623              -0.001145544               0.002392172               0.001246628               0.000000000               0.000000000               0.000000000               0.000000000              -0.000834412               0.005622545              -0.000546865              -0.001015720               0.002212736               0.001197016               0.000000000               0.000000000               0.000000000               0.000000000              -0.000622592               0.005269469              -0.000448672              -0.000892153               0.002053857               0.001161703               0.000000000               0.000000000               0.000000000               0.000000000              -0.000418537               0.004984162              -0.000338269              -0.000779970               0.001921361               0.001141391               0.000000000               0.000000000               0.000000000               0.000000000              -0.000242947               0.004781228              -0.000223681              -0.000688757               0.001823312               0.001134555               0.000000000               0.000000000               0.000000000               0.000000000              -0.000106704               0.004665213              -0.000106967              -0.000623164               0.001762777               0.001139613               0.000000000               0.000000000               0.000000000               0.000000000              -0.000052353               0.004627747              -0.000051233              -0.000598099               0.001741933               0.001143834               0.000000000               0.000000000               0.000000000               0.000000000               0.001362734               0.011243674               0.003714007              -0.000894435               0.004045998               0.003151563               0.000000000               0.000000000               0.000000000               0.000000000              -0.000790024               0.010725394               0.001872315              -0.001636930               0.004120739               0.002483808               0.000000000               0.000000000               0.000000000               0.000000000              -0.002422096               0.010810536               0.000165923              -0.002259597               0.004356675               0.002097078               0.000000000               0.000000000               0.000000000               0.000000000              -0.002860405               0.010233647              -0.000346620              -0.002351852               0.004195132               0.001843280               0.000000000               0.000000000               0.000000000               0.000000000              -0.002825339               0.009516424              -0.000489203              -0.002249050               0.003921793               0.001672743               0.000000000               0.000000000               0.000000000               0.000000000              -0.002593496               0.008797027              -0.000505610              -0.002072184               0.003623041               0.001550857               0.000000000               0.000000000               0.000000000               0.000000000              -0.002274000               0.008117175              -0.000476926              -0.001867392               0.003328162               0.001460770               0.000000000               0.000000000               0.000000000               0.000000000              -0.001926759               0.007491704              -0.000435676              -0.001658994               0.003050207               0.001391214               0.000000000               0.000000000               0.000000000               0.000000000              -0.001588152               0.006935691              -0.000394225              -0.001462515               0.002799379               0.001336864               0.000000000               0.000000000               0.000000000               0.000000000              -0.001274484               0.006450833              -0.000355412              -0.001284283               0.002578350               0.001294068               0.000000000               0.000000000               0.000000000               0.000000000              -0.000986160               0.006024475              -0.000322225              -0.001122867               0.002382427               0.001259560               0.000000000               0.000000000               0.000000000               0.000000000              -0.000727257               0.005650559              -0.000281276              -0.000979039               0.002209847               0.001230808               0.000000000               0.000000000               0.000000000               0.000000000              -0.000496328               0.005340320              -0.000216863              -0.000853661               0.002064642               0.001210982               0.000000000               0.000000000               0.000000000               0.000000000              -0.000301910               0.005105519              -0.000148306              -0.000751404               0.001952291               0.001200886               0.000000000               0.000000000               0.000000000               0.000000000              -0.000156985               0.004948760              -0.000086876              -0.000677463               0.001875391               0.001197928               0.000000000               0.000000000               0.000000000               0.000000000              -0.000062235               0.004864007              -0.000033869              -0.000631338               0.001831765               0.001200428               0.000000000               0.000000000               0.000000000               0.000000000              -0.000032060               0.004835091              -0.000013135              -0.000616407               0.001817150               0.001200743               0.000000000               0.000000000               0.000000000               0.000000000               0.000276397               0.008615997               0.002961061              -0.000973351               0.003196420               0.002223069               0.000000000               0.000000000               0.000000000               0.000000000              -0.001793808               0.009206862               0.001741433              -0.001823532               0.003676767               0.001853235               0.000000000               0.000000000               0.000000000               0.000000000              -0.003385163               0.010055775               0.000581311              -0.002526402               0.004194025               0.001667624               0.000000000               0.000000000               0.000000000               0.000000000              -0.003556751               0.009731937               0.000205204              -0.002550267               0.004094036               0.001543768               0.000000000               0.000000000               0.000000000               0.000000000              -0.003274267               0.009132320               0.000064690              -0.002369384               0.003833871               0.001464487               0.000000000               0.000000000               0.000000000               0.000000000              -0.002844084               0.008482824               0.000008957              -0.002126879               0.003536540               0.001409660               0.000000000               0.000000000               0.000000000               0.000000000              -0.002370011               0.007855072              -0.000012260              -0.001870633               0.003241875               0.001371242               0.000000000               0.000000000               0.000000000               0.000000000              -0.001905948               0.007276504              -0.000024795              -0.001624289               0.002966907               0.001342618               0.000000000               0.000000000               0.000000000               0.000000000              -0.001483853               0.006762390              -0.000038980              -0.001401740               0.002721354               0.001319614               0.000000000               0.000000000               0.000000000               0.000000000              -0.001115542               0.006307683              -0.000047989              -0.001206786               0.002504802               0.001298016               0.000000000               0.000000000               0.000000000               0.000000000              -0.000796898               0.005908683              -0.000052096              -0.001037420               0.002315348               0.001277928               0.000000000               0.000000000               0.000000000               0.000000000              -0.000528710               0.005564351              -0.000049050              -0.000893808               0.002152701               0.001258893               0.000000000               0.000000000               0.000000000               0.000000000              -0.000314834               0.005287940              -0.000030247              -0.000779053               0.002022313               0.001243260               0.000000000               0.000000000               0.000000000               0.000000000              -0.000158687               0.005094839              -0.000012206              -0.000696361               0.001930383               0.001234022               0.000000000               0.000000000               0.000000000               0.000000000              -0.000062550               0.004977844              -0.000004974              -0.000645685               0.001874493               0.001228808               0.000000000               0.000000000               0.000000000               0.000000000              -0.000016795               0.004921789              -0.000000341              -0.000621520               0.001847753               0.001226233               0.000000000               0.000000000               0.000000000               0.000000000              -0.000011058               0.004903383              -0.000000721              -0.000617068               0.001840134               0.001223066               0.000000000               0.000000000               0.000000000               0.000000000              -0.001007491               0.006397565               0.002050924              -0.001177503               0.002525001               0.001347498               0.000000000               0.000000000               0.000000000               0.000000000              -0.002771105               0.007845847               0.001603836              -0.002019891               0.003288553               0.001268662               0.000000000               0.000000000               0.000000000               0.000000000              -0.004136328               0.009287966               0.001083070              -0.002712112               0.003999995               0.001287883               0.000000000               0.000000000               0.000000000               0.000000000              -0.004027871               0.009227945               0.000792242              -0.002663938               0.003963930               0.001299992               0.000000000               0.000000000               0.000000000               0.000000000              -0.003538464               0.008775997               0.000619365              -0.002423918               0.003733276               0.001309358               0.000000000               0.000000000               0.000000000               0.000000000              -0.002949752               0.008221656               0.000503799              -0.002133859               0.003451811               0.001317952               0.000000000               0.000000000               0.000000000               0.000000000              -0.002356795               0.007662423               0.000418792              -0.001841597               0.003167981               0.001326385               0.000000000               0.000000000               0.000000000               0.000000000              -0.001808881               0.007138464               0.000346988              -0.001570635               0.002903009               0.001332374               0.000000000               0.000000000               0.000000000               0.000000000              -0.001332490               0.006661284               0.000282422              -0.001332341               0.002664519               0.001332179               0.000000000               0.000000000               0.000000000               0.000000000              -0.000933374               0.006226119               0.000227519              -0.001128277               0.002451445               0.001323167               0.000000000               0.000000000               0.000000000               0.000000000              -0.000599469               0.005842162               0.000181979              -0.000955069               0.002265724               0.001310656               0.000000000               0.000000000               0.000000000               0.000000000              -0.000337306               0.005509584               0.000142084              -0.000815186               0.002108238               0.001293052               0.000000000               0.000000000               0.000000000               0.000000000              -0.000150504               0.005249554               0.000106308              -0.000712632               0.001987378               0.001274746               0.000000000               0.000000000               0.000000000               0.000000000              -0.000031087               0.005084152               0.000066644              -0.000647175               0.001910426               0.001263251               0.000000000               0.000000000               0.000000000               0.000000000               0.000024051               0.004997639               0.000026084              -0.000615684               0.001871091               0.001255407               0.000000000               0.000000000               0.000000000               0.000000000               0.000030161               0.004963820              -0.000000544              -0.000609166               0.001857645               0.001248480               0.000000000               0.000000000               0.000000000               0.000000000               0.000022460               0.004959210              -0.000008758              -0.000611477               0.001856879               0.001245402               0.000000000               0.000000000               0.000000000               0.000000000              -0.002482210               0.004337334               0.001102085              -0.001472992               0.001936761               0.000463768               0.000000000               0.000000000               0.000000000               0.000000000              -0.003586286               0.006251971               0.001453964              -0.002126349               0.002792752               0.000666403               0.000000000               0.000000000               0.000000000               0.000000000              -0.004581496               0.008124600               0.001607883              -0.002733629               0.003619383               0.000885753               0.000000000               0.000000000               0.000000000               0.000000000              -0.004324935               0.008470800               0.001408106              -0.002680694               0.003717137               0.001036442               0.000000000               0.000000000               0.000000000               0.000000000              -0.003753987               0.008304347               0.001200307              -0.002445783               0.003583349               0.001137566               0.000000000               0.000000000               0.000000000               0.000000000              -0.003113821               0.007959240               0.001024218              -0.002162583               0.003373914               0.001211332               0.000000000               0.000000000               0.000000000               0.000000000              -0.002485168               0.007549925               0.000873631              -0.001875674               0.003141841               0.001266167               0.000000000               0.000000000               0.000000000               0.000000000              -0.001905147               0.007128584               0.000744327              -0.001605499               0.002911337               0.001305838               0.000000000               0.000000000               0.000000000               0.000000000              -0.001395802               0.006718383               0.000632606              -0.001363220               0.002693845               0.001330625               0.000000000               0.000000000               0.000000000               0.000000000              -0.000964300               0.006328622               0.000534870              -0.001152688               0.002493749               0.001341061               0.000000000               0.000000000               0.000000000               0.000000000              -0.000609646               0.005963662               0.000444318              -0.000974073               0.002312558               0.001338486               0.000000000               0.000000000               0.000000000               0.000000000              -0.000329193               0.005634301               0.000353643              -0.000827733               0.002153993               0.001326260               0.000000000               0.000000000               0.000000000               0.000000000              -0.000124263               0.005360959               0.000260176              -0.000716717               0.002025874               0.001309157               0.000000000               0.000000000               0.000000000               0.000000000               0.000005279               0.005164637               0.000164161              -0.000643598               0.001936061               0.001292463               0.000000000               0.000000000               0.000000000               0.000000000               0.000065427               0.005043564               0.000079200              -0.000605909               0.001883141               0.001277232               0.000000000               0.000000000               0.000000000               0.000000000               0.000078272               0.004996455               0.000023506              -0.000595203               0.001863869               0.001268666               0.000000000               0.000000000               0.000000000               0.000000000               0.000071349               0.004990787               0.000002581              -0.000597091               0.001862609               0.001265518               0.000000000               0.000000000               0.000000000               0.000000000              -0.004344816               0.002480037               0.000184720              -0.001939307               0.001473105              -0.000466202               0.000000000               0.000000000               0.000000000               0.000000000              -0.004502599               0.004643326               0.001239200              -0.002268885               0.002304054               0.000035169               0.000000000               0.000000000               0.000000000               0.000000000              -0.004937352               0.006741956               0.002028019              -0.002694245               0.003145377               0.000451132               0.000000000               0.000000000               0.000000000               0.000000000              -0.004550173               0.007473746               0.001991095              -0.002640527               0.003371399               0.000730872               0.000000000               0.000000000               0.000000000               0.000000000              -0.003938337               0.007637063               0.001786559              -0.002431504               0.003356163               0.000924660               0.000000000               0.000000000               0.000000000               0.000000000              -0.003281550               0.007543328               0.001568209              -0.002173492               0.003238914               0.001065422               0.000000000               0.000000000               0.000000000               0.000000000              -0.002642654               0.007325789               0.001366288              -0.001906714               0.003077476               0.001170762               0.000000000               0.000000000               0.000000000               0.000000000              -0.002040047               0.007047954               0.001190033              -0.001646008               0.002897964               0.001251956               0.000000000               0.000000000               0.000000000               0.000000000              -0.001497021               0.006734165               0.001037676              -0.001403150               0.002712416               0.001309266               0.000000000               0.000000000               0.000000000               0.000000000              -0.001028089               0.006409267               0.000900162              -0.001186689               0.002531964               0.001345275               0.000000000               0.000000000               0.000000000               0.000000000              -0.000636387               0.006090289               0.000767957              -0.000999929               0.002363386               0.001363457               0.000000000               0.000000000               0.000000000               0.000000000              -0.000314660               0.005786720               0.000636812              -0.000841336               0.002209332               0.001367997               0.000000000               0.000000000               0.000000000               0.000000000              -0.000062588               0.005509163               0.000498244              -0.000712114               0.002073740               0.001361626               0.000000000               0.000000000               0.000000000               0.000000000               0.000116724               0.005279817               0.000349042              -0.000616204               0.001965323               0.001349118               0.000000000               0.000000000               0.000000000               0.000000000               0.000214868               0.005113216               0.000204470              -0.000558575               0.001890580               0.001332005               0.000000000               0.000000000               0.000000000               0.000000000               0.000235403               0.005027681               0.000087343              -0.000540183               0.001855938               0.001315755               0.000000000               0.000000000               0.000000000               0.000000000               0.000211799               0.004996269               0.000031773              -0.000545107               0.001847109               0.001302001               0.000000000               0.000000000               0.000000000               0.000000000              -0.006472898               0.000976483              -0.000613710              -0.002549394               0.001175284              -0.001374110               0.000000000               0.000000000               0.000000000               0.000000000              -0.005560347               0.003127524               0.000948329              -0.002476066               0.001867851              -0.000608216               0.000000000               0.000000000               0.000000000               0.000000000              -0.005226342               0.005162289               0.002233577              -0.002605159               0.002589131              -0.000016028               0.000000000               0.000000000               0.000000000               0.000000000              -0.004620121               0.006161248               0.002396800              -0.002502696               0.002887960               0.000385264               0.000000000               0.000000000               0.000000000               0.000000000              -0.003954920               0.006624009               0.002249879              -0.002311091               0.002978344               0.000667253               0.000000000               0.000000000               0.000000000               0.000000000              -0.003291446               0.006795284               0.002027995              -0.002083698               0.002959638               0.000875939               0.000000000               0.000000000               0.000000000               0.000000000              -0.002651229               0.006802352               0.001805078              -0.001844501               0.002882261               0.001037760               0.000000000               0.000000000               0.000000000               0.000000000              -0.002048696               0.006699775               0.001603488              -0.001605730               0.002768479               0.001162749               0.000000000               0.000000000               0.000000000               0.000000000              -0.001492670               0.006524886               0.001422965              -0.001375359               0.002633393               0.001258034               0.000000000               0.000000000               0.000000000               0.000000000              -0.000996659               0.006305767               0.001256415              -0.001161966               0.002489223               0.001327257               0.000000000               0.000000000               0.000000000               0.000000000              -0.000564151               0.006067851               0.001099456              -0.000970036               0.002345942               0.001375906               0.000000000               0.000000000               0.000000000               0.000000000              -0.000194383               0.005826575               0.000942899              -0.000801214               0.002209243               0.001408030               0.000000000               0.000000000               0.000000000               0.000000000               0.000112360               0.005586650               0.000776067              -0.000656195               0.002080930               0.001424735               0.000000000               0.000000000               0.000000000               0.000000000               0.000351989               0.005361864               0.000589643              -0.000538236               0.001966682               0.001428446               0.000000000               0.000000000               0.000000000               0.000000000               0.000510843               0.005181283               0.000385333              -0.000456093               0.001879108               0.001423015               0.000000000               0.000000000               0.000000000               0.000000000               0.000567922               0.005066899               0.000184241              -0.000420390               0.001829080               0.001408689               0.000000000               0.000000000               0.000000000               0.000000000               0.000547037               0.005014456               0.000082014              -0.000421667               0.001812024               0.001390357               0.000000000               0.000000000               0.000000000               0.000000000              -0.008718924              -0.000096888              -0.001166502              -0.003257483               0.001053524              -0.002203959               0.000000000               0.000000000               0.000000000               0.000000000              -0.006697222               0.001787399               0.000631921              -0.002734880               0.001507416              -0.001227464               0.000000000               0.000000000               0.000000000               0.000000000              -0.005469670               0.003521077               0.002193963              -0.002491257               0.002004097              -0.000487160               0.000000000               0.000000000               0.000000000               0.000000000              -0.004562770               0.004642716               0.002530541              -0.002291374               0.002311346               0.000019973               0.000000000               0.000000000               0.000000000               0.000000000              -0.003807727               0.005339803               0.002468923              -0.002095369               0.002478372               0.000383003               0.000000000               0.000000000               0.000000000               0.000000000              -0.003130260               0.005759364               0.002284819              -0.001893764               0.002551023               0.000657259               0.000000000               0.000000000               0.000000000               0.000000000              -0.002498726               0.005992617               0.002073201              -0.001686096               0.002559551               0.000873454               0.000000000               0.000000000               0.000000000               0.000000000              -0.001912426               0.006087345               0.001869308              -0.001478075               0.002521786               0.001043711               0.000000000               0.000000000               0.000000000               0.000000000              -0.001362970               0.006081024               0.001683313              -0.001271239               0.002450734               0.001179494               0.000000000               0.000000000               0.000000000               0.000000000              -0.000849187               0.005996785               0.001512058              -0.001068041               0.002354922               0.001286881               0.000000000               0.000000000               0.000000000               0.000000000              -0.000376398               0.005865960               0.001349018              -0.000874393               0.002246764               0.001372372               0.000000000               0.000000000               0.000000000               0.000000000               0.000049769               0.005715077               0.001186027              -0.000695720               0.002136913               0.001441193               0.000000000               0.000000000               0.000000000               0.000000000               0.000429175               0.005551593               0.001012459              -0.000533008               0.002028182               0.001495174               0.000000000               0.000000000               0.000000000               0.000000000               0.000754435               0.005383356               0.000809320              -0.000390006               0.001924436               0.001534430               0.000000000               0.000000000               0.000000000               0.000000000               0.001011823               0.005228120               0.000566001              -0.000274081               0.001834050               0.001559969               0.000000000               0.000000000               0.000000000               0.000000000               0.001173382               0.005102208               0.000289981              -0.000197757               0.001766638               0.001568881               0.000000000               0.000000000               0.000000000               0.000000000               0.001220639               0.005045175               0.000145379              -0.000172907               0.001739344               0.001566437               0.000000000               0.000000000               0.000000000               0.000000000              -0.010862120              -0.000768015              -0.001372271              -0.003977290               0.001069751              -0.002907540               0.000000000               0.000000000               0.000000000               0.000000000              -0.007816894               0.000695531               0.000351654              -0.003018274               0.001237926              -0.001780347               0.000000000               0.000000000               0.000000000               0.000000000              -0.005681924               0.001985015               0.001906649              -0.002378845               0.001454610              -0.000924236               0.000000000               0.000000000               0.000000000               0.000000000              -0.004422982               0.003101517               0.002332402              -0.002046304               0.001715928              -0.000330377               0.000000000               0.000000000               0.000000000               0.000000000              -0.003541607               0.003947287               0.002349349              -0.001821510               0.001922918               0.000101408               0.000000000               0.000000000               0.000000000               0.000000000              -0.002832811               0.004563748               0.002223242              -0.001632769               0.002065490               0.000432720               0.000000000               0.000000000               0.000000000               0.000000000              -0.002211000               0.004994669               0.002046743              -0.001453456               0.002149357               0.000695902               0.000000000               0.000000000               0.000000000               0.000000000              -0.001643550               0.005275191               0.001866280              -0.001275728               0.002183622               0.000907894               0.000000000               0.000000000               0.000000000               0.000000000              -0.001106398               0.005435087               0.001700760              -0.001094283               0.002176438               0.001082155               0.000000000               0.000000000               0.000000000               0.000000000              -0.000585885               0.005497905               0.001547943              -0.000906944               0.002134931               0.001227987               0.000000000               0.000000000               0.000000000               0.000000000              -0.000082804               0.005494684               0.001400721              -0.000717886               0.002070838               0.001352952               0.000000000               0.000000000               0.000000000               0.000000000               0.000400063               0.005454521               0.001255239              -0.000531791               0.001995419               0.001463628               0.000000000               0.000000000               0.000000000               0.000000000               0.000860151               0.005391922               0.001098314              -0.000351433               0.001914434               0.001563000               0.000000000               0.000000000               0.000000000               0.000000000               0.001295395               0.005315042               0.000908049              -0.000178607               0.001831199               0.001652591               0.000000000               0.000000000               0.000000000               0.000000000               0.001697360               0.005219219               0.000665981              -0.000015893               0.001745020               0.001729127               0.000000000               0.000000000               0.000000000               0.000000000               0.002045053               0.005112440               0.000359544               0.000127838               0.001661517               0.001789355               0.000000000               0.000000000               0.000000000               0.000000000               0.002245237               0.005076614               0.000198486               0.000207385               0.001623059               0.001830445               0.000000000               0.000000000               0.000000000               0.000000000              -0.012649010              -0.001117900              -0.001199737              -0.004603638               0.001161905              -0.003441734               0.000000000               0.000000000               0.000000000               0.000000000              -0.008779820              -0.000095209               0.000152540              -0.003280529               0.001061766              -0.002218763               0.000000000               0.000000000               0.000000000               0.000000000              -0.005861431               0.000730965               0.001404222              -0.002289405               0.001006783              -0.001282622               0.000000000               0.000000000               0.000000000               0.000000000              -0.004260803               0.001755777               0.001795931              -0.001817270               0.001191007              -0.000626264               0.000000000               0.000000000               0.000000000               0.000000000              -0.003237003               0.002669471               0.001852426              -0.001547557               0.001405666              -0.000141892               0.000000000               0.000000000               0.000000000               0.000000000              -0.002485309               0.003416522               0.001780781              -0.001359053               0.001591846               0.000232793               0.000000000               0.000000000               0.000000000               0.000000000              -0.001864344               0.003995174               0.001656190              -0.001198523               0.001731219               0.000532695               0.000000000               0.000000000               0.000000000               0.000000000              -0.001308422               0.004422949               0.001521580              -0.001043525               0.001822143               0.000778618               0.000000000               0.000000000               0.000000000               0.000000000              -0.000786602               0.004721827               0.001397681              -0.000885202               0.001868994               0.000983791               0.000000000               0.000000000               0.000000000               0.000000000              -0.000276308               0.004925409               0.001282373              -0.000719290               0.001881550               0.001162259               0.000000000               0.000000000               0.000000000               0.000000000               0.000242161               0.005060661               0.001170884              -0.000541772               0.001867461               0.001325689               0.000000000               0.000000000               0.000000000               0.000000000               0.000769092               0.005142047               0.001061385              -0.000354346               0.001832114               0.001477768               0.000000000               0.000000000               0.000000000               0.000000000               0.001303543               0.005187060               0.000944954              -0.000159554               0.001782187               0.001622633               0.000000000               0.000000000               0.000000000               0.000000000               0.001852415               0.005199930               0.000802444               0.000044663               0.001718405               0.001763068               0.000000000               0.000000000               0.000000000               0.000000000               0.002414976               0.005167026               0.000609944               0.000259735               0.001635746               0.001895481               0.000000000               0.000000000               0.000000000               0.000000000               0.002991564               0.005094742               0.000341347               0.000484989               0.001536567               0.002021556               0.000000000               0.000000000               0.000000000               0.000000000               0.003397269               0.005093848               0.000200139               0.000637238               0.001485520               0.002122758               0.000000000               0.000000000               0.000000000               0.000000000              -0.013845917              -0.001255577              -0.000697567              -0.005035268               0.001259889              -0.003775380               0.000000000               0.000000000               0.000000000               0.000000000              -0.009438962              -0.000565082               0.000045680              -0.003468973               0.000967957              -0.002501016               0.000000000               0.000000000               0.000000000               0.000000000              -0.005985312              -0.000092283               0.000744231              -0.002232955               0.000713552              -0.001519403               0.000000000               0.000000000               0.000000000               0.000000000              -0.004132711               0.000829740               0.000978337              -0.001653482               0.000827735              -0.000825747               0.000000000               0.000000000               0.000000000               0.000000000              -0.002996555               0.001757996               0.001023621              -0.001343455               0.001033810              -0.000309646               0.000000000               0.000000000               0.000000000               0.000000000              -0.002205426               0.002576012               0.000993095              -0.001149034               0.001241673               0.000092639               0.000000000               0.000000000               0.000000000               0.000000000              -0.001583292               0.003247767               0.000930633              -0.000999703               0.001415812               0.000416109               0.000000000               0.000000000               0.000000000               0.000000000              -0.001039067               0.003769608               0.000860522              -0.000860849               0.001543473               0.000682624               0.000000000               0.000000000               0.000000000               0.000000000              -0.000531830               0.004163034               0.000791999              -0.000719814               0.001627602               0.000907788               0.000000000               0.000000000               0.000000000               0.000000000              -0.000030682               0.004468939               0.000729326              -0.000570122               0.001679672               0.001109550               0.000000000               0.000000000               0.000000000               0.000000000               0.000489715               0.004712851               0.000670615              -0.000405462               0.001706089               0.001300626               0.000000000               0.000000000               0.000000000               0.000000000               0.001041700               0.004898550               0.000610480              -0.000221681               0.001706727               0.001485046               0.000000000               0.000000000               0.000000000               0.000000000               0.001630610               0.005029050               0.000548633              -0.000017153               0.001682051               0.001664898               0.000000000               0.000000000               0.000000000               0.000000000               0.002264567               0.005101847               0.000473168               0.000211480               0.001630105               0.001841585               0.000000000               0.000000000               0.000000000               0.000000000               0.002957153               0.005112644               0.000366437               0.000469847               0.001547582               0.002017429               0.000000000               0.000000000               0.000000000               0.000000000               0.003734425               0.005070574               0.000209789               0.000766580               0.001434648               0.002201228               0.000000000               0.000000000               0.000000000               0.000000000               0.004329430               0.005102282               0.000128409               0.000985741               0.001372163               0.002357904               0.000000000               0.000000000               0.000000000               0.000000000              -0.014269074              -0.001287599              -0.000000000              -0.005189949               0.001300775              -0.003889175               0.000000000               0.000000000               0.000000000               0.000000000              -0.009673856              -0.000719654              -0.000000000              -0.003537737               0.000939355              -0.002598382               0.000000000               0.000000000               0.000000000               0.000000000              -0.006029079              -0.000379240              -0.000000000              -0.002213498               0.000611415              -0.001602083               0.000000000               0.000000000               0.000000000               0.000000000              -0.004083394               0.000497346               0.000000000              -0.001593439               0.000696923              -0.000896516               0.000000000               0.000000000               0.000000000               0.000000000              -0.002904824               0.001425151               0.000000000              -0.001267451               0.000897528              -0.000369923               0.000000000               0.000000000               0.000000000               0.000000000              -0.002097429               0.002268911              -0.000000000              -0.001070147               0.001113012               0.000042864               0.000000000               0.000000000               0.000000000               0.000000000              -0.001474353               0.002975798              -0.000000000              -0.000924855               0.001300208               0.000375353               0.000000000               0.000000000               0.000000000               0.000000000              -0.000938262               0.003528092              -0.000000000              -0.000792858               0.001440305               0.000647447               0.000000000               0.000000000               0.000000000               0.000000000              -0.000439274               0.003949856               0.000000000              -0.000658458               0.001536092               0.000877633               0.000000000               0.000000000               0.000000000               0.000000000               0.000062760               0.004290720               0.000000000              -0.000512804               0.001601160               0.001088356               0.000000000               0.000000000               0.000000000               0.000000000               0.000582525               0.004576794              -0.000000000              -0.000353651               0.001643466               0.001289815               0.000000000               0.000000000               0.000000000               0.000000000               0.001140625               0.004807069               0.000000000              -0.000173149               0.001660057               0.001486908               0.000000000               0.000000000               0.000000000               0.000000000               0.001747823               0.004967679              -0.000000000               0.000034473               0.001644385               0.001678859               0.000000000               0.000000000               0.000000000               0.000000000               0.002412164               0.005059419              -0.000000000               0.000272131               0.001595746               0.001867877               0.000000000               0.000000000               0.000000000               0.000000000               0.003158540               0.005093364              -0.000000000               0.000547777               0.001515179               0.002062955               0.000000000               0.000000000               0.000000000               0.000000000               0.004020069               0.005066906              -0.000000000               0.000874154               0.001397567               0.002271721               0.000000000               0.000000000               0.000000000               0.000000000               0.004693469               0.005110344               0.000000000               0.001121247               0.001329682               0.002450929               0.000000000               0.000000000               0.000000000               0.000000000               0.002230835               0.023891539              -0.000000000              -0.002149874               0.008680391               0.006530517               0.000000000               0.000000000               0.000000000               0.000000000               0.002129969               0.018359613              -0.000000000              -0.001496209               0.006618546               0.005122337               0.000000000               0.000000000               0.000000000               0.000000000               0.002720177               0.013874641               0.000000000              -0.000714262               0.004862921               0.004148659               0.000000000               0.000000000               0.000000000               0.000000000               0.002484575               0.011360478               0.000000000              -0.000488343               0.003949569               0.003461226               0.000000000               0.000000000               0.000000000               0.000000000               0.002026150               0.009782039               0.000000000              -0.000462947               0.003414963               0.002952016               0.000000000               0.000000000               0.000000000               0.000000000               0.001551225               0.008675329               0.000000000              -0.000502706               0.003059316               0.002556610               0.000000000               0.000000000               0.000000000               0.000000000               0.001128402               0.007813684               0.000000000              -0.000553559               0.002789055               0.002235496               0.000000000               0.000000000               0.000000000               0.000000000               0.000782896               0.007084858              -0.000000000              -0.000592020               0.002558936               0.001966916               0.000000000               0.000000000               0.000000000               0.000000000               0.000516466               0.006421287              -0.000000000              -0.000608985               0.002343403               0.001734418               0.000000000               0.000000000               0.000000000               0.000000000               0.000316566               0.005792127               0.000000000              -0.000605302               0.002132457               0.001527155               0.000000000               0.000000000               0.000000000               0.000000000               0.000166199               0.005172898              -0.000000000              -0.000584286               0.001919044               0.001334758               0.000000000               0.000000000               0.000000000               0.000000000               0.000049804               0.004548522              -0.000000000              -0.000549887               0.001699455               0.001149567               0.000000000               0.000000000               0.000000000               0.000000000              -0.000037360               0.003910829               0.000000000              -0.000502862               0.001471218               0.000968355               0.000000000               0.000000000               0.000000000               0.000000000              -0.000087998               0.003239935              -0.000000000              -0.000437990               0.001225964               0.000787974               0.000000000               0.000000000               0.000000000               0.000000000              -0.000099418               0.002507164              -0.000000000              -0.000350676               0.000952605               0.000601929               0.000000000               0.000000000               0.000000000               0.000000000              -0.000064280               0.001682988               0.000000000              -0.000234478               0.000639150               0.000404672               0.000000000               0.000000000               0.000000000               0.000000000              -0.000101321               0.001050862               0.000000000              -0.000169353               0.000406735               0.000237382               0.000000000               0.000000000               0.000000000               0.000000000               0.002296675               0.023382560              -0.001575185              -0.002061562               0.008481296               0.006419734               0.000000000               0.000000000               0.000000000               0.000000000               0.002064446               0.018037213              -0.000704694              -0.001480481               0.006505838               0.005025357               0.000000000               0.000000000               0.000000000               0.000000000               0.002516179               0.013752380               0.000155252              -0.000775478               0.004842574               0.004067095               0.000000000               0.000000000               0.000000000               0.000000000               0.002230758               0.011339445               0.000509387              -0.000580895               0.003973409               0.003392514               0.000000000               0.000000000               0.000000000               0.000000000               0.001765238               0.009807937               0.000644793              -0.000564027               0.003457289               0.002893262               0.000000000               0.000000000               0.000000000               0.000000000               0.001302756               0.008721235               0.000681609              -0.000601620               0.003107589               0.002505969               0.000000000               0.000000000               0.000000000               0.000000000               0.000905591               0.007872763               0.000674704              -0.000644497               0.002839060               0.002194563               0.000000000               0.000000000               0.000000000               0.000000000               0.000589796               0.007148821               0.000648105              -0.000672428               0.002607059               0.001934631               0.000000000               0.000000000               0.000000000               0.000000000               0.000349745               0.006493109               0.000613907              -0.000680483               0.002391176               0.001710693               0.000000000               0.000000000               0.000000000               0.000000000               0.000172847               0.005867942               0.000578453              -0.000668674               0.002178852               0.001510179               0.000000000               0.000000000               0.000000000               0.000000000               0.000044889               0.005256750               0.000542615              -0.000640259               0.001965652               0.001325393               0.000000000               0.000000000               0.000000000               0.000000000              -0.000050519               0.004645960               0.000507469              -0.000599688               0.001748534               0.001148846               0.000000000               0.000000000               0.000000000               0.000000000              -0.000112479               0.004029349               0.000465488              -0.000545847               0.001525052               0.000979205               0.000000000               0.000000000               0.000000000               0.000000000              -0.000138234               0.003390908               0.000402155              -0.000475700               0.001288858               0.000813158               0.000000000               0.000000000               0.000000000               0.000000000              -0.000126963               0.002708426               0.000310203              -0.000386163               0.001031521               0.000645357               0.000000000               0.000000000               0.000000000               0.000000000              -0.000074832               0.001967942               0.000178878              -0.000274054               0.000747326               0.000473271               0.000000000               0.000000000               0.000000000               0.000000000              -0.000096973               0.001417396               0.000111279              -0.000213539               0.000543640               0.000330101               0.000000000               0.000000000               0.000000000               0.000000000               0.002439575               0.021921831              -0.002910855              -0.001825385               0.007915665               0.006090280               0.000000000               0.000000000               0.000000000               0.000000000               0.001850446               0.017124852              -0.001298116              -0.001446686               0.006190455               0.004743769               0.000000000               0.000000000               0.000000000               0.000000000               0.001924142               0.013403422               0.000277269              -0.000953872               0.004785720               0.003831848               0.000000000               0.000000000               0.000000000               0.000000000               0.001514200               0.011265788               0.000900068              -0.000840397               0.004035357               0.003194961               0.000000000               0.000000000               0.000000000               0.000000000               0.001044831               0.009864003               0.001127178              -0.000841187               0.003568364               0.002727177               0.000000000               0.000000000               0.000000000               0.000000000               0.000635702               0.008838718               0.001183652              -0.000866450               0.003235026               0.002368577               0.000000000               0.000000000               0.000000000               0.000000000               0.000313561               0.008018059               0.001162657              -0.000884670               0.002967549               0.002082879               0.000000000               0.000000000               0.000000000               0.000000000               0.000074449               0.007310477               0.001107066              -0.000885889               0.002732098               0.001846208               0.000000000               0.000000000               0.000000000               0.000000000              -0.000093806               0.006664820               0.001037790              -0.000868278               0.002511010               0.001642732               0.000000000               0.000000000               0.000000000               0.000000000              -0.000202829               0.006054127               0.000967085              -0.000832825               0.002295630               0.001462805               0.000000000               0.000000000               0.000000000               0.000000000              -0.000270889               0.005466884               0.000898212              -0.000784942               0.002083924               0.001298981               0.000000000               0.000000000               0.000000000               0.000000000              -0.000309213               0.004895709               0.000828416              -0.000727917               0.001874526               0.001146609               0.000000000               0.000000000               0.000000000               0.000000000              -0.000308369               0.004336634               0.000746282              -0.000657716               0.001664769               0.001007053               0.000000000               0.000000000               0.000000000               0.000000000              -0.000272000               0.003780814               0.000628402              -0.000574600               0.001451792               0.000877192               0.000000000               0.000000000               0.000000000               0.000000000              -0.000205729               0.003225390               0.000470445              -0.000480321               0.001235226               0.000754905               0.000000000               0.000000000               0.000000000               0.000000000              -0.000110080               0.002680080               0.000263302              -0.000376289               0.001018781               0.000642492               0.000000000               0.000000000               0.000000000               0.000000000              -0.000094278               0.002308781               0.000157507              -0.000323951               0.000877570               0.000553618               0.000000000               0.000000000               0.000000000               0.000000000               0.002542711               0.019699083              -0.003830413              -0.001508867               0.007069251               0.005560383               0.000000000               0.000000000               0.000000000               0.000000000               0.001459840               0.015760599              -0.001707893              -0.001422632               0.005727691               0.004305059               0.000000000               0.000000000               0.000000000               0.000000000               0.001009734               0.012879066               0.000335092              -0.001231230               0.004703389               0.003472159               0.000000000               0.000000000               0.000000000               0.000000000               0.000465233               0.011133861               0.001094846              -0.001217268               0.004117006               0.002899738               0.000000000               0.000000000               0.000000000               0.000000000               0.000029287               0.009914282               0.001351859              -0.001228300               0.003714161               0.002485861               0.000000000               0.000000000               0.000000000               0.000000000              -0.000279812               0.008970790               0.001399711              -0.001226276               0.003398992               0.002172716               0.000000000               0.000000000               0.000000000               0.000000000              -0.000481193               0.008182977               0.001358680              -0.001203317               0.003128737               0.001925420               0.000000000               0.000000000               0.000000000               0.000000000              -0.000598328               0.007491905               0.001276757              -0.001160859               0.002884229               0.001723371               0.000000000               0.000000000               0.000000000               0.000000000              -0.000650730               0.006857129               0.001180441              -0.001101163               0.002652741               0.001551578               0.000000000               0.000000000               0.000000000               0.000000000              -0.000658369               0.006266929               0.001085804              -0.001030252               0.002432373               0.001402120               0.000000000               0.000000000               0.000000000               0.000000000              -0.000641522               0.005715289               0.000995928              -0.000954980               0.002223404               0.001268424               0.000000000               0.000000000               0.000000000               0.000000000              -0.000597909               0.005200862               0.000904925              -0.000874322               0.002025044               0.001150722               0.000000000               0.000000000               0.000000000               0.000000000              -0.000519454               0.004717249               0.000796495              -0.000784450               0.001833884               0.001049434               0.000000000               0.000000000               0.000000000               0.000000000              -0.000406228               0.004264967               0.000652818              -0.000685455               0.001650126               0.000964672               0.000000000               0.000000000               0.000000000               0.000000000              -0.000270161               0.003858888               0.000474852              -0.000583670               0.001480840               0.000897170               0.000000000               0.000000000               0.000000000               0.000000000              -0.000132260               0.003513452               0.000258670              -0.000488778               0.001334065               0.000845287               0.000000000               0.000000000               0.000000000               0.000000000              -0.000085315               0.003310058               0.000148914              -0.000445749               0.001251925               0.000806176               0.000000000               0.000000000               0.000000000               0.000000000               0.002473613               0.016993966              -0.004249738              -0.001196641               0.006063478               0.004866837               0.000000000               0.000000000               0.000000000               0.000000000               0.000883455               0.014124995              -0.001915298              -0.001434326               0.005186393               0.003752067               0.000000000               0.000000000               0.000000000               0.000000000              -0.000104515               0.012240470               0.000294604              -0.001569248               0.004603199               0.003033950               0.000000000               0.000000000               0.000000000               0.000000000              -0.000729477               0.010928464               0.001055856              -0.001639608               0.004189321               0.002549713               0.000000000               0.000000000               0.000000000               0.000000000              -0.001075720               0.009900081               0.001287969              -0.001640901               0.003846961               0.002206060               0.000000000               0.000000000               0.000000000               0.000000000              -0.001236683               0.009040486               0.001313786              -0.001593813               0.003544736               0.001950923               0.000000000               0.000000000               0.000000000               0.000000000              -0.001277522               0.008287278               0.001256730              -0.001514977               0.003267391               0.001752414               0.000000000               0.000000000               0.000000000               0.000000000              -0.001240143               0.007608211               0.001164578              -0.001416077               0.003008070               0.001591993               0.000000000               0.000000000               0.000000000               0.000000000              -0.001158691               0.006989582               0.001059766              -0.001308204               0.002765905               0.001457701               0.000000000               0.000000000               0.000000000               0.000000000              -0.001050765               0.006427448               0.000960854              -0.001197465               0.002541616               0.001344151               0.000000000               0.000000000               0.000000000               0.000000000              -0.000927412               0.005919875               0.000873611              -0.001087761               0.002335859               0.001248098               0.000000000               0.000000000               0.000000000               0.000000000              -0.000792386               0.005464181               0.000782062              -0.000980165               0.002148097               0.001167932               0.000000000               0.000000000               0.000000000               0.000000000              -0.000634434               0.005053440               0.000668691              -0.000869591               0.001974327               0.001104736               0.000000000               0.000000000               0.000000000               0.000000000              -0.000460515               0.004694920               0.000529784              -0.000759557               0.001818143               0.001058587               0.000000000               0.000000000               0.000000000               0.000000000              -0.000287989               0.004410141               0.000370442              -0.000659262               0.001689786               0.001030524               0.000000000               0.000000000               0.000000000               0.000000000              -0.000135229               0.004211742               0.000192479              -0.000577177               0.001596292               0.001019115               0.000000000               0.000000000               0.000000000               0.000000000              -0.000074077               0.004121272               0.000103713              -0.000542936               0.001554722               0.001011786               0.000000000               0.000000000               0.000000000               0.000000000               0.002104474               0.014095253              -0.004181572              -0.000972730               0.005022613               0.004049883               0.000000000               0.000000000               0.000000000               0.000000000               0.000120811               0.012397868              -0.001950295              -0.001504427               0.004634057               0.003129630               0.000000000               0.000000000               0.000000000               0.000000000              -0.001290274               0.011539295               0.000129354              -0.001926260               0.004488480               0.002562220               0.000000000               0.000000000               0.000000000               0.000000000              -0.001885602               0.010629842               0.000790083              -0.002035826               0.004221854               0.002186028               0.000000000               0.000000000               0.000000000               0.000000000              -0.002070468               0.009773273               0.000972764              -0.001998080               0.003923751               0.001925672               0.000000000               0.000000000               0.000000000               0.000000000              -0.002044962               0.008987850               0.000982509              -0.001890338               0.003626033               0.001735695               0.000000000               0.000000000               0.000000000               0.000000000              -0.001906135               0.008267204               0.000926641              -0.001748197               0.003338439               0.001590243               0.000000000               0.000000000               0.000000000               0.000000000              -0.001707684               0.007609578               0.000847732              -0.001591575               0.003067026               0.001475451               0.000000000               0.000000000               0.000000000               0.000000000              -0.001488897               0.007017340               0.000762760              -0.001435500               0.002817590               0.001382089               0.000000000               0.000000000               0.000000000               0.000000000              -0.001265504               0.006493872               0.000685130              -0.001286295               0.002593367               0.001307072               0.000000000               0.000000000               0.000000000               0.000000000              -0.001044446               0.006031032               0.000619623              -0.001145544               0.002392172               0.001246628               0.000000000               0.000000000               0.000000000               0.000000000              -0.000834412               0.005622545               0.000546865              -0.001015720               0.002212736               0.001197016               0.000000000               0.000000000               0.000000000               0.000000000              -0.000622592               0.005269469               0.000448672              -0.000892153               0.002053857               0.001161703               0.000000000               0.000000000               0.000000000               0.000000000              -0.000418537               0.004984162               0.000338269              -0.000779970               0.001921361               0.001141391               0.000000000               0.000000000               0.000000000               0.000000000              -0.000242947               0.004781228               0.000223681              -0.000688757               0.001823312               0.001134555               0.000000000               0.000000000               0.000000000               0.000000000              -0.000106704               0.004665213               0.000106967              -0.000623164               0.001762777               0.001139613               0.000000000               0.000000000               0.000000000               0.000000000              -0.000052353               0.004627747               0.000051233              -0.000598099               0.001741933               0.001143834               0.000000000               0.000000000               0.000000000               0.000000000               0.001362734               0.011243674              -0.003714007              -0.000894435               0.004045998               0.003151563               0.000000000               0.000000000               0.000000000               0.000000000              -0.000790024               0.010725394              -0.001872315              -0.001636930               0.004120739               0.002483808               0.000000000               0.000000000               0.000000000               0.000000000              -0.002422096               0.010810536              -0.000165923              -0.002259597               0.004356675               0.002097078               0.000000000               0.000000000               0.000000000               0.000000000              -0.002860405               0.010233647               0.000346620              -0.002351852               0.004195132               0.001843280               0.000000000               0.000000000               0.000000000               0.000000000              -0.002825339               0.009516424               0.000489203              -0.002249050               0.003921793               0.001672743               0.000000000               0.000000000               0.000000000               0.000000000              -0.002593496               0.008797027               0.000505610              -0.002072184               0.003623041               0.001550857               0.000000000               0.000000000               0.000000000               0.000000000              -0.002274000               0.008117175               0.000476926              -0.001867392               0.003328162               0.001460770               0.000000000               0.000000000               0.000000000               0.000000000              -0.001926759               0.007491704               0.000435676              -0.001658994               0.003050207               0.001391214               0.000000000               0.000000000               0.000000000               0.000000000              -0.001588152               0.006935691               0.000394225              -0.001462515               0.002799379               0.001336864               0.000000000               0.000000000               0.000000000               0.000000000              -0.001274484               0.006450833               0.000355412              -0.001284283               0.002578350               0.001294068               0.000000000               0.000000000               0.000000000               0.000000000              -0.000986160               0.006024475               0.000322225              -0.001122867               0.002382427               0.001259560               0.000000000               0.000000000               0.000000000               0.000000000              -0.000727257               0.005650559               0.000281276              -0.000979039               0.002209847               0.001230808               0.000000000               0.000000000               0.000000000               0.000000000              -0.000496328               0.005340320               0.000216863              -0.000853661               0.002064642               0.001210982               0.000000000               0.000000000               0.000000000               0.000000000              -0.000301910               0.005105519               0.000148306              -0.000751404               0.001952291               0.001200886               0.000000000               0.000000000               0.000000000               0.000000000              -0.000156985               0.004948760               0.000086876              -0.000677463               0.001875391               0.001197928               0.000000000               0.000000000               0.000000000               0.000000000              -0.000062235               0.004864007               0.000033869              -0.000631338               0.001831765               0.001200428               0.000000000               0.000000000               0.000000000               0.000000000              -0.000032060               0.004835091               0.000013135              -0.000616407               0.001817150               0.001200743               0.000000000               0.000000000               0.000000000               0.000000000               0.000276397               0.008615997              -0.002961061              -0.000973351               0.003196420               0.002223069               0.000000000               0.000000000               0.000000000               0.000000000              -0.001793808               0.009206862              -0.001741433              -0.001823532               0.003676767               0.001853235               0.000000000               0.000000000               0.000000000               0.000000000              -0.003385163               0.010055775              -0.000581311              -0.002526402               0.004194025               0.001667624               0.000000000               0.000000000               0.000000000               0.000000000              -0.003556751               0.009731937              -0.000205204              -0.002550267               0.004094036               0.001543768               0.000000000               0.000000000               0.000000000               0.000000000              -0.003274267               0.009132320              -0.000064690              -0.002369384               0.003833871               0.001464487               0.000000000               0.000000000               0.000000000               0.000000000              -0.002844084               0.008482824              -0.000008957              -0.002126879               0.003536540               0.001409660               0.000000000               0.000000000               0.000000000               0.000000000              -0.002370011               0.007855072               0.000012260              -0.001870633               0.003241875               0.001371242               0.000000000               0.000000000               0.000000000               0.000000000              -0.001905948               0.007276504               0.000024795              -0.001624289               0.002966907               0.001342618               0.000000000               0.000000000               0.000000000               0.000000000              -0.001483853               0.006762390               0.000038980              -0.001401740               0.002721354               0.001319614               0.000000000               0.000000000               0.000000000               0.000000000              -0.001115542               0.006307683               0.000047989              -0.001206786               0.002504802               0.001298016               0.000000000               0.000000000               0.000000000               0.000000000              -0.000796898               0.005908683               0.000052096              -0.001037420               0.002315348               0.001277928               0.000000000               0.000000000               0.000000000               0.000000000              -0.000528710               0.005564351               0.000049050              -0.000893808               0.002152701               0.001258893               0.000000000               0.000000000               0.000000000               0.000000000              -0.000314834               0.005287940               0.000030247              -0.000779053               0.002022313               0.001243260               0.000000000               0.000000000               0.000000000               0.000000000              -0.000158687               0.005094839               0.000012206              -0.000696361               0.001930383               0.001234022               0.000000000               0.000000000               0.000000000               0.000000000              -0.000062550               0.004977844               0.000004974              -0.000645685               0.001874493               0.001228808               0.000000000               0.000000000               0.000000000               0.000000000              -0.000016795               0.004921789               0.000000341              -0.000621520               0.001847753               0.001226233               0.000000000               0.000000000               0.000000000               0.000000000              -0.000011058               0.004903383               0.000000721              -0.000617068               0.001840134               0.001223066               0.000000000               0.000000000               0.000000000               0.000000000              -0.001007491               0.006397565              -0.002050924              -0.001177503               0.002525001               0.001347498               0.000000000               0.000000000               0.000000000               0.000000000              -0.002771105               0.007845847              -0.001603836              -0.002019891               0.003288553               0.001268662               0.000000000               0.000000000               0.000000000               0.000000000              -0.004136328               0.009287966              -0.001083070              -0.002712112               0.003999995               0.001287883               0.000000000               0.000000000               0.000000000               0.000000000              -0.004027871               0.009227945              -0.000792242              -0.002663938               0.003963930               0.001299992               0.000000000               0.000000000               0.000000000               0.000000000              -0.003538464               0.008775997              -0.000619365              -0.002423918               0.003733276               0.001309358               0.000000000               0.000000000               0.000000000               0.000000000              -0.002949752               0.008221656              -0.000503799              -0.002133859               0.003451811               0.001317952               0.000000000               0.000000000               0.000000000               0.000000000              -0.002356795               0.007662423              -0.000418792              -0.001841597               0.003167981               0.001326385               0.000000000               0.000000000               0.000000000               0.000000000              -0.001808881               0.007138464              -0.000346988              -0.001570635               0.002903009               0.001332374               0.000000000               0.000000000               0.000000000               0.000000000              -0.001332490               0.006661284              -0.000282422              -0.001332341               0.002664519               0.001332179               0.000000000               0.000000000               0.000000000               0.000000000              -0.000933374               0.006226119              -0.000227519              -0.001128277               0.002451445               0.001323167               0.000000000               0.000000000               0.000000000               0.000000000              -0.000599469               0.005842162              -0.000181979              -0.000955069               0.002265724               0.001310656               0.000000000               0.000000000               0.000000000               0.000000000              -0.000337306               0.005509584              -0.000142084              -0.000815186               0.002108238               0.001293052               0.000000000               0.000000000               0.000000000               0.000000000              -0.000150504               0.005249554              -0.000106308              -0.000712632               0.001987378               0.001274746               0.000000000               0.000000000               0.000000000               0.000000000              -0.000031087               0.005084152              -0.000066644              -0.000647175               0.001910426               0.001263251               0.000000000               0.000000000               0.000000000               0.000000000               0.000024051               0.004997639              -0.000026084              -0.000615684               0.001871091               0.001255407               0.000000000               0.000000000               0.000000000               0.000000000               0.000030161               0.004963820               0.000000544              -0.000609166               0.001857645               0.001248480               0.000000000               0.000000000               0.000000000               0.000000000               0.000022460               0.004959210               0.000008758              -0.000611477               0.001856879               0.001245402               0.000000000               0.000000000               0.000000000               0.000000000              -0.002482210               0.004337334              -0.001102085              -0.001472992               0.001936761               0.000463768               0.000000000               0.000000000               0.000000000               0.000000000              -0.003586286               0.006251971              -0.001453964              -0.002126349               0.002792752               0.000666403               0.000000000               0.000000000               0.000000000               0.000000000              -0.004581496               0.008124600              -0.001607883              -0.002733629               0.003619383               0.000885753               0.000000000               0.000000000               0.000000000               0.000000000              -0.004324935               0.008470800              -0.001408106              -0.002680694               0.003717137               0.001036442               0.000000000               0.000000000               0.000000000               0.000000000              -0.003753987               0.008304347              -0.001200307              -0.002445783               0.003583349               0.001137566               0.000000000               0.000000000               0.000000000               0.000000000              -0.003113821               0.007959240              -0.001024218              -0.002162583               0.003373914               0.001211332               0.000000000               0.000000000               0.000000000               0.000000000              -0.002485168               0.007549925              -0.000873631              -0.001875674               0.003141841               0.001266167               0.000000000               0.000000000               0.000000000               0.000000000              -0.001905147               0.007128584              -0.000744327              -0.001605499               0.002911337               0.001305838               0.000000000               0.000000000               0.000000000               0.000000000              -0.001395802               0.006718383              -0.000632606              -0.001363220               0.002693845               0.001330625               0.000000000               0.000000000               0.000000000               0.000000000              -0.000964300               0.006328622              -0.000534870              -0.001152688               0.002493749               0.001341061               0.000000000               0.000000000               0.000000000               0.000000000              -0.000609646               0.005963662              -0.000444318              -0.000974073               0.002312558               0.001338486               0.000000000               0.000000000               0.000000000               0.000000000              -0.000329193               0.005634301              -0.000353643              -0.000827733               0.002153993               0.001326260               0.000000000               0.000000000               0.000000000               0.000000000              -0.000124263               0.005360959              -0.000260176              -0.000716717               0.002025874               0.001309157               0.000000000               0.000000000               0.000000000               0.000000000               0.000005279               0.005164637              -0.000164161              -0.000643598               0.001936061               0.001292463               0.000000000               0.000000000               0.000000000               0.000000000               0.000065427               0.005043564              -0.000079200              -0.000605909               0.001883141               0.001277232               0.000000000               0.000000000               0.000000000               0.000000000               0.000078272               0.004996455              -0.000023506              -0.000595203               0.001863869               0.001268666               0.000000000               0.000000000               0.000000000               0.000000000               0.000071349               0.004990787              -0.000002581              -0.000597091               0.001862609               0.001265518               0.000000000               0.000000000               0.000000000               0.000000000              -0.004344816               0.002480037              -0.000184720              -0.001939307               0.001473105              -0.000466202               0.000000000               0.000000000               0.000000000               0.000000000              -0.004502599               0.004643326              -0.001239200              -0.002268885               0.002304054               0.000035169               0.000000000               0.000000000               0.000000000               0.000000000              -0.004937352               0.006741956              -0.002028019              -0.002694245               0.003145377               0.000451132               0.000000000               0.000000000               0.000000000               0.000000000              -0.004550173               0.007473746              -0.001991095              -0.002640527               0.003371399               0.000730872               0.000000000               0.000000000               0.000000000               0.000000000              -0.003938337               0.007637063              -0.001786559              -0.002431504               0.003356163               0.000924660               0.000000000               0.000000000               0.000000000               0.000000000              -0.003281550               0.007543328              -0.001568209              -0.002173492               0.003238914               0.001065422               0.000000000               0.000000000               0.000000000               0.000000000              -0.002642654               0.007325789              -0.001366288              -0.001906714               0.003077476               0.001170762               0.000000000               0.000000000               0.000000000               0.000000000              -0.002040047               0.007047954              -0.001190033              -0.001646008               0.002897964               0.001251956               0.000000000               0.000000000               0.000000000               0.000000000              -0.001497021               0.006734165              -0.001037676              -0.001403150               0.002712416               0.001309266               0.000000000               0.000000000               0.000000000               0.000000000              -0.001028089               0.006409267              -0.000900162              -0.001186689               0.002531964               0.001345275               0.000000000               0.000000000               0.000000000               0.000000000              -0.000636387               0.006090289              -0.000767957              -0.000999929               0.002363386               0.001363457               0.000000000               0.000000000               0.000000000               0.000000000              -0.000314660               0.005786720              -0.000636812              -0.000841336               0.002209332               0.001367997               0.000000000               0.000000000               0.000000000               0.000000000              -0.000062588               0.005509163              -0.000498244              -0.000712114               0.002073740               0.001361626               0.000000000               0.000000000               0.000000000               0.000000000               0.000116724               0.005279817              -0.000349042              -0.000616204               0.001965323               0.001349118               0.000000000               0.000000000               0.000000000               0.000000000               0.000214868               0.005113216              -0.000204470              -0.000558575               0.001890580               0.001332005               0.000000000               0.000000000               0.000000000               0.000000000               0.000235403               0.005027681              -0.000087343              -0.000540183               0.001855938               0.001315755               0.000000000               0.000000000               0.000000000               0.000000000               0.000211799               0.004996269              -0.000031773              -0.000545107               0.001847109               0.001302001               0.000000000               0.000000000               0.000000000               0.000000000              -0.006472898               0.000976483               0.000613710              -0.002549394               0.001175284              -0.001374110               0.000000000               0.000000000               0.000000000               0.000000000              -0.005560347               0.003127524              -0.000948329              -0.002476066               0.001867851              -0.000608216               0.000000000               0.000000000               0.000000000               0.000000000              -0.005226342               0.005162289              -0.002233577              -0.002605159               0.002589131              -0.000016028               0.000000000               0.000000000               0.000000000               0.000000000              -0.004620121               0.006161248              -0.002396800              -0.002502696               0.002887960               0.000385264               0.000000000               0.000000000               0.000000000               0.000000000              -0.003954920               0.006624009              -0.002249879              -0.002311091               0.002978344               0.000667253               0.000000000               0.000000000               0.000000000               0.000000000              -0.003291446               0.006795284              -0.002027995              -0.002083698               0.002959638               0.000875939               0.000000000               0.000000000               0.000000000               0.000000000              -0.002651229               0.006802352              -0.001805078              -0.001844501               0.002882261               0.001037760               0.000000000               0.000000000               0.000000000               0.000000000              -0.002048696               0.006699775              -0.001603488              -0.001605730               0.002768479               0.001162749               0.000000000               0.000000000               0.000000000               0.000000000              -0.001492670               0.006524886              -0.001422965              -0.001375359               0.002633393               0.001258034               0.000000000               0.000000000               0.000000000               0.000000000              -0.000996659               0.006305767              -0.001256415              -0.001161966               0.002489223               0.001327257               0.000000000               0.000000000               0.000000000               0.000000000              -0.000564151               0.006067851              -0.001099456              -0.000970036               0.002345942               0.001375906               0.000000000               0.000000000               0.000000000               0.000000000              -0.000194383               0.005826575              -0.000942899              -0.000801214               0.002209243               0.001408030               0.000000000               0.000000000               0.000000000               0.000000000               0.000112360               0.005586650              -0.000776067              -0.000656195               0.002080930               0.001424735               0.000000000               0.000000000               0.000000000               0.000000000               0.000351989               0.005361864              -0.000589643              -0.000538236               0.001966682               0.001428446               0.000000000               0.000000000               0.000000000               0.000000000               0.000510843               0.005181283              -0.000385333              -0.000456093               0.001879108               0.001423015               0.000000000               0.000000000               0.000000000               0.000000000               0.000567922               0.005066899              -0.000184241              -0.000420390               0.001829080               0.001408689               0.000000000               0.000000000               0.000000000               0.000000000               0.000547037               0.005014456              -0.000082014              -0.000421667               0.001812024               0.001390357               0.000000000               0.000000000               0.000000000               0.000000000              -0.008718924              -0.000096888               0.001166502              -0.003257483               0.001053524              -0.002203959               0.000000000               0.000000000               0.000000000               0.000000000              -0.006697222               0.001787399              -0.000631921              -0.002734880               0.001507416              -0.001227464               0.000000000               0.000000000               0.000000000               0.000000000              -0.005469670               0.003521077              -0.002193963              -0.002491257               0.002004097              -0.000487160               0.000000000               0.000000000               0.000000000               0.000000000              -0.004562770               0.004642716              -0.002530541              -0.002291374               0.002311346               0.000019973               0.000000000               0.000000000               0.000000000               0.000000000              -0.003807727               0.005339803              -0.002468923              -0.002095369               0.002478372               0.000383003               0.000000000               0.000000000               0.000000000               0.000000000              -0.003130260               0.005759364              -0.002284819              -0.001893764               0.002551023               0.000657259               0.000000000               0.000000000               0.000000000               0.000000000              -0.002498726               0.005992617              -0.002073201              -0.001686096               0.002559551               0.000873454               0.000000000               0.000000000               0.000000000               0.000000000              -0.001912426               0.006087345              -0.001869308              -0.001478075               0.002521786               0.001043711               0.000000000               0.000000000               0.000000000               0.000000000              -0.001362970               0.006081024              -0.001683313              -0.001271239               0.002450734               0.001179494               0.000000000               0.000000000               0.000000000               0.000000000              -0.000849187               0.005996785              -0.001512058              -0.001068041               0.002354922               0.001286881               0.000000000               0.000000000               0.000000000               0.000000000              -0.000376398               0.005865960              -0.001349018              -0.000874393               0.002246764               0.001372372               0.000000000               0.000000000               0.000000000               0.000000000               0.000049769               0.005715077              -0.001186027              -0.000695720               0.002136913               0.001441193               0.000000000               0.000000000               0.000000000               0.000000000               0.000429175               0.005551593              -0.001012459              -0.000533008               0.002028182               0.001495174               0.000000000               0.000000000               0.000000000               0.000000000               0.000754435               0.005383356              -0.000809320              -0.000390006               0.001924436               0.001534430               0.000000000               0.000000000               0.000000000               0.000000000               0.001011823               0.005228120              -0.000566001              -0.000274081               0.001834050               0.001559969               0.000000000               0.000000000               0.000000000               0.000000000               0.001173382               0.005102208              -0.000289981              -0.000197757               0.001766638               0.001568881               0.000000000               0.000000000               0.000000000               0.000000000               0.001220639               0.005045175              -0.000145379              -0.000172907               0.001739344               0.001566437               0.000000000               0.000000000               0.000000000               0.000000000              -0.010862120              -0.000768015               0.001372271              -0.003977290               0.001069751              -0.002907540               0.000000000               0.000000000               0.000000000               0.000000000              -0.007816894               0.000695531              -0.000351654              -0.003018274               0.001237926              -0.001780347               0.000000000               0.000000000               0.000000000               0.000000000              -0.005681924               0.001985015              -0.001906649              -0.002378845               0.001454610              -0.000924236               0.000000000               0.000000000               0.000000000               0.000000000              -0.004422982               0.003101517              -0.002332402              -0.002046304               0.001715928              -0.000330377               0.000000000               0.000000000               0.000000000               0.000000000              -0.003541607               0.003947287              -0.002349349              -0.001821510               0.001922918               0.000101408               0.000000000               0.000000000               0.000000000               0.000000000              -0.002832811               0.004563748              -0.002223242              -0.001632769               0.002065490               0.000432720               0.000000000               0.000000000               0.000000000               0.000000000              -0.002211000               0.004994669              -0.002046743              -0.001453456               0.002149357               0.000695902               0.000000000               0.000000000               0.000000000               0.000000000              -0.001643550               0.005275191              -0.001866280              -0.001275728               0.002183622               0.000907894               0.000000000               0.000000000               0.000000000               0.000000000              -0.001106398               0.005435087              -0.001700760              -0.001094283               0.002176438               0.001082155               0.000000000               0.000000000               0.000000000               0.000000000              -0.000585885               0.005497905              -0.001547943              -0.000906944               0.002134931               0.001227987               0.000000000               0.000000000               0.000000000               0.000000000              -0.000082804               0.005494684              -0.001400721              -0.000717886               0.002070838               0.001352952               0.000000000               0.000000000               0.000000000               0.000000000               0.000400063               0.005454521              -0.001255239              -0.000531791               0.001995419               0.001463628               0.000000000               0.000000000               0.000000000               0.000000000               0.000860151               0.005391922              -0.001098314              -0.000351433               0.001914434               0.001563000               0.000000000               0.000000000               0.000000000               0.000000000               0.001295395               0.005315042              -0.000908049              -0.000178607               0.001831199               0.001652591               0.000000000               0.000000000               0.000000000               0.000000000               0.001697360               0.005219219              -0.000665981              -0.000015893               0.001745020               0.001729127               0.000000000               0.000000000               0.000000000               0.000000000               0.002045053               0.005112440              -0.000359544               0.000127838               0.001661517               0.001789355               0.000000000               0.000000000               0.000000000               0.000000000               0.002245237               0.005076614              -0.000198486               0.000207385               0.001623059               0.001830445               0.000000000               0.000000000               0.000000000               0.000000000              -0.012649010              -0.001117900               0.001199737              -0.004603638               0.001161905              -0.003441734               0.000000000               0.000000000               0.000000000               0.000000000              -0.008779820              -0.000095209              -0.000152540              -0.003280529               0.001061766              -0.002218763               0.000000000               0.000000000               0.000000000               0.000000000              -0.005861431               0.000730965              -0.001404222              -0.002289405               0.001006783              -0.001282622               0.000000000               0.000000000               0.000000000               0.000000000              -0.004260803               0.001755777              -0.001795931              -0.001817270               0.001191007              -0.000626264               0.000000000               0.000000000               0.000000000               0.000000000              -0.003237003               0.002669471              -0.001852426              -0.001547557               0.001405666              -0.000141892               0.000000000               0.000000000               0.000000000               0.000000000              -0.002485309               0.003416522              -0.001780781              -0.001359053               0.001591846               0.000232793               0.000000000               0.000000000               0.000000000               0.000000000              -0.001864344               0.003995174              -0.001656190              -0.001198523               0.001731219               0.000532695               0.000000000               0.000000000               0.000000000               0.000000000              -0.001308422               0.004422949              -0.001521580              -0.001043525               0.001822143               0.000778618               0.000000000               0.000000000               0.000000000               0.000000000              -0.000786602               0.004721827              -0.001397681              -0.000885202               0.001868994               0.000983791               0.000000000               0.000000000               0.000000000               0.000000000              -0.000276308               0.004925409              -0.001282373              -0.000719290               0.001881550               0.001162259               0.000000000               0.000000000               0.000000000               0.000000000               0.000242161               0.005060661              -0.001170884              -0.000541772               0.001867461               0.001325689               0.000000000               0.000000000               0.000000000               0.000000000               0.000769092               0.005142047              -0.001061385              -0.000354346               0.001832114               0.001477768               0.000000000               0.000000000               0.000000000               0.000000000               0.001303543               0.005187060              -0.000944954              -0.000159554               0.001782187               0.001622633               0.000000000               0.000000000               0.000000000               0.000000000               0.001852415               0.005199930              -0.000802444               0.000044663               0.001718405               0.001763068               0.000000000               0.000000000               0.000000000               0.000000000               0.002414976               0.005167026              -0.000609944               0.000259735               0.001635746               0.001895481               0.000000000               0.000000000               0.000000000               0.000000000               0.002991564               0.005094742              -0.000341347               0.000484989               0.001536567               0.002021556               0.000000000               0.000000000               0.000000000               0.000000000               0.003397269               0.005093848              -0.000200139               0.000637238               0.001485520               0.002122758               0.000000000               0.000000000               0.000000000               0.000000000              -0.013845917              -0.001255577               0.000697567              -0.005035268               0.001259889              -0.003775380               0.000000000               0.000000000               0.000000000               0.000000000              -0.009438962              -0.000565082              -0.000045680              -0.003468973               0.000967957              -0.002501016               0.000000000               0.000000000               0.000000000               0.000000000              -0.005985312              -0.000092283              -0.000744231              -0.002232955               0.000713552              -0.001519403               0.000000000               0.000000000               0.000000000               0.000000000              -0.004132711               0.000829740              -0.000978337              -0.001653482               0.000827735              -0.000825747               0.000000000               0.000000000               0.000000000               0.000000000              -0.002996555               0.001757996              -0.001023621              -0.001343455               0.001033810              -0.000309646               0.000000000               0.000000000               0.000000000               0.000000000              -0.002205426               0.002576012              -0.000993095              -0.001149034               0.001241673               0.000092639               0.000000000               0.000000000               0.000000000               0.000000000              -0.001583292               0.003247767              -0.000930633              -0.000999703               0.001415812               0.000416109               0.000000000               0.000000000               0.000000000               0.000000000              -0.001039067               0.003769608              -0.000860522              -0.000860849               0.001543473               0.000682624               0.000000000               0.000000000               0.000000000               0.000000000              -0.000531830               0.004163034              -0.000791999              -0.000719814               0.001627602               0.000907788               0.000000000               0.000000000               0.000000000               0.000000000              -0.000030682               0.004468939              -0.000729326              -0.000570122               0.001679672               0.001109550               0.000000000               0.000000000               0.000000000               0.000000000               0.000489715               0.004712851              -0.000670615              -0.000405462               0.001706089               0.001300626               0.000000000               0.000000000               0.000000000               0.000000000               0.001041700               0.004898550              -0.000610480              -0.000221681               0.001706727               0.001485046               0.000000000               0.000000000               0.000000000               0.000000000               0.001630610               0.005029050              -0.000548633              -0.000017153               0.001682051               0.001664898               0.000000000               0.000000000               0.000000000               0.000000000               0.002264567               0.005101847              -0.000473168               0.000211480               0.001630105               0.001841585               0.000000000               0.000000000               0.000000000               0.000000000               0.002957153               0.005112644              -0.000366437               0.000469847               0.001547582               0.002017429               0.000000000               0.000000000               0.000000000               0.000000000               0.003734425               0.005070574              -0.000209789               0.000766580               0.001434648               0.002201228               0.000000000               0.000000000               0.000000000               0.000000000               0.004329430               0.005102282              -0.000128409               0.000985741               0.001372163               0.002357904               0.000000000               0.000000000               0.000000000               0.000000000               0.000000000               0.000000000               0.000000000               0.000000000               0.000000000               0.000000000               0.000000000               0.000000000               0.000000000               0.000000000               0.000000000               0.000000000               0.000000000               0.000000000               0.000000000               0.000000000               0.000000000               0.000000000               0.000000000               0.000000000               0.000000000               0.000000000               0.000000000               0.000000000               0.000000000               0.000000000               0.000000000               0.000000000               0.000000000               0.000000000               0.000000000               0.000000000               0.000000000               0.000000000               0.000000000               0.000000000               0.000000000               0.000000000               0.000000000               0.000000000               0.000000000               0.000000000               0.000000000               0.000000000               0.000000000               0.000000000               0.000000000               0.000000000               0.000000000               0.000000000               0.000000000               0.000000000               0.000000000               0.000000000               0.000000000               0.000000000               0.000000000               0.000000000               0.000000000               0.000000000               0.000000000               0.000000000               0.000000000               0.000000000               0.000000000               0.000000000               0.000000000               0.000000000               0.000000000               0.000000000               0.000000000               0.000000000               0.000000000               0.000000000               0.000000000               0.000000000               0.000000000               0.000000000               0.000000000               0.000000000               0.000000000               0.000000000               0.000000000               0.000000000               0.000000000               0.000000000               0.000000000               0.000000000               0.000000000               0.000000000               0.000000000               0.000000000               0.000000000               0.000000000               0.000000000               0.000000000               0.000000000               0.000000000               0.000000000               0.000000000               0.000000000               0.000000000               0.000000000               0.000000000               0.000000000               0.000000000               0.000000000               0.000000000               0.000000000               0.000000000               0.000000000               0.000000000               0.000000000               0.000000000               0.000000000               0.000000000               0.000000000               0.000000000               0.000000000               0.000000000               0.000000000               0.000000000               0.000000000               0.000000000               0.000000000               0.000000000               0.000000000               0.000000000               0.000000000               0.000000000               0.000000000               0.000000000               0.000000000               0.000000000               0.000000000               0.000000000               0.000000000               0.000000000               0.000000000               0.000000000               0.000000000               0.000000000               0.000000000               0.000000000               0.000000000               0.000000000               0.000000000               0.000000000               0.000000000               0.000000000               0.000000000               0.000000000               0.000000000               0.000000000               0.000000000               0.000000000               0.000000000               0.000000000               0.000000000               0.000000000               0.000000000               0.000000000               0.000000000               0.000000000               0.000000000               0.000000000               0.000000000               0.000000000               0.000000000               0.000000000               0.000000000               0.000000000               0.000000000               0.000000000               0.000000000               0.000000000               0.000000000               0.000000000               0.000000000               0.000000000               0.000000000               0.000000000               0.000000000               0.000000000               0.000000000               0.000000000               0.000000000               0.000000000               0.000000000               0.000000000               0.000000000               0.000000000               0.000000000               0.000000000               0.000000000               0.000000000               0.000000000               0.000000000               0.000000000               0.000000000               0.000000000               0.000000000               0.000000000               0.000000000               0.000000000               0.000000000               0.000000000               0.000000000               0.000000000               0.000000000               0.000000000               0.000000000               0.000000000               0.000000000               0.000000000               0.000000000               0.000000000               0.000000000               0.000000000               0.000000000               0.000000000               0.000000000               0.000000000               0.000000000               0.000000000               0.000000000               0.000000000               0.000000000               0.000000000               0.000000000               0.000000000               0.000000000               0.000000000               0.000000000               0.000000000               0.000000000               0.000000000               0.000000000               0.000000000               0.000000000               0.000000000               0.000000000               0.000000000               0.000000000               0.000000000               0.000000000               0.000000000               0.000000000               0.000000000               0.000000000               0.000000000               0.000000000               0.000000000               0.000000000               0.000000000               0.000000000               0.000000000               0.000000000               0.000000000               0.000000000               0.000000000               0.000000000               0.000000000               0.000000000               0.000000000               0.000000000               0.000000000               0.000000000               0.000000000               0.000000000               0.000000000               0.000000000               0.000000000               0.000000000               0.000000000               0.000000000               0.000000000               0.000000000               0.000000000               0.000000000               0.000000000               0.000000000               0.000000000               0.000000000               0.000000000               0.000000000               0.000000000               0.000000000               0.000000000               0.000000000               0.000000000               0.000000000               0.000000000               0.000000000               0.000000000               0.000000000               0.000000000               0.000000000               0.000000000               0.000000000               0.000000000               0.000000000               0.000000000               0.000000000               0.000000000               0.000000000               0.000000000               0.000000000               0.000000000               0.000000000               0.000000000               0.000000000               0.000000000               0.000000000               0.000000000               0.000000000               0.000000000               0.000000000               0.000000000               0.000000000               0.000000000               0.000000000               0.000000000               0.000000000               0.000000000               0.000000000               0.000000000               0.000000000               0.000000000               0.000000000               0.000000000               0.000000000               0.000000000               0.000000000               0.000000000               0.000000000               0.000000000               0.000000000               0.000000000               0.000000000               0.002296675               0.023382560               0.001575185              -0.002061562               0.008481296               0.006419734               0.000000000               0.000000000               0.000000000               0.000000000               0.002064446               0.018037213               0.000704694              -0.001480481               0.006505838               0.005025357               0.000000000               0.000000000               0.000000000               0.000000000               0.002516179               0.013752380              -0.000155252              -0.000775478               0.004842574               0.004067095               0.000000000               0.000000000               0.000000000               0.000000000               0.002230758               0.011339445              -0.000509387              -0.000580895               0.003973409               0.003392514               0.000000000               0.000000000               0.000000000               0.000000000               0.001765238               0.009807937              -0.000644793              -0.000564027               0.003457289               0.002893262               0.000000000               0.000000000               0.000000000               0.000000000               0.001302756               0.008721235              -0.000681609              -0.000601620               0.003107589               0.002505969               0.000000000               0.000000000               0.000000000               0.000000000               0.000905591               0.007872763              -0.000674704              -0.000644497               0.002839060               0.002194563               0.000000000               0.000000000               0.000000000               0.000000000               0.000589796               0.007148821              -0.000648105              -0.000672428               0.002607059               0.001934631               0.000000000               0.000000000               0.000000000               0.000000000               0.000349745               0.006493109              -0.000613907              -0.000680483               0.002391176               0.001710693               0.000000000               0.000000000               0.000000000               0.000000000               0.000172847               0.005867942              -0.000578453              -0.000668674               0.002178852               0.001510179               0.000000000               0.000000000               0.000000000               0.000000000               0.000044889               0.005256750              -0.000542615              -0.000640259               0.001965652               0.001325393               0.000000000               0.000000000               0.000000000               0.000000000              -0.000050519               0.004645960              -0.000507469              -0.000599688               0.001748534               0.001148846               0.000000000               0.000000000               0.000000000               0.000000000              -0.000112479               0.004029349              -0.000465488              -0.000545847               0.001525052               0.000979205               0.000000000               0.000000000               0.000000000               0.000000000              -0.000138234               0.003390908              -0.000402155              -0.000475700               0.001288858               0.000813158               0.000000000               0.000000000               0.000000000               0.000000000              -0.000126963               0.002708426              -0.000310203              -0.000386163               0.001031521               0.000645357               0.000000000               0.000000000               0.000000000               0.000000000              -0.000074832               0.001967942              -0.000178878              -0.000274054               0.000747326               0.000473271               0.000000000               0.000000000               0.000000000               0.000000000              -0.000096973               0.001417396              -0.000111279              -0.000213539               0.000543640               0.000330101               0.000000000               0.000000000               0.000000000               0.000000000               0.002439575               0.021921831               0.002910855              -0.001825385               0.007915665               0.006090280               0.000000000               0.000000000               0.000000000               0.000000000               0.001850446               0.017124852               0.001298116              -0.001446686               0.006190455               0.004743769               0.000000000               0.000000000               0.000000000               0.000000000               0.001924142               0.013403422              -0.000277269              -0.000953872               0.004785720               0.003831848               0.000000000               0.000000000               0.000000000               0.000000000               0.001514200               0.011265788              -0.000900068              -0.000840397               0.004035357               0.003194961               0.000000000               0.000000000               0.000000000               0.000000000               0.001044831               0.009864003              -0.001127178              -0.000841187               0.003568364               0.002727177               0.000000000               0.000000000               0.000000000               0.000000000               0.000635702               0.008838718              -0.001183652              -0.000866450               0.003235026               0.002368577               0.000000000               0.000000000               0.000000000               0.000000000               0.000313561               0.008018059              -0.001162657              -0.000884670               0.002967549               0.002082879               0.000000000               0.000000000               0.000000000               0.000000000               0.000074449               0.007310477              -0.001107066              -0.000885889               0.002732098               0.001846208               0.000000000               0.000000000               0.000000000               0.000000000              -0.000093806               0.006664820              -0.001037790              -0.000868278               0.002511010               0.001642732               0.000000000               0.000000000               0.000000000               0.000000000              -0.000202829               0.006054127              -0.000967085              -0.000832825               0.002295630               0.001462805               0.000000000               0.000000000               0.000000000               0.000000000              -0.000270889               0.005466884              -0.000898212              -0.000784942               0.002083924               0.001298981               0.000000000               0.000000000               0.000000000               0.000000000              -0.000309213               0.004895709              -0.000828416              -0.000727917               0.001874526               0.001146609               0.000000000               0.000000000               0.000000000               0.000000000              -0.000308369               0.004336634              -0.000746282              -0.000657716               0.001664769               0.001007053               0.000000000               0.000000000               0.000000000               0.000000000              -0.000272000               0.003780814              -0.000628402              -0.000574600               0.001451792               0.000877192               0.000000000               0.000000000               0.000000000               0.000000000              -0.000205729               0.003225390              -0.000470445              -0.000480321               0.001235226               0.000754905               0.000000000               0.000000000               0.000000000               0.000000000              -0.000110080               0.002680080              -0.000263302              -0.000376289               0.001018781               0.000642492               0.000000000               0.000000000               0.000000000               0.000000000              -0.000094278               0.002308781              -0.000157507              -0.000323951               0.000877570               0.000553618               0.000000000               0.000000000               0.000000000               0.000000000               0.002542711               0.019699083               0.003830413              -0.001508867               0.007069251               0.005560383               0.000000000               0.000000000               0.000000000               0.000000000               0.001459840               0.015760599               0.001707893              -0.001422632               0.005727691               0.004305059               0.000000000               0.000000000               0.000000000               0.000000000               0.001009734               0.012879066              -0.000335092              -0.001231230               0.004703389               0.003472159               0.000000000               0.000000000               0.000000000               0.000000000               0.000465233               0.011133861              -0.001094846              -0.001217268               0.004117006               0.002899738               0.000000000               0.000000000               0.000000000               0.000000000               0.000029287               0.009914282              -0.001351859              -0.001228300               0.003714161               0.002485861               0.000000000               0.000000000               0.000000000               0.000000000              -0.000279812               0.008970790              -0.001399711              -0.001226276               0.003398992               0.002172716               0.000000000               0.000000000               0.000000000               0.000000000              -0.000481193               0.008182977              -0.001358680              -0.001203317               0.003128737               0.001925420               0.000000000               0.000000000               0.000000000               0.000000000              -0.000598328               0.007491905              -0.001276757              -0.001160859               0.002884229               0.001723371               0.000000000               0.000000000               0.000000000               0.000000000              -0.000650730               0.006857129              -0.001180441              -0.001101163               0.002652741               0.001551578               0.000000000               0.000000000               0.000000000               0.000000000              -0.000658369               0.006266929              -0.001085804              -0.001030252               0.002432373               0.001402120               0.000000000               0.000000000               0.000000000               0.000000000              -0.000641522               0.005715289              -0.000995928              -0.000954980               0.002223404               0.001268424               0.000000000               0.000000000               0.000000000               0.000000000              -0.000597909               0.005200862              -0.000904925              -0.000874322               0.002025044               0.001150722               0.000000000               0.000000000               0.000000000               0.000000000              -0.000519454               0.004717249              -0.000796495              -0.000784450               0.001833884               0.001049434               0.000000000               0.000000000               0.000000000               0.000000000              -0.000406228               0.004264967              -0.000652818              -0.000685455               0.001650126               0.000964672               0.000000000               0.000000000               0.000000000               0.000000000              -0.000270161               0.003858888              -0.000474852              -0.000583670               0.001480840               0.000897170               0.000000000               0.000000000               0.000000000               0.000000000              -0.000132260               0.003513452              -0.000258670              -0.000488778               0.001334065               0.000845287               0.000000000               0.000000000               0.000000000               0.000000000              -0.000085315               0.003310058              -0.000148914              -0.000445749               0.001251925               0.000806176               0.000000000               0.000000000               0.000000000               0.000000000               0.002473613               0.016993966               0.004249738              -0.001196641               0.006063478               0.004866837               0.000000000               0.000000000               0.000000000               0.000000000               0.000883455               0.014124995               0.001915298              -0.001434326               0.005186393               0.003752067               0.000000000               0.000000000               0.000000000               0.000000000              -0.000104515               0.012240470              -0.000294604              -0.001569248               0.004603199               0.003033950               0.000000000               0.000000000               0.000000000               0.000000000              -0.000729477               0.010928464              -0.001055856              -0.001639608               0.004189321               0.002549713               0.000000000               0.000000000               0.000000000               0.000000000              -0.001075720               0.009900081              -0.001287969              -0.001640901               0.003846961               0.002206060               0.000000000               0.000000000               0.000000000               0.000000000              -0.001236683               0.009040486              -0.001313786              -0.001593813               0.003544736               0.001950923               0.000000000               0.000000000               0.000000000               0.000000000              -0.001277522               0.008287278              -0.001256730              -0.001514977               0.003267391               0.001752414               0.000000000               0.000000000               0.000000000               0.000000000              -0.001240143               0.007608211              -0.001164578              -0.001416077               0.003008070               0.001591993               0.000000000               0.000000000               0.000000000               0.000000000              -0.001158691               0.006989582              -0.001059766              -0.001308204               0.002765905               0.001457701               0.000000000               0.000000000               0.000000000               0.000000000              -0.001050765               0.006427448              -0.000960854              -0.001197465               0.002541616               0.001344151               0.000000000               0.000000000               0.000000000               0.000000000              -0.000927412               0.005919875              -0.000873611              -0.001087761               0.002335859               0.001248098               0.000000000               0.000000000               0.000000000               0.000000000              -0.000792386               0.005464181              -0.000782062              -0.000980165               0.002148097               0.001167932               0.000000000               0.000000000               0.000000000               0.000000000              -0.000634434               0.005053440              -0.000668691              -0.000869591               0.001974327               0.001104736               0.000000000               0.000000000               0.000000000               0.000000000              -0.000460515               0.004694920              -0.000529784              -0.000759557               0.001818143               0.001058587               0.000000000               0.000000000               0.000000000               0.000000000              -0.000287989               0.004410141              -0.000370442              -0.000659262               0.001689786               0.001030524               0.000000000               0.000000000               0.000000000               0.000000000              -0.000135229               0.004211742              -0.000192479              -0.000577177               0.001596292               0.001019115               0.000000000               0.000000000               0.000000000               0.000000000              -0.000074077               0.004121272              -0.000103713              -0.000542936               0.001554722               0.001011786               0.000000000               0.000000000               0.000000000               0.000000000               0.002104474               0.014095253               0.004181572              -0.000972730               0.005022613               0.004049883               0.000000000               0.000000000               0.000000000               0.000000000               0.000120811               0.012397868               0.001950295              -0.001504427               0.004634057               0.003129630               0.000000000               0.000000000               0.000000000               0.000000000              -0.001290274               0.011539295              -0.000129354              -0.001926260               0.004488480               0.002562220               0.000000000               0.000000000               0.000000000               0.000000000              -0.001885602               0.010629842              -0.000790083              -0.002035826               0.004221854               0.002186028               0.000000000               0.000000000               0.000000000               0.000000000              -0.002070468               0.009773273              -0.000972764              -0.001998080               0.003923751               0.001925672               0.000000000               0.000000000               0.000000000               0.000000000              -0.002044962               0.008987850              -0.000982509              -0.001890338               0.003626033               0.001735695               0.000000000               0.000000000               0.000000000               0.000000000              -0.001906135               0.008267204              -0.000926641              -0.001748197               0.003338439               0.001590243               0.000000000               0.000000000               0.000000000               0.000000000              -0.001707684               0.007609578              -0.000847732              -0.001591575               0.003067026               0.001475451               0.000000000               0.000000000               0.000000000               0.000000000              -0.001488897               0.007017340              -0.000762760              -0.001435500               0.002817590               0.001382089               0.000000000               0.000000000               0.000000000               0.000000000              -0.001265504               0.006493872              -0.000685130              -0.001286295               0.002593367               0.001307072               0.000000000               0.000000000               0.000000000               0.000000000              -0.001044446               0.006031032              -0.000619623              -0.001145544               0.002392172               0.001246628               0.000000000               0.000000000               0.000000000               0.000000000              -0.000834412               0.005622545              -0.000546865              -0.001015720               0.002212736               0.001197016               0.000000000               0.000000000               0.000000000               0.000000000              -0.000622592               0.005269469              -0.000448672              -0.000892153               0.002053857               0.001161703               0.000000000               0.000000000               0.000000000               0.000000000              -0.000418537               0.004984162              -0.000338269              -0.000779970               0.001921361               0.001141391               0.000000000               0.000000000               0.000000000               0.000000000              -0.000242947               0.004781228              -0.000223681              -0.000688757               0.001823312               0.001134555               0.000000000               0.000000000               0.000000000               0.000000000              -0.000106704               0.004665213              -0.000106967              -0.000623164               0.001762777               0.001139613               0.000000000               0.000000000               0.000000000               0.000000000              -0.000052353               0.004627747              -0.000051233              -0.000598099               0.001741933               0.001143834               0.000000000               0.000000000               0.000000000               0.000000000               0.001362734               0.011243674               0.003714007              -0.000894435               0.004045998               0.003151563               0.000000000               0.000000000               0.000000000               0.000000000              -0.000790024               0.010725394               0.001872315              -0.001636930               0.004120739               0.002483808               0.000000000               0.000000000               0.000000000               0.000000000              -0.002422096               0.010810536               0.000165923              -0.002259597               0.004356675               0.002097078               0.000000000               0.000000000               0.000000000               0.000000000              -0.002860405               0.010233647              -0.000346620              -0.002351852               0.004195132               0.001843280               0.000000000               0.000000000               0.000000000               0.000000000              -0.002825339               0.009516424              -0.000489203              -0.002249050               0.003921793               0.001672743               0.000000000               0.000000000               0.000000000               0.000000000              -0.002593496               0.008797027              -0.000505610              -0.002072184               0.003623041               0.001550857               0.000000000               0.000000000               0.000000000               0.000000000              -0.002274000               0.008117175              -0.000476926              -0.001867392               0.003328162               0.001460770               0.000000000               0.000000000               0.000000000               0.000000000              -0.001926759               0.007491704              -0.000435676              -0.001658994               0.003050207               0.001391214               0.000000000               0.000000000               0.000000000               0.000000000              -0.001588152               0.006935691              -0.000394225              -0.001462515               0.002799379               0.001336864               0.000000000               0.000000000               0.000000000               0.000000000              -0.001274484               0.006450833              -0.000355412              -0.001284283               0.002578350               0.001294068               0.000000000               0.000000000               0.000000000               0.000000000              -0.000986160               0.006024475              -0.000322225              -0.001122867               0.002382427               0.001259560               0.000000000               0.000000000               0.000000000               0.000000000              -0.000727257               0.005650559              -0.000281276              -0.000979039               0.002209847               0.001230808               0.000000000               0.000000000               0.000000000               0.000000000              -0.000496328               0.005340320              -0.000216863              -0.000853661               0.002064642               0.001210982               0.000000000               0.000000000               0.000000000               0.000000000              -0.000301910               0.005105519              -0.000148306              -0.000751404               0.001952291               0.001200886               0.000000000               0.000000000               0.000000000               0.000000000              -0.000156985               0.004948760              -0.000086876              -0.000677463               0.001875391               0.001197928               0.000000000               0.000000000               0.000000000               0.000000000              -0.000062235               0.004864007              -0.000033869              -0.000631338               0.001831765               0.001200428               0.000000000               0.000000000               0.000000000               0.000000000              -0.000032060               0.004835091              -0.000013135              -0.000616407               0.001817150               0.001200743               0.000000000               0.000000000               0.000000000               0.000000000               0.000276397               0.008615997               0.002961061              -0.000973351               0.003196420               0.002223069               0.000000000               0.000000000               0.000000000               0.000000000              -0.001793808               0.009206862               0.001741433              -0.001823532               0.003676767               0.001853235               0.000000000               0.000000000               0.000000000               0.000000000              -0.003385163               0.010055775               0.000581311              -0.002526402               0.004194025               0.001667624               0.000000000               0.000000000               0.000000000               0.000000000              -0.003556751               0.009731937               0.000205204              -0.002550267               0.004094036               0.001543768               0.000000000               0.000000000               0.000000000               0.000000000              -0.003274267               0.009132320               0.000064690              -0.002369384               0.003833871               0.001464487               0.000000000               0.000000000               0.000000000               0.000000000              -0.002844084               0.008482824               0.000008957              -0.002126879               0.003536540               0.001409660               0.000000000               0.000000000               0.000000000               0.000000000              -0.002370011               0.007855072              -0.000012260              -0.001870633               0.003241875               0.001371242               0.000000000               0.000000000               0.000000000               0.000000000              -0.001905948               0.007276504              -0.000024795              -0.001624289               0.002966907               0.001342618               0.000000000               0.000000000               0.000000000               0.000000000              -0.001483853               0.006762390              -0.000038980              -0.001401740               0.002721354               0.001319614               0.000000000               0.000000000               0.000000000               0.000000000              -0.001115542               0.006307683              -0.000047989              -0.001206786               0.002504802               0.001298016               0.000000000               0.000000000               0.000000000               0.000000000              -0.000796898               0.005908683              -0.000052096              -0.001037420               0.002315348               0.001277928               0.000000000               0.000000000               0.000000000               0.000000000              -0.000528710               0.005564351              -0.000049050              -0.000893808               0.002152701               0.001258893               0.000000000               0.000000000               0.000000000               0.000000000              -0.000314834               0.005287940              -0.000030247              -0.000779053               0.002022313               0.001243260               0.000000000               0.000000000               0.000000000               0.000000000              -0.000158687               0.005094839              -0.000012206              -0.000696361               0.001930383               0.001234022               0.000000000               0.000000000               0.000000000               0.000000000              -0.000062550               0.004977844              -0.000004974              -0.000645685               0.001874493               0.001228808               0.000000000               0.000000000               0.000000000               0.000000000              -0.000016795               0.004921789              -0.000000341              -0.000621520               0.001847753               0.001226233               0.000000000               0.000000000               0.000000000               0.000000000              -0.000011058               0.004903383              -0.000000721              -0.000617068               0.001840134               0.001223066               0.000000000               0.000000000               0.000000000               0.000000000              -0.001007491               0.006397565               0.002050924              -0.001177503               0.002525001               0.001347498               0.000000000               0.000000000               0.000000000               0.000000000              -0.002771105               0.007845847               0.001603836              -0.002019891               0.003288553               0.001268662               0.000000000               0.000000000               0.000000000               0.000000000              -0.004136328               0.009287966               0.001083070              -0.002712112               0.003999995               0.001287883               0.000000000               0.000000000               0.000000000               0.000000000              -0.004027871               0.009227945               0.000792242              -0.002663938               0.003963930               0.001299992               0.000000000               0.000000000               0.000000000               0.000000000              -0.003538464               0.008775997               0.000619365              -0.002423918               0.003733276               0.001309358               0.000000000               0.000000000               0.000000000               0.000000000              -0.002949752               0.008221656               0.000503799              -0.002133859               0.003451811               0.001317952               0.000000000               0.000000000               0.000000000               0.000000000              -0.002356795               0.007662423               0.000418792              -0.001841597               0.003167981               0.001326385               0.000000000               0.000000000               0.000000000               0.000000000              -0.001808881               0.007138464               0.000346988              -0.001570635               0.002903009               0.001332374               0.000000000               0.000000000               0.000000000               0.000000000              -0.001332490               0.006661284               0.000282422              -0.001332341               0.002664519               0.001332179               0.000000000               0.000000000               0.000000000               0.000000000              -0.000933374               0.006226119               0.000227519              -0.001128277               0.002451445               0.001323167               0.000000000               0.000000000               0.000000000               0.000000000              -0.000599469               0.005842162               0.000181979              -0.000955069               0.002265724               0.001310656               0.000000000               0.000000000               0.000000000               0.000000000              -0.000337306               0.005509584               0.000142084              -0.000815186               0.002108238               0.001293052               0.000000000               0.000000000               0.000000000               0.000000000              -0.000150504               0.005249554               0.000106308              -0.000712632               0.001987378               0.001274746               0.000000000               0.000000000               0.000000000               0.000000000              -0.000031087               0.005084152               0.000066644              -0.000647175               0.001910426               0.001263251               0.000000000               0.000000000               0.000000000               0.000000000               0.000024051               0.004997639               0.000026084              -0.000615684               0.001871091               0.001255407               0.000000000               0.000000000               0.000000000               0.000000000               0.000030161               0.004963820              -0.000000544              -0.000609166               0.001857645               0.001248480               0.000000000               0.000000000               0.000000000               0.000000000               0.000022460               0.004959210              -0.000008758              -0.000611477               0.001856879               0.001245402               0.000000000               0.000000000               0.000000000               0.000000000              -0.002482210               0.004337334               0.001102085              -0.001472992               0.001936761               0.000463768               0.000000000               0.000000000               0.000000000               0.000000000              -0.003586286               0.006251971               0.001453964              -0.002126349               0.002792752               0.000666403               0.000000000               0.000000000               0.000000000               0.000000000              -0.004581496               0.008124600               0.001607883              -0.002733629               0.003619383               0.000885753               0.000000000               0.000000000               0.000000000               0.000000000              -0.004324935               0.008470800               0.001408106              -0.002680694               0.003717137               0.001036442               0.000000000               0.000000000               0.000000000               0.000000000              -0.003753987               0.008304347               0.001200307              -0.002445783               0.003583349               0.001137566               0.000000000               0.000000000               0.000000000               0.000000000              -0.003113821               0.007959240               0.001024218              -0.002162583               0.003373914               0.001211332               0.000000000               0.000000000               0.000000000               0.000000000              -0.002485168               0.007549925               0.000873631              -0.001875674               0.003141841               0.001266167               0.000000000               0.000000000               0.000000000               0.000000000              -0.001905147               0.007128584               0.000744327              -0.001605499               0.002911337               0.001305838               0.000000000               0.000000000               0.000000000               0.000000000              -0.001395802               0.006718383               0.000632606              -0.001363220               0.002693845               0.001330625               0.000000000               0.000000000               0.000000000               0.000000000              -0.000964300               0.006328622               0.000534870              -0.001152688               0.002493749               0.001341061               0.000000000               0.000000000               0.000000000               0.000000000              -0.000609646               0.005963662               0.000444318              -0.000974073               0.002312558               0.001338486               0.000000000               0.000000000               0.000000000               0.000000000              -0.000329193               0.005634301               0.000353643              -0.000827733               0.002153993               0.001326260               0.000000000               0.000000000               0.000000000               0.000000000              -0.000124263               0.005360959               0.000260176              -0.000716717               0.002025874               0.001309157               0.000000000               0.000000000               0.000000000               0.000000000               0.000005279               0.005164637               0.000164161              -0.000643598               0.001936061               0.001292463               0.000000000               0.000000000               0.000000000               0.000000000               0.000065427               0.005043564               0.000079200              -0.000605909               0.001883141               0.001277232               0.000000000               0.000000000               0.000000000               0.000000000               0.000078272               0.004996455               0.000023506              -0.000595203               0.001863869               0.001268666               0.000000000               0.000000000               0.000000000               0.000000000               0.000071349               0.004990787               0.000002581              -0.000597091               0.001862609               0.001265518               0.000000000               0.000000000               0.000000000               0.000000000              -0.004344816               0.002480037               0.000184720              -0.001939307               0.001473105              -0.000466202               0.000000000               0.000000000               0.000000000               0.000000000              -0.004502599               0.004643326               0.001239200              -0.002268885               0.002304054               0.000035169               0.000000000               0.000000000               0.000000000               0.000000000              -0.004937352               0.006741956               0.002028019              -0.002694245               0.003145377               0.000451132               0.000000000               0.000000000               0.000000000               0.000000000              -0.004550173               0.007473746               0.001991095              -0.002640527               0.003371399               0.000730872               0.000000000               0.000000000               0.000000000               0.000000000              -0.003938337               0.007637063               0.001786559              -0.002431504               0.003356163               0.000924660               0.000000000               0.000000000               0.000000000               0.000000000              -0.003281550               0.007543328               0.001568209              -0.002173492               0.003238914               0.001065422               0.000000000               0.000000000               0.000000000               0.000000000              -0.002642654               0.007325789               0.001366288              -0.001906714               0.003077476               0.001170762               0.000000000               0.000000000               0.000000000               0.000000000              -0.002040047               0.007047954               0.001190033              -0.001646008               0.002897964               0.001251956               0.000000000               0.000000000               0.000000000               0.000000000              -0.001497021               0.006734165               0.001037676              -0.001403150               0.002712416               0.001309266               0.000000000               0.000000000               0.000000000               0.000000000              -0.001028089               0.006409267               0.000900162              -0.001186689               0.002531964               0.001345275               0.000000000               0.000000000               0.000000000               0.000000000              -0.000636387               0.006090289               0.000767957              -0.000999929               0.002363386               0.001363457               0.000000000               0.000000000               0.000000000               0.000000000              -0.000314660               0.005786720               0.000636812              -0.000841336               0.002209332               0.001367997               0.000000000               0.000000000               0.000000000               0.000000000              -0.000062588               0.005509163               0.000498244              -0.000712114               0.002073740               0.001361626               0.000000000               0.000000000               0.000000000               0.000000000               0.000116724               0.005279817               0.000349042              -0.000616204               0.001965323               0.001349118               0.000000000               0.000000000               0.000000000               0.000000000               0.000214868               0.005113216               0.000204470              -0.000558575               0.001890580               0.001332005               0.000000000               0.000000000               0.000000000               0.000000000               0.000235403               0.005027681               0.000087343              -0.000540183               0.001855938               0.001315755               0.000000000               0.000000000               0.000000000               0.000000000               0.000211799               0.004996269               0.000031773              -0.000545107               0.001847109               0.001302001               0.000000000               0.000000000               0.000000000               0.000000000              -0.006472898               0.000976483              -0.000613710              -0.002549394               0.001175284              -0.001374110               0.000000000               0.000000000               0.000000000               0.000000000              -0.005560347               0.003127524               0.000948329              -0.002476066               0.001867851              -0.000608216               0.000000000               0.000000000               0.000000000               0.000000000              -0.005226342               0.005162289               0.002233577              -0.002605159               0.002589131              -0.000016028               0.000000000               0.000000000               0.000000000               0.000000000              -0.004620121               0.006161248               0.002396800              -0.002502696               0.002887960               0.000385264               0.000000000               0.000000000               0.000000000               0.000000000              -0.003954920               0.006624009               0.002249879              -0.002311091               0.002978344               0.000667253               0.000000000               0.000000000               0.000000000               0.000000000              -0.003291446               0.006795284               0.002027995              -0.002083698               0.002959638               0.000875939               0.000000000               0.000000000               0.000000000               0.000000000              -0.002651229               0.006802352               0.001805078              -0.001844501               0.002882261               0.001037760               0.000000000               0.000000000               0.000000000               0.000000000              -0.002048696               0.006699775               0.001603488              -0.001605730               0.002768479               0.001162749               0.000000000               0.000000000               0.000000000               0.000000000              -0.001492670               0.006524886               0.001422965              -0.001375359               0.002633393               0.001258034               0.000000000               0.000000000               0.000000000               0.000000000              -0.000996659               0.006305767               0.001256415              -0.001161966               0.002489223               0.001327257               0.000000000               0.000000000               0.000000000               0.000000000              -0.000564151               0.006067851               0.001099456              -0.000970036               0.002345942               0.001375906               0.000000000               0.000000000               0.000000000               0.000000000              -0.000194383               0.005826575               0.000942899              -0.000801214               0.002209243               0.001408030               0.000000000               0.000000000               0.000000000               0.000000000               0.000112360               0.005586650               0.000776067              -0.000656195               0.002080930               0.001424735               0.000000000               0.000000000               0.000000000               0.000000000               0.000351989               0.005361864               0.000589643              -0.000538236               0.001966682               0.001428446               0.000000000               0.000000000               0.000000000               0.000000000               0.000510843               0.005181283               0.000385333              -0.000456093               0.001879108               0.001423015               0.000000000               0.000000000               0.000000000               0.000000000               0.000567922               0.005066899               0.000184241              -0.000420390               0.001829080               0.001408689               0.000000000               0.000000000               0.000000000               0.000000000               0.000547037               0.005014456               0.000082014              -0.000421667               0.001812024               0.001390357               0.000000000               0.000000000               0.000000000               0.000000000              -0.008718924              -0.000096888              -0.001166502              -0.003257483               0.001053524              -0.002203959               0.000000000               0.000000000               0.000000000               0.000000000              -0.006697222               0.001787399               0.000631921              -0.002734880               0.001507416              -0.001227464               0.000000000               0.000000000               0.000000000               0.000000000              -0.005469670               0.003521077               0.002193963              -0.002491257               0.002004097              -0.000487160               0.000000000               0.000000000               0.000000000               0.000000000              -0.004562770               0.004642716               0.002530541              -0.002291374               0.002311346               0.000019973               0.000000000               0.000000000               0.000000000               0.000000000              -0.003807727               0.005339803               0.002468923              -0.002095369               0.002478372               0.000383003               0.000000000               0.000000000               0.000000000               0.000000000              -0.003130260               0.005759364               0.002284819              -0.001893764               0.002551023               0.000657259               0.000000000               0.000000000               0.000000000               0.000000000              -0.002498726               0.005992617               0.002073201              -0.001686096               0.002559551               0.000873454               0.000000000               0.000000000               0.000000000               0.000000000              -0.001912426               0.006087345               0.001869308              -0.001478075               0.002521786               0.001043711               0.000000000               0.000000000               0.000000000               0.000000000              -0.001362970               0.006081024               0.001683313              -0.001271239               0.002450734               0.001179494               0.000000000               0.000000000               0.000000000               0.000000000              -0.000849187               0.005996785               0.001512058              -0.001068041               0.002354922               0.001286881               0.000000000               0.000000000               0.000000000               0.000000000              -0.000376398               0.005865960               0.001349018              -0.000874393               0.002246764               0.001372372               0.000000000               0.000000000               0.000000000               0.000000000               0.000049769               0.005715077               0.001186027              -0.000695720               0.002136913               0.001441193               0.000000000               0.000000000               0.000000000               0.000000000               0.000429175               0.005551593               0.001012459              -0.000533008               0.002028182               0.001495174               0.000000000               0.000000000               0.000000000               0.000000000               0.000754435               0.005383356               0.000809320              -0.000390006               0.001924436               0.001534430               0.000000000               0.000000000               0.000000000               0.000000000               0.001011823               0.005228120               0.000566001              -0.000274081               0.001834050               0.001559969               0.000000000               0.000000000               0.000000000               0.000000000               0.001173382               0.005102208               0.000289981              -0.000197757               0.001766638               0.001568881               0.000000000               0.000000000               0.000000000               0.000000000               0.001220639               0.005045175               0.000145379              -0.000172907               0.001739344               0.001566437               0.000000000               0.000000000               0.000000000               0.000000000              -0.010862120              -0.000768015              -0.001372271              -0.003977290               0.001069751              -0.002907540               0.000000000               0.000000000               0.000000000               0.000000000              -0.007816894               0.000695531               0.000351654              -0.003018274               0.001237926              -0.001780347               0.000000000               0.000000000               0.000000000               0.000000000              -0.005681924               0.001985015               0.001906649              -0.002378845               0.001454610              -0.000924236               0.000000000               0.000000000               0.000000000               0.000000000              -0.004422982               0.003101517               0.002332402              -0.002046304               0.001715928              -0.000330377               0.000000000               0.000000000               0.000000000               0.000000000              -0.003541607               0.003947287               0.002349349              -0.001821510               0.001922918               0.000101408               0.000000000               0.000000000               0.000000000               0.000000000              -0.002832811               0.004563748               0.002223242              -0.001632769               0.002065490               0.000432720               0.000000000               0.000000000               0.000000000               0.000000000              -0.002211000               0.004994669               0.002046743              -0.001453456               0.002149357               0.000695902               0.000000000               0.000000000               0.000000000               0.000000000              -0.001643550               0.005275191               0.001866280              -0.001275728               0.002183622               0.000907894               0.000000000               0.000000000               0.000000000               0.000000000              -0.001106398               0.005435087               0.001700760              -0.001094283               0.002176438               0.001082155               0.000000000               0.000000000               0.000000000               0.000000000              -0.000585885               0.005497905               0.001547943              -0.000906944               0.002134931               0.001227987               0.000000000               0.000000000               0.000000000               0.000000000              -0.000082804               0.005494684               0.001400721              -0.000717886               0.002070838               0.001352952               0.000000000               0.000000000               0.000000000               0.000000000               0.000400063               0.005454521               0.001255239              -0.000531791               0.001995419               0.001463628               0.000000000               0.000000000               0.000000000               0.000000000               0.000860151               0.005391922               0.001098314              -0.000351433               0.001914434               0.001563000               0.000000000               0.000000000               0.000000000               0.000000000               0.001295395               0.005315042               0.000908049              -0.000178607               0.001831199               0.001652591               0.000000000               0.000000000               0.000000000               0.000000000               0.001697360               0.005219219               0.000665981              -0.000015893               0.001745020               0.001729127               0.000000000               0.000000000               0.000000000               0.000000000               0.002045053               0.005112440               0.000359544               0.000127838               0.001661517               0.001789355               0.000000000               0.000000000               0.000000000               0.000000000               0.002245237               0.005076614               0.000198486               0.000207385               0.001623059               0.001830445               0.000000000               0.000000000               0.000000000               0.000000000              -0.012649010              -0.001117900              -0.001199737              -0.004603638               0.001161905              -0.003441734               0.000000000               0.000000000               0.000000000               0.000000000              -0.008779820              -0.000095209               0.000152540              -0.003280529               0.001061766              -0.002218763               0.000000000               0.000000000               0.000000000               0.000000000              -0.005861431               0.000730965               0.001404222              -0.002289405               0.001006783              -0.001282622               0.000000000               0.000000000               0.000000000               0.000000000              -0.004260803               0.001755777               0.001795931              -0.001817270               0.001191007              -0.000626264               0.000000000               0.000000000               0.000000000               0.000000000              -0.003237003               0.002669471               0.001852426              -0.001547557               0.001405666              -0.000141892               0.000000000               0.000000000               0.000000000               0.000000000              -0.002485309               0.003416522               0.001780781              -0.001359053               0.001591846               0.000232793               0.000000000               0.000000000               0.000000000               0.000000000              -0.001864344               0.003995174               0.001656190              -0.001198523               0.001731219               0.000532695               0.000000000               0.000000000               0.000000000               0.000000000              -0.001308422               0.004422949               0.001521580              -0.001043525               0.001822143               0.000778618               0.000000000               0.000000000               0.000000000               0.000000000              -0.000786602               0.004721827               0.001397681              -0.000885202               0.001868994               0.000983791               0.000000000               0.000000000               0.000000000               0.000000000              -0.000276308               0.004925409               0.001282373              -0.000719290               0.001881550               0.001162259               0.000000000               0.000000000               0.000000000               0.000000000               0.000242161               0.005060661               0.001170884              -0.000541772               0.001867461               0.001325689               0.000000000               0.000000000               0.000000000               0.000000000               0.000769092               0.005142047               0.001061385              -0.000354346               0.001832114               0.001477768               0.000000000               0.000000000               0.000000000               0.000000000               0.001303543               0.005187060               0.000944954              -0.000159554               0.001782187               0.001622633               0.000000000               0.000000000               0.000000000               0.000000000               0.001852415               0.005199930               0.000802444               0.000044663               0.001718405               0.001763068               0.000000000               0.000000000               0.000000000               0.000000000               0.002414976               0.005167026               0.000609944               0.000259735               0.001635746               0.001895481               0.000000000               0.000000000               0.000000000               0.000000000               0.002991564               0.005094742               0.000341347               0.000484989               0.001536567               0.002021556               0.000000000               0.000000000               0.000000000               0.000000000               0.003397269               0.005093848               0.000200139               0.000637238               0.001485520               0.002122758               0.000000000               0.000000000               0.000000000               0.000000000              -0.013845917              -0.001255577              -0.000697567              -0.005035268               0.001259889              -0.003775380               0.000000000               0.000000000               0.000000000               0.000000000              -0.009438962              -0.000565082               0.000045680              -0.003468973               0.000967957              -0.002501016               0.000000000               0.000000000               0.000000000               0.000000000              -0.005985312              -0.000092283               0.000744231              -0.002232955               0.000713552              -0.001519403               0.000000000               0.000000000               0.000000000               0.000000000              -0.004132711               0.000829740               0.000978337              -0.001653482               0.000827735              -0.000825747               0.000000000               0.000000000               0.000000000               0.000000000              -0.002996555               0.001757996               0.001023621              -0.001343455               0.001033810              -0.000309646               0.000000000               0.000000000               0.000000000               0.000000000              -0.002205426               0.002576012               0.000993095              -0.001149034               0.001241673               0.000092639               0.000000000               0.000000000               0.000000000               0.000000000              -0.001583292               0.003247767               0.000930633              -0.000999703               0.001415812               0.000416109               0.000000000               0.000000000               0.000000000               0.000000000              -0.001039067               0.003769608               0.000860522              -0.000860849               0.001543473               0.000682624               0.000000000               0.000000000               0.000000000               0.000000000              -0.000531830               0.004163034               0.000791999              -0.000719814               0.001627602               0.000907788               0.000000000               0.000000000               0.000000000               0.000000000              -0.000030682               0.004468939               0.000729326              -0.000570122               0.001679672               0.001109550               0.000000000               0.000000000               0.000000000               0.000000000               0.000489715               0.004712851               0.000670615              -0.000405462               0.001706089               0.001300626               0.000000000               0.000000000               0.000000000               0.000000000               0.001041700               0.004898550               0.000610480              -0.000221681               0.001706727               0.001485046               0.000000000               0.000000000               0.000000000               0.000000000               0.001630610               0.005029050               0.000548633              -0.000017153               0.001682051               0.001664898               0.000000000               0.000000000               0.000000000               0.000000000               0.002264567               0.005101847               0.000473168               0.000211480               0.001630105               0.001841585               0.000000000               0.000000000               0.000000000               0.000000000               0.002957153               0.005112644               0.000366437               0.000469847               0.001547582               0.002017429               0.000000000               0.000000000               0.000000000               0.000000000               0.003734425               0.005070574               0.000209789               0.000766580               0.001434648               0.002201228               0.000000000               0.000000000               0.000000000               0.000000000               0.004329430               0.005102282               0.000128409               0.000985741               0.001372163               0.002357904               0.000000000               0.000000000               0.000000000               0.000000000               0.000000000               0.000000000               0.000000000               0.000000000               0.000000000               0.000000000               0.000000000               0.000000000               0.000000000               0.000000000               0.000000000               0.000000000               0.000000000               0.000000000               0.000000000               0.000000000               0.000000000               0.000000000               0.000000000               0.000000000               0.000000000               0.000000000               0.000000000               0.000000000               0.000000000               0.000000000               0.000000000               0.000000000               0.000000000               0.000000000               0.000000000               0.000000000               0.000000000               0.000000000               0.000000000               0.000000000               0.000000000               0.000000000               0.000000000               0.000000000               0.000000000               0.000000000               0.000000000               0.000000000               0.000000000               0.000000000               0.000000000               0.000000000               0.000000000               0.000000000               0.000000000               0.000000000               0.000000000               0.000000000               0.000000000               0.000000000               0.000000000               0.000000000               0.000000000               0.000000000               0.000000000               0.000000000               0.000000000               0.000000000               0.000000000               0.000000000               0.000000000               0.000000000               0.000000000               0.000000000               0.000000000               0.000000000               0.000000000               0.000000000               0.000000000               0.000000000               0.000000000               0.000000000               0.000000000               0.000000000               0.000000000               0.000000000               0.000000000               0.000000000               0.000000000               0.000000000               0.000000000               0.000000000               0.000000000               0.000000000               0.000000000               0.000000000               0.000000000               0.000000000               0.000000000               0.000000000               0.000000000               0.000000000               0.000000000               0.000000000               0.000000000               0.000000000               0.000000000               0.000000000               0.000000000               0.000000000               0.000000000               0.000000000               0.000000000               0.000000000               0.000000000               0.000000000               0.000000000               0.000000000               0.000000000               0.000000000               0.000000000               0.000000000               0.000000000               0.000000000               0.000000000               0.000000000               0.000000000               0.000000000               0.000000000               0.000000000               0.000000000               0.000000000               0.000000000               0.000000000               0.000000000               0.000000000               0.000000000               0.000000000               0.000000000               0.000000000               0.000000000               0.000000000               0.000000000               0.000000000               0.000000000               0.000000000               0.000000000               0.000000000               0.000000000               0.000000000               0.000000000               0.000000000               0.000000000               0.000000000               0.000000000               0.000000000               0.000000000               0.000000000               0.000000000               0.000000000               0.000000000               0.000000000               0.000000000               0.000000000               0.000000000               0.000000000               0.000000000               0.000000000               0.000000000               0.000000000               0.000000000               0.000000000               0.000000000               0.000000000 </DataArray>
</PointData>
</Piece>
</UnstructuredGrid> </VTKFile>
