<?xml version="1.0"?>
<VTKFile type="UnstructuredGrid" version="0.1">
<UnstructuredGrid>
<Piece NumberOfPoints="      1156" NumberOfCells="      1024">
<Points>
<DataArray type="Float64"                                    Name="coordinates"                                                      NumberOfComponents=" 3" format="ascii">
              0.133000000               0.000000000               0.000000000               0.155937500               0.000000000               0.000000000               0.178875000               0.000000000               0.000000000               0.201812500               0.000000000               0.000000000               0.224750000               0.000000000               0.000000000               0.247687500               0.000000000               0.000000000               0.270625000               0.000000000               0.000000000               0.293562500               0.000000000               0.000000000               0.316500000               0.000000000               0.000000000               0.339437500               0.000000000               0.000000000               0.362375000               0.000000000               0.000000000               0.385312500               0.000000000               0.000000000               0.408250000               0.000000000               0.000000000               0.431187500               0.000000000               0.000000000               0.454125000               0.000000000               0.000000000               0.477062500               0.000000000               0.000000000               0.500000000               0.000000000               0.000000000               0.132359569               0.013036280               0.000000000               0.155337096               0.016127762               0.000000000               0.178314623               0.019219245               0.000000000               0.201292150               0.022310727               0.000000000               0.224269676               0.025402210               0.000000000               0.247247203               0.028493692               0.000000000               0.270224730               0.031585175               0.000000000               0.293202257               0.034676657               0.000000000               0.316179784               0.037768140               0.000000000               0.339157311               0.040859622               0.000000000               0.362134838               0.043951105               0.000000000               0.385112365               0.047042587               0.000000000               0.408089892               0.050134070               0.000000000               0.431067419               0.053225552               0.000000000               0.454044946               0.056317035               0.000000000               0.477022473               0.059408517               0.000000000               0.500000000               0.062500000               0.000000000               0.130444442               0.025947013               0.000000000               0.153541665               0.032137825               0.000000000               0.176638887               0.038328636               0.000000000               0.199736109               0.044519448               0.000000000               0.222833332               0.050710260               0.000000000               0.245930554               0.056901071               0.000000000               0.269027776               0.063091883               0.000000000               0.292124999               0.069282695               0.000000000               0.315222221               0.075473506               0.000000000               0.338319444               0.081664318               0.000000000               0.361416666               0.087855130               0.000000000               0.384513888               0.094045942               0.000000000               0.407611111               0.100236753               0.000000000               0.430708333               0.106427565               0.000000000               0.453805555               0.112618377               0.000000000               0.476902778               0.118809188               0.000000000               0.500000000               0.125000000               0.000000000               0.127273065               0.038607862               0.000000000               0.150568498               0.047913621               0.000000000               0.173863932               0.057219379               0.000000000               0.197159365               0.066525138               0.000000000               0.220454798               0.075830897               0.000000000               0.243750232               0.085136655               0.000000000               0.267045665               0.094442414               0.000000000               0.290341099               0.103748172               0.000000000               0.313636532               0.113053931               0.000000000               0.336931966               0.122359690               0.000000000               0.360227399               0.131665448               0.000000000               0.383522833               0.140971207               0.000000000               0.406818266               0.150276966               0.000000000               0.430113700               0.159582724               0.000000000               0.453409133               0.168888483               0.000000000               0.476704567               0.178194241               0.000000000               0.500000000               0.187500000               0.000000000               0.122875978               0.050896897               0.000000000               0.146446229               0.063340840               0.000000000               0.170016481               0.075784784               0.000000000               0.193586732               0.088228728               0.000000000               0.217156983               0.100672672               0.000000000               0.240727235               0.113116616               0.000000000               0.264297486               0.125560560               0.000000000               0.287867738               0.138004504               0.000000000               0.311437989               0.150448448               0.000000000               0.335008240               0.162892392               0.000000000               0.358578492               0.175336336               0.000000000               0.382148743               0.187780280               0.000000000               0.405718994               0.200224224               0.000000000               0.429289246               0.212668168               0.000000000               0.452859497               0.225112112               0.000000000               0.476429749               0.237556056               0.000000000               0.500000000               0.250000000               0.000000000               0.117295528               0.062695766               0.000000000               0.141214558               0.078308531               0.000000000               0.165133587               0.093921295               0.000000000               0.189052617               0.109534060               0.000000000               0.212971646               0.125146824               0.000000000               0.236890676               0.140759589               0.000000000               0.260809705               0.156372354               0.000000000               0.284728735               0.171985118               0.000000000               0.308647764               0.187597883               0.000000000               0.332566794               0.203210648               0.000000000               0.356485823               0.218823412               0.000000000               0.380404853               0.234436177               0.000000000               0.404323882               0.250048941               0.000000000               0.428242912               0.265661706               0.000000000               0.452161941               0.281274471               0.000000000               0.476080971               0.296887235               0.000000000               0.500000000               0.312500000               0.000000000               0.110585458               0.073890841               0.000000000               0.134923867               0.092710163               0.000000000               0.159262276               0.111529486               0.000000000               0.183600685               0.130348808               0.000000000               0.207939094               0.149168131               0.000000000               0.232277503               0.167987453               0.000000000               0.256615912               0.186806776               0.000000000               0.280954320               0.205626098               0.000000000               0.305292729               0.224445420               0.000000000               0.329631138               0.243264743               0.000000000               0.353969547               0.262084065               0.000000000               0.378307956               0.280903388               0.000000000               0.402646365               0.299722710               0.000000000               0.426984773               0.318542033               0.000000000               0.451323182               0.337361355               0.000000000               0.475661591               0.356180678               0.000000000               0.500000000               0.375000000               0.000000000               0.102810390               0.084374307               0.000000000               0.127634741               0.106444663               0.000000000               0.152459092               0.128515018               0.000000000               0.177283442               0.150585374               0.000000000               0.202107793               0.172655730               0.000000000               0.226932143               0.194726086               0.000000000               0.251756494               0.216796442               0.000000000               0.276580845               0.238866798               0.000000000               0.301405195               0.260937153               0.000000000               0.326229546               0.283007509               0.000000000               0.351053896               0.305077865               0.000000000               0.375878247               0.327148221               0.000000000               0.400702598               0.349218577               0.000000000               0.425526948               0.371288933               0.000000000               0.450351299               0.393359288               0.000000000               0.475175649               0.415429644               0.000000000               0.500000000               0.437500000               0.000000000               0.094045202               0.094045202               0.000000000               0.119417377               0.119417377               0.000000000               0.144789552               0.144789552               0.000000000               0.170161727               0.170161727               0.000000000               0.195533901               0.195533901               0.000000000               0.220906076               0.220906076               0.000000000               0.246278251               0.246278251               0.000000000               0.271650426               0.271650426               0.000000000               0.297022601               0.297022601               0.000000000               0.322394776               0.322394776               0.000000000               0.347766951               0.347766951               0.000000000               0.373139126               0.373139126               0.000000000               0.398511300               0.398511300               0.000000000               0.423883475               0.423883475               0.000000000               0.449255650               0.449255650               0.000000000               0.474627825               0.474627825               0.000000000               0.500000000               0.500000000               0.000000000               0.084374307               0.102810390               0.000000000               0.106444663               0.127634741               0.000000000               0.128515018               0.152459092               0.000000000               0.150585374               0.177283442               0.000000000               0.172655730               0.202107793               0.000000000               0.194726086               0.226932143               0.000000000               0.216796442               0.251756494               0.000000000               0.238866798               0.276580845               0.000000000               0.260937153               0.301405195               0.000000000               0.283007509               0.326229546               0.000000000               0.305077865               0.351053896               0.000000000               0.327148221               0.375878247               0.000000000               0.349218577               0.400702598               0.000000000               0.371288933               0.425526948               0.000000000               0.393359288               0.450351299               0.000000000               0.415429644               0.475175649               0.000000000               0.437500000               0.500000000               0.000000000               0.073890841               0.110585458               0.000000000               0.092710163               0.134923867               0.000000000               0.111529486               0.159262276               0.000000000               0.130348808               0.183600685               0.000000000               0.149168131               0.207939094               0.000000000               0.167987453               0.232277503               0.000000000               0.186806776               0.256615912               0.000000000               0.205626098               0.280954320               0.000000000               0.224445420               0.305292729               0.000000000               0.243264743               0.329631138               0.000000000               0.262084065               0.353969547               0.000000000               0.280903388               0.378307956               0.000000000               0.299722710               0.402646365               0.000000000               0.318542033               0.426984773               0.000000000               0.337361355               0.451323182               0.000000000               0.356180678               0.475661591               0.000000000               0.375000000               0.500000000               0.000000000               0.062695766               0.117295528               0.000000000               0.078308531               0.141214558               0.000000000               0.093921295               0.165133587               0.000000000               0.109534060               0.189052617               0.000000000               0.125146824               0.212971646               0.000000000               0.140759589               0.236890676               0.000000000               0.156372354               0.260809705               0.000000000               0.171985118               0.284728735               0.000000000               0.187597883               0.308647764               0.000000000               0.203210648               0.332566794               0.000000000               0.218823412               0.356485823               0.000000000               0.234436177               0.380404853               0.000000000               0.250048941               0.404323882               0.000000000               0.265661706               0.428242912               0.000000000               0.281274471               0.452161941               0.000000000               0.296887235               0.476080971               0.000000000               0.312500000               0.500000000               0.000000000               0.050896897               0.122875978               0.000000000               0.063340840               0.146446229               0.000000000               0.075784784               0.170016481               0.000000000               0.088228728               0.193586732               0.000000000               0.100672672               0.217156983               0.000000000               0.113116616               0.240727235               0.000000000               0.125560560               0.264297486               0.000000000               0.138004504               0.287867738               0.000000000               0.150448448               0.311437989               0.000000000               0.162892392               0.335008240               0.000000000               0.175336336               0.358578492               0.000000000               0.187780280               0.382148743               0.000000000               0.200224224               0.405718994               0.000000000               0.212668168               0.429289246               0.000000000               0.225112112               0.452859497               0.000000000               0.237556056               0.476429749               0.000000000               0.250000000               0.500000000               0.000000000               0.038607862               0.127273065               0.000000000               0.047913621               0.150568498               0.000000000               0.057219379               0.173863932               0.000000000               0.066525138               0.197159365               0.000000000               0.075830897               0.220454798               0.000000000               0.085136655               0.243750232               0.000000000               0.094442414               0.267045665               0.000000000               0.103748172               0.290341099               0.000000000               0.113053931               0.313636532               0.000000000               0.122359690               0.336931966               0.000000000               0.131665448               0.360227399               0.000000000               0.140971207               0.383522833               0.000000000               0.150276966               0.406818266               0.000000000               0.159582724               0.430113700               0.000000000               0.168888483               0.453409133               0.000000000               0.178194241               0.476704567               0.000000000               0.187500000               0.500000000               0.000000000               0.025947013               0.130444442               0.000000000               0.032137825               0.153541665               0.000000000               0.038328636               0.176638887               0.000000000               0.044519448               0.199736109               0.000000000               0.050710260               0.222833332               0.000000000               0.056901071               0.245930554               0.000000000               0.063091883               0.269027776               0.000000000               0.069282695               0.292124999               0.000000000               0.075473506               0.315222221               0.000000000               0.081664318               0.338319444               0.000000000               0.087855130               0.361416666               0.000000000               0.094045942               0.384513888               0.000000000               0.100236753               0.407611111               0.000000000               0.106427565               0.430708333               0.000000000               0.112618377               0.453805555               0.000000000               0.118809188               0.476902778               0.000000000               0.125000000               0.500000000               0.000000000               0.013036280               0.132359569               0.000000000               0.016127762               0.155337096               0.000000000               0.019219245               0.178314623               0.000000000               0.022310727               0.201292150               0.000000000               0.025402210               0.224269676               0.000000000               0.028493692               0.247247203               0.000000000               0.031585175               0.270224730               0.000000000               0.034676657               0.293202257               0.000000000               0.037768140               0.316179784               0.000000000               0.040859622               0.339157311               0.000000000               0.043951105               0.362134838               0.000000000               0.047042587               0.385112365               0.000000000               0.050134070               0.408089892               0.000000000               0.053225552               0.431067419               0.000000000               0.056317035               0.454044946               0.000000000               0.059408517               0.477022473               0.000000000               0.062500000               0.500000000               0.000000000               0.000000000               0.133000000               0.000000000               0.000000000               0.155937500               0.000000000               0.000000000               0.178875000               0.000000000               0.000000000               0.201812500               0.000000000               0.000000000               0.224750000               0.000000000               0.000000000               0.247687500               0.000000000               0.000000000               0.270625000               0.000000000               0.000000000               0.293562500               0.000000000               0.000000000               0.316500000               0.000000000               0.000000000               0.339437500               0.000000000               0.000000000               0.362375000               0.000000000               0.000000000               0.385312500               0.000000000               0.000000000               0.408250000               0.000000000               0.000000000               0.431187500               0.000000000               0.000000000               0.454125000               0.000000000               0.000000000               0.477062500               0.000000000               0.000000000               0.500000000               0.000000000               0.133000000               0.000000000               0.000000000               0.155937500               0.000000000               0.000000000               0.178875000               0.000000000               0.000000000               0.201812500               0.000000000               0.000000000               0.224750000               0.000000000               0.000000000               0.247687500               0.000000000               0.000000000               0.270625000               0.000000000               0.000000000               0.293562500               0.000000000               0.000000000               0.316500000               0.000000000               0.000000000               0.339437500               0.000000000               0.000000000               0.362375000               0.000000000               0.000000000               0.385312500               0.000000000               0.000000000               0.408250000               0.000000000               0.000000000               0.431187500               0.000000000               0.000000000               0.454125000               0.000000000               0.000000000               0.477062500               0.000000000               0.000000000               0.500000000               0.000000000               0.000000000               0.132359569              -0.013036280               0.000000000               0.155337096              -0.016127762               0.000000000               0.178314623              -0.019219245               0.000000000               0.201292150              -0.022310727               0.000000000               0.224269676              -0.025402210               0.000000000               0.247247203              -0.028493692               0.000000000               0.270224730              -0.031585175               0.000000000               0.293202257              -0.034676657               0.000000000               0.316179784              -0.037768140               0.000000000               0.339157311              -0.040859622               0.000000000               0.362134838              -0.043951105               0.000000000               0.385112365              -0.047042587               0.000000000               0.408089892              -0.050134070               0.000000000               0.431067419              -0.053225552               0.000000000               0.454044946              -0.056317035               0.000000000               0.477022473              -0.059408517               0.000000000               0.500000000              -0.062500000               0.000000000               0.130444442              -0.025947013               0.000000000               0.153541665              -0.032137825               0.000000000               0.176638887              -0.038328636               0.000000000               0.199736109              -0.044519448               0.000000000               0.222833332              -0.050710260               0.000000000               0.245930554              -0.056901071               0.000000000               0.269027776              -0.063091883               0.000000000               0.292124999              -0.069282695               0.000000000               0.315222221              -0.075473506               0.000000000               0.338319444              -0.081664318               0.000000000               0.361416666              -0.087855130               0.000000000               0.384513888              -0.094045942               0.000000000               0.407611111              -0.100236753               0.000000000               0.430708333              -0.106427565               0.000000000               0.453805555              -0.112618377               0.000000000               0.476902778              -0.118809188               0.000000000               0.500000000              -0.125000000               0.000000000               0.127273065              -0.038607862               0.000000000               0.150568498              -0.047913621               0.000000000               0.173863932              -0.057219379               0.000000000               0.197159365              -0.066525138               0.000000000               0.220454798              -0.075830897               0.000000000               0.243750232              -0.085136655               0.000000000               0.267045665              -0.094442414               0.000000000               0.290341099              -0.103748172               0.000000000               0.313636532              -0.113053931               0.000000000               0.336931966              -0.122359690               0.000000000               0.360227399              -0.131665448               0.000000000               0.383522833              -0.140971207               0.000000000               0.406818266              -0.150276966               0.000000000               0.430113700              -0.159582724               0.000000000               0.453409133              -0.168888483               0.000000000               0.476704567              -0.178194241               0.000000000               0.500000000              -0.187500000               0.000000000               0.122875978              -0.050896897               0.000000000               0.146446229              -0.063340840               0.000000000               0.170016481              -0.075784784               0.000000000               0.193586732              -0.088228728               0.000000000               0.217156983              -0.100672672               0.000000000               0.240727235              -0.113116616               0.000000000               0.264297486              -0.125560560               0.000000000               0.287867738              -0.138004504               0.000000000               0.311437989              -0.150448448               0.000000000               0.335008240              -0.162892392               0.000000000               0.358578492              -0.175336336               0.000000000               0.382148743              -0.187780280               0.000000000               0.405718994              -0.200224224               0.000000000               0.429289246              -0.212668168               0.000000000               0.452859497              -0.225112112               0.000000000               0.476429749              -0.237556056               0.000000000               0.500000000              -0.250000000               0.000000000               0.117295528              -0.062695766               0.000000000               0.141214558              -0.078308531               0.000000000               0.165133587              -0.093921295               0.000000000               0.189052617              -0.109534060               0.000000000               0.212971646              -0.125146824               0.000000000               0.236890676              -0.140759589               0.000000000               0.260809705              -0.156372354               0.000000000               0.284728735              -0.171985118               0.000000000               0.308647764              -0.187597883               0.000000000               0.332566794              -0.203210648               0.000000000               0.356485823              -0.218823412               0.000000000               0.380404853              -0.234436177               0.000000000               0.404323882              -0.250048941               0.000000000               0.428242912              -0.265661706               0.000000000               0.452161941              -0.281274471               0.000000000               0.476080971              -0.296887235               0.000000000               0.500000000              -0.312500000               0.000000000               0.110585458              -0.073890841               0.000000000               0.134923867              -0.092710163               0.000000000               0.159262276              -0.111529486               0.000000000               0.183600685              -0.130348808               0.000000000               0.207939094              -0.149168131               0.000000000               0.232277503              -0.167987453               0.000000000               0.256615912              -0.186806776               0.000000000               0.280954320              -0.205626098               0.000000000               0.305292729              -0.224445420               0.000000000               0.329631138              -0.243264743               0.000000000               0.353969547              -0.262084065               0.000000000               0.378307956              -0.280903388               0.000000000               0.402646365              -0.299722710               0.000000000               0.426984773              -0.318542033               0.000000000               0.451323182              -0.337361355               0.000000000               0.475661591              -0.356180678               0.000000000               0.500000000              -0.375000000               0.000000000               0.102810390              -0.084374307               0.000000000               0.127634741              -0.106444663               0.000000000               0.152459092              -0.128515018               0.000000000               0.177283442              -0.150585374               0.000000000               0.202107793              -0.172655730               0.000000000               0.226932143              -0.194726086               0.000000000               0.251756494              -0.216796442               0.000000000               0.276580845              -0.238866798               0.000000000               0.301405195              -0.260937153               0.000000000               0.326229546              -0.283007509               0.000000000               0.351053896              -0.305077865               0.000000000               0.375878247              -0.327148221               0.000000000               0.400702598              -0.349218577               0.000000000               0.425526948              -0.371288933               0.000000000               0.450351299              -0.393359288               0.000000000               0.475175649              -0.415429644               0.000000000               0.500000000              -0.437500000               0.000000000               0.094045202              -0.094045202               0.000000000               0.119417377              -0.119417377               0.000000000               0.144789552              -0.144789552               0.000000000               0.170161727              -0.170161727               0.000000000               0.195533901              -0.195533901               0.000000000               0.220906076              -0.220906076               0.000000000               0.246278251              -0.246278251               0.000000000               0.271650426              -0.271650426               0.000000000               0.297022601              -0.297022601               0.000000000               0.322394776              -0.322394776               0.000000000               0.347766951              -0.347766951               0.000000000               0.373139126              -0.373139126               0.000000000               0.398511300              -0.398511300               0.000000000               0.423883475              -0.423883475               0.000000000               0.449255650              -0.449255650               0.000000000               0.474627825              -0.474627825               0.000000000               0.500000000              -0.500000000               0.000000000               0.084374307              -0.102810390               0.000000000               0.106444663              -0.127634741               0.000000000               0.128515018              -0.152459092               0.000000000               0.150585374              -0.177283442               0.000000000               0.172655730              -0.202107793               0.000000000               0.194726086              -0.226932143               0.000000000               0.216796442              -0.251756494               0.000000000               0.238866798              -0.276580845               0.000000000               0.260937153              -0.301405195               0.000000000               0.283007509              -0.326229546               0.000000000               0.305077865              -0.351053896               0.000000000               0.327148221              -0.375878247               0.000000000               0.349218577              -0.400702598               0.000000000               0.371288933              -0.425526948               0.000000000               0.393359288              -0.450351299               0.000000000               0.415429644              -0.475175649               0.000000000               0.437500000              -0.500000000               0.000000000               0.073890841              -0.110585458               0.000000000               0.092710163              -0.134923867               0.000000000               0.111529486              -0.159262276               0.000000000               0.130348808              -0.183600685               0.000000000               0.149168131              -0.207939094               0.000000000               0.167987453              -0.232277503               0.000000000               0.186806776              -0.256615912               0.000000000               0.205626098              -0.280954320               0.000000000               0.224445420              -0.305292729               0.000000000               0.243264743              -0.329631138               0.000000000               0.262084065              -0.353969547               0.000000000               0.280903388              -0.378307956               0.000000000               0.299722710              -0.402646365               0.000000000               0.318542033              -0.426984773               0.000000000               0.337361355              -0.451323182               0.000000000               0.356180678              -0.475661591               0.000000000               0.375000000              -0.500000000               0.000000000               0.062695766              -0.117295528               0.000000000               0.078308531              -0.141214558               0.000000000               0.093921295              -0.165133587               0.000000000               0.109534060              -0.189052617               0.000000000               0.125146824              -0.212971646               0.000000000               0.140759589              -0.236890676               0.000000000               0.156372354              -0.260809705               0.000000000               0.171985118              -0.284728735               0.000000000               0.187597883              -0.308647764               0.000000000               0.203210648              -0.332566794               0.000000000               0.218823412              -0.356485823               0.000000000               0.234436177              -0.380404853               0.000000000               0.250048941              -0.404323882               0.000000000               0.265661706              -0.428242912               0.000000000               0.281274471              -0.452161941               0.000000000               0.296887235              -0.476080971               0.000000000               0.312500000              -0.500000000               0.000000000               0.050896897              -0.122875978               0.000000000               0.063340840              -0.146446229               0.000000000               0.075784784              -0.170016481               0.000000000               0.088228728              -0.193586732               0.000000000               0.100672672              -0.217156983               0.000000000               0.113116616              -0.240727235               0.000000000               0.125560560              -0.264297486               0.000000000               0.138004504              -0.287867738               0.000000000               0.150448448              -0.311437989               0.000000000               0.162892392              -0.335008240               0.000000000               0.175336336              -0.358578492               0.000000000               0.187780280              -0.382148743               0.000000000               0.200224224              -0.405718994               0.000000000               0.212668168              -0.429289246               0.000000000               0.225112112              -0.452859497               0.000000000               0.237556056              -0.476429749               0.000000000               0.250000000              -0.500000000               0.000000000               0.038607862              -0.127273065               0.000000000               0.047913621              -0.150568498               0.000000000               0.057219379              -0.173863932               0.000000000               0.066525138              -0.197159365               0.000000000               0.075830897              -0.220454798               0.000000000               0.085136655              -0.243750232               0.000000000               0.094442414              -0.267045665               0.000000000               0.103748172              -0.290341099               0.000000000               0.113053931              -0.313636532               0.000000000               0.122359690              -0.336931966               0.000000000               0.131665448              -0.360227399               0.000000000               0.140971207              -0.383522833               0.000000000               0.150276966              -0.406818266               0.000000000               0.159582724              -0.430113700               0.000000000               0.168888483              -0.453409133               0.000000000               0.178194241              -0.476704567               0.000000000               0.187500000              -0.500000000               0.000000000               0.025947013              -0.130444442               0.000000000               0.032137825              -0.153541665               0.000000000               0.038328636              -0.176638887               0.000000000               0.044519448              -0.199736109               0.000000000               0.050710260              -0.222833332               0.000000000               0.056901071              -0.245930554               0.000000000               0.063091883              -0.269027776               0.000000000               0.069282695              -0.292124999               0.000000000               0.075473506              -0.315222221               0.000000000               0.081664318              -0.338319444               0.000000000               0.087855130              -0.361416666               0.000000000               0.094045942              -0.384513888               0.000000000               0.100236753              -0.407611111               0.000000000               0.106427565              -0.430708333               0.000000000               0.112618377              -0.453805555               0.000000000               0.118809188              -0.476902778               0.000000000               0.125000000              -0.500000000               0.000000000               0.013036280              -0.132359569               0.000000000               0.016127762              -0.155337096               0.000000000               0.019219245              -0.178314623               0.000000000               0.022310727              -0.201292150               0.000000000               0.025402210              -0.224269676               0.000000000               0.028493692              -0.247247203               0.000000000               0.031585175              -0.270224730               0.000000000               0.034676657              -0.293202257               0.000000000               0.037768140              -0.316179784               0.000000000               0.040859622              -0.339157311               0.000000000               0.043951105              -0.362134838               0.000000000               0.047042587              -0.385112365               0.000000000               0.050134070              -0.408089892               0.000000000               0.053225552              -0.431067419               0.000000000               0.056317035              -0.454044946               0.000000000               0.059408517              -0.477022473               0.000000000               0.062500000              -0.500000000               0.000000000               0.000000000              -0.133000000               0.000000000               0.000000000              -0.155937500               0.000000000               0.000000000              -0.178875000               0.000000000               0.000000000              -0.201812500               0.000000000               0.000000000              -0.224750000               0.000000000               0.000000000              -0.247687500               0.000000000               0.000000000              -0.270625000               0.000000000               0.000000000              -0.293562500               0.000000000               0.000000000              -0.316500000               0.000000000               0.000000000              -0.339437500               0.000000000               0.000000000              -0.362375000               0.000000000               0.000000000              -0.385312500               0.000000000               0.000000000              -0.408250000               0.000000000               0.000000000              -0.431187500               0.000000000               0.000000000              -0.454125000               0.000000000               0.000000000              -0.477062500               0.000000000               0.000000000              -0.500000000               0.000000000              -0.133000000               0.000000000               0.000000000              -0.155937500               0.000000000               0.000000000              -0.178875000               0.000000000               0.000000000              -0.201812500               0.000000000               0.000000000              -0.224750000               0.000000000               0.000000000              -0.247687500               0.000000000               0.000000000              -0.270625000               0.000000000               0.000000000              -0.293562500               0.000000000               0.000000000              -0.316500000               0.000000000               0.000000000              -0.339437500               0.000000000               0.000000000              -0.362375000               0.000000000               0.000000000              -0.385312500               0.000000000               0.000000000              -0.408250000               0.000000000               0.000000000              -0.431187500               0.000000000               0.000000000              -0.454125000               0.000000000               0.000000000              -0.477062500               0.000000000               0.000000000              -0.500000000               0.000000000               0.000000000              -0.132359569              -0.013036280               0.000000000              -0.155337096              -0.016127762               0.000000000              -0.178314623              -0.019219245               0.000000000              -0.201292150              -0.022310727               0.000000000              -0.224269676              -0.025402210               0.000000000              -0.247247203              -0.028493692               0.000000000              -0.270224730              -0.031585175               0.000000000              -0.293202257              -0.034676657               0.000000000              -0.316179784              -0.037768140               0.000000000              -0.339157311              -0.040859622               0.000000000              -0.362134838              -0.043951105               0.000000000              -0.385112365              -0.047042587               0.000000000              -0.408089892              -0.050134070               0.000000000              -0.431067419              -0.053225552               0.000000000              -0.454044946              -0.056317035               0.000000000              -0.477022473              -0.059408517               0.000000000              -0.500000000              -0.062500000               0.000000000              -0.130444442              -0.025947013               0.000000000              -0.153541665              -0.032137825               0.000000000              -0.176638887              -0.038328636               0.000000000              -0.199736109              -0.044519448               0.000000000              -0.222833332              -0.050710260               0.000000000              -0.245930554              -0.056901071               0.000000000              -0.269027776              -0.063091883               0.000000000              -0.292124999              -0.069282695               0.000000000              -0.315222221              -0.075473506               0.000000000              -0.338319444              -0.081664318               0.000000000              -0.361416666              -0.087855130               0.000000000              -0.384513888              -0.094045942               0.000000000              -0.407611111              -0.100236753               0.000000000              -0.430708333              -0.106427565               0.000000000              -0.453805555              -0.112618377               0.000000000              -0.476902778              -0.118809188               0.000000000              -0.500000000              -0.125000000               0.000000000              -0.127273065              -0.038607862               0.000000000              -0.150568498              -0.047913621               0.000000000              -0.173863932              -0.057219379               0.000000000              -0.197159365              -0.066525138               0.000000000              -0.220454798              -0.075830897               0.000000000              -0.243750232              -0.085136655               0.000000000              -0.267045665              -0.094442414               0.000000000              -0.290341099              -0.103748172               0.000000000              -0.313636532              -0.113053931               0.000000000              -0.336931966              -0.122359690               0.000000000              -0.360227399              -0.131665448               0.000000000              -0.383522833              -0.140971207               0.000000000              -0.406818266              -0.150276966               0.000000000              -0.430113700              -0.159582724               0.000000000              -0.453409133              -0.168888483               0.000000000              -0.476704567              -0.178194241               0.000000000              -0.500000000              -0.187500000               0.000000000              -0.122875978              -0.050896897               0.000000000              -0.146446229              -0.063340840               0.000000000              -0.170016481              -0.075784784               0.000000000              -0.193586732              -0.088228728               0.000000000              -0.217156983              -0.100672672               0.000000000              -0.240727235              -0.113116616               0.000000000              -0.264297486              -0.125560560               0.000000000              -0.287867738              -0.138004504               0.000000000              -0.311437989              -0.150448448               0.000000000              -0.335008240              -0.162892392               0.000000000              -0.358578492              -0.175336336               0.000000000              -0.382148743              -0.187780280               0.000000000              -0.405718994              -0.200224224               0.000000000              -0.429289246              -0.212668168               0.000000000              -0.452859497              -0.225112112               0.000000000              -0.476429749              -0.237556056               0.000000000              -0.500000000              -0.250000000               0.000000000              -0.117295528              -0.062695766               0.000000000              -0.141214558              -0.078308531               0.000000000              -0.165133587              -0.093921295               0.000000000              -0.189052617              -0.109534060               0.000000000              -0.212971646              -0.125146824               0.000000000              -0.236890676              -0.140759589               0.000000000              -0.260809705              -0.156372354               0.000000000              -0.284728735              -0.171985118               0.000000000              -0.308647764              -0.187597883               0.000000000              -0.332566794              -0.203210648               0.000000000              -0.356485823              -0.218823412               0.000000000              -0.380404853              -0.234436177               0.000000000              -0.404323882              -0.250048941               0.000000000              -0.428242912              -0.265661706               0.000000000              -0.452161941              -0.281274471               0.000000000              -0.476080971              -0.296887235               0.000000000              -0.500000000              -0.312500000               0.000000000              -0.110585458              -0.073890841               0.000000000              -0.134923867              -0.092710163               0.000000000              -0.159262276              -0.111529486               0.000000000              -0.183600685              -0.130348808               0.000000000              -0.207939094              -0.149168131               0.000000000              -0.232277503              -0.167987453               0.000000000              -0.256615912              -0.186806776               0.000000000              -0.280954320              -0.205626098               0.000000000              -0.305292729              -0.224445420               0.000000000              -0.329631138              -0.243264743               0.000000000              -0.353969547              -0.262084065               0.000000000              -0.378307956              -0.280903388               0.000000000              -0.402646365              -0.299722710               0.000000000              -0.426984773              -0.318542033               0.000000000              -0.451323182              -0.337361355               0.000000000              -0.475661591              -0.356180678               0.000000000              -0.500000000              -0.375000000               0.000000000              -0.102810390              -0.084374307               0.000000000              -0.127634741              -0.106444663               0.000000000              -0.152459092              -0.128515018               0.000000000              -0.177283442              -0.150585374               0.000000000              -0.202107793              -0.172655730               0.000000000              -0.226932143              -0.194726086               0.000000000              -0.251756494              -0.216796442               0.000000000              -0.276580845              -0.238866798               0.000000000              -0.301405195              -0.260937153               0.000000000              -0.326229546              -0.283007509               0.000000000              -0.351053896              -0.305077865               0.000000000              -0.375878247              -0.327148221               0.000000000              -0.400702598              -0.349218577               0.000000000              -0.425526948              -0.371288933               0.000000000              -0.450351299              -0.393359288               0.000000000              -0.475175649              -0.415429644               0.000000000              -0.500000000              -0.437500000               0.000000000              -0.094045202              -0.094045202               0.000000000              -0.119417377              -0.119417377               0.000000000              -0.144789552              -0.144789552               0.000000000              -0.170161727              -0.170161727               0.000000000              -0.195533901              -0.195533901               0.000000000              -0.220906076              -0.220906076               0.000000000              -0.246278251              -0.246278251               0.000000000              -0.271650426              -0.271650426               0.000000000              -0.297022601              -0.297022601               0.000000000              -0.322394776              -0.322394776               0.000000000              -0.347766951              -0.347766951               0.000000000              -0.373139126              -0.373139126               0.000000000              -0.398511300              -0.398511300               0.000000000              -0.423883475              -0.423883475               0.000000000              -0.449255650              -0.449255650               0.000000000              -0.474627825              -0.474627825               0.000000000              -0.500000000              -0.500000000               0.000000000              -0.084374307              -0.102810390               0.000000000              -0.106444663              -0.127634741               0.000000000              -0.128515018              -0.152459092               0.000000000              -0.150585374              -0.177283442               0.000000000              -0.172655730              -0.202107793               0.000000000              -0.194726086              -0.226932143               0.000000000              -0.216796442              -0.251756494               0.000000000              -0.238866798              -0.276580845               0.000000000              -0.260937153              -0.301405195               0.000000000              -0.283007509              -0.326229546               0.000000000              -0.305077865              -0.351053896               0.000000000              -0.327148221              -0.375878247               0.000000000              -0.349218577              -0.400702598               0.000000000              -0.371288933              -0.425526948               0.000000000              -0.393359288              -0.450351299               0.000000000              -0.415429644              -0.475175649               0.000000000              -0.437500000              -0.500000000               0.000000000              -0.073890841              -0.110585458               0.000000000              -0.092710163              -0.134923867               0.000000000              -0.111529486              -0.159262276               0.000000000              -0.130348808              -0.183600685               0.000000000              -0.149168131              -0.207939094               0.000000000              -0.167987453              -0.232277503               0.000000000              -0.186806776              -0.256615912               0.000000000              -0.205626098              -0.280954320               0.000000000              -0.224445420              -0.305292729               0.000000000              -0.243264743              -0.329631138               0.000000000              -0.262084065              -0.353969547               0.000000000              -0.280903388              -0.378307956               0.000000000              -0.299722710              -0.402646365               0.000000000              -0.318542033              -0.426984773               0.000000000              -0.337361355              -0.451323182               0.000000000              -0.356180678              -0.475661591               0.000000000              -0.375000000              -0.500000000               0.000000000              -0.062695766              -0.117295528               0.000000000              -0.078308531              -0.141214558               0.000000000              -0.093921295              -0.165133587               0.000000000              -0.109534060              -0.189052617               0.000000000              -0.125146824              -0.212971646               0.000000000              -0.140759589              -0.236890676               0.000000000              -0.156372354              -0.260809705               0.000000000              -0.171985118              -0.284728735               0.000000000              -0.187597883              -0.308647764               0.000000000              -0.203210648              -0.332566794               0.000000000              -0.218823412              -0.356485823               0.000000000              -0.234436177              -0.380404853               0.000000000              -0.250048941              -0.404323882               0.000000000              -0.265661706              -0.428242912               0.000000000              -0.281274471              -0.452161941               0.000000000              -0.296887235              -0.476080971               0.000000000              -0.312500000              -0.500000000               0.000000000              -0.050896897              -0.122875978               0.000000000              -0.063340840              -0.146446229               0.000000000              -0.075784784              -0.170016481               0.000000000              -0.088228728              -0.193586732               0.000000000              -0.100672672              -0.217156983               0.000000000              -0.113116616              -0.240727235               0.000000000              -0.125560560              -0.264297486               0.000000000              -0.138004504              -0.287867738               0.000000000              -0.150448448              -0.311437989               0.000000000              -0.162892392              -0.335008240               0.000000000              -0.175336336              -0.358578492               0.000000000              -0.187780280              -0.382148743               0.000000000              -0.200224224              -0.405718994               0.000000000              -0.212668168              -0.429289246               0.000000000              -0.225112112              -0.452859497               0.000000000              -0.237556056              -0.476429749               0.000000000              -0.250000000              -0.500000000               0.000000000              -0.038607862              -0.127273065               0.000000000              -0.047913621              -0.150568498               0.000000000              -0.057219379              -0.173863932               0.000000000              -0.066525138              -0.197159365               0.000000000              -0.075830897              -0.220454798               0.000000000              -0.085136655              -0.243750232               0.000000000              -0.094442414              -0.267045665               0.000000000              -0.103748172              -0.290341099               0.000000000              -0.113053931              -0.313636532               0.000000000              -0.122359690              -0.336931966               0.000000000              -0.131665448              -0.360227399               0.000000000              -0.140971207              -0.383522833               0.000000000              -0.150276966              -0.406818266               0.000000000              -0.159582724              -0.430113700               0.000000000              -0.168888483              -0.453409133               0.000000000              -0.178194241              -0.476704567               0.000000000              -0.187500000              -0.500000000               0.000000000              -0.025947013              -0.130444442               0.000000000              -0.032137825              -0.153541665               0.000000000              -0.038328636              -0.176638887               0.000000000              -0.044519448              -0.199736109               0.000000000              -0.050710260              -0.222833332               0.000000000              -0.056901071              -0.245930554               0.000000000              -0.063091883              -0.269027776               0.000000000              -0.069282695              -0.292124999               0.000000000              -0.075473506              -0.315222221               0.000000000              -0.081664318              -0.338319444               0.000000000              -0.087855130              -0.361416666               0.000000000              -0.094045942              -0.384513888               0.000000000              -0.100236753              -0.407611111               0.000000000              -0.106427565              -0.430708333               0.000000000              -0.112618377              -0.453805555               0.000000000              -0.118809188              -0.476902778               0.000000000              -0.125000000              -0.500000000               0.000000000              -0.013036280              -0.132359569               0.000000000              -0.016127762              -0.155337096               0.000000000              -0.019219245              -0.178314623               0.000000000              -0.022310727              -0.201292150               0.000000000              -0.025402210              -0.224269676               0.000000000              -0.028493692              -0.247247203               0.000000000              -0.031585175              -0.270224730               0.000000000              -0.034676657              -0.293202257               0.000000000              -0.037768140              -0.316179784               0.000000000              -0.040859622              -0.339157311               0.000000000              -0.043951105              -0.362134838               0.000000000              -0.047042587              -0.385112365               0.000000000              -0.050134070              -0.408089892               0.000000000              -0.053225552              -0.431067419               0.000000000              -0.056317035              -0.454044946               0.000000000              -0.059408517              -0.477022473               0.000000000              -0.062500000              -0.500000000               0.000000000               0.000000000              -0.133000000               0.000000000               0.000000000              -0.155937500               0.000000000               0.000000000              -0.178875000               0.000000000               0.000000000              -0.201812500               0.000000000               0.000000000              -0.224750000               0.000000000               0.000000000              -0.247687500               0.000000000               0.000000000              -0.270625000               0.000000000               0.000000000              -0.293562500               0.000000000               0.000000000              -0.316500000               0.000000000               0.000000000              -0.339437500               0.000000000               0.000000000              -0.362375000               0.000000000               0.000000000              -0.385312500               0.000000000               0.000000000              -0.408250000               0.000000000               0.000000000              -0.431187500               0.000000000               0.000000000              -0.454125000               0.000000000               0.000000000              -0.477062500               0.000000000               0.000000000              -0.500000000               0.000000000              -0.133000000               0.000000000               0.000000000              -0.155937500               0.000000000               0.000000000              -0.178875000               0.000000000               0.000000000              -0.201812500               0.000000000               0.000000000              -0.224750000               0.000000000               0.000000000              -0.247687500               0.000000000               0.000000000              -0.270625000               0.000000000               0.000000000              -0.293562500               0.000000000               0.000000000              -0.316500000               0.000000000               0.000000000              -0.339437500               0.000000000               0.000000000              -0.362375000               0.000000000               0.000000000              -0.385312500               0.000000000               0.000000000              -0.408250000               0.000000000               0.000000000              -0.431187500               0.000000000               0.000000000              -0.454125000               0.000000000               0.000000000              -0.477062500               0.000000000               0.000000000              -0.500000000               0.000000000               0.000000000              -0.132359569               0.013036280               0.000000000              -0.155337096               0.016127762               0.000000000              -0.178314623               0.019219245               0.000000000              -0.201292150               0.022310727               0.000000000              -0.224269676               0.025402210               0.000000000              -0.247247203               0.028493692               0.000000000              -0.270224730               0.031585175               0.000000000              -0.293202257               0.034676657               0.000000000              -0.316179784               0.037768140               0.000000000              -0.339157311               0.040859622               0.000000000              -0.362134838               0.043951105               0.000000000              -0.385112365               0.047042587               0.000000000              -0.408089892               0.050134070               0.000000000              -0.431067419               0.053225552               0.000000000              -0.454044946               0.056317035               0.000000000              -0.477022473               0.059408517               0.000000000              -0.500000000               0.062500000               0.000000000              -0.130444442               0.025947013               0.000000000              -0.153541665               0.032137825               0.000000000              -0.176638887               0.038328636               0.000000000              -0.199736109               0.044519448               0.000000000              -0.222833332               0.050710260               0.000000000              -0.245930554               0.056901071               0.000000000              -0.269027776               0.063091883               0.000000000              -0.292124999               0.069282695               0.000000000              -0.315222221               0.075473506               0.000000000              -0.338319444               0.081664318               0.000000000              -0.361416666               0.087855130               0.000000000              -0.384513888               0.094045942               0.000000000              -0.407611111               0.100236753               0.000000000              -0.430708333               0.106427565               0.000000000              -0.453805555               0.112618377               0.000000000              -0.476902778               0.118809188               0.000000000              -0.500000000               0.125000000               0.000000000              -0.127273065               0.038607862               0.000000000              -0.150568498               0.047913621               0.000000000              -0.173863932               0.057219379               0.000000000              -0.197159365               0.066525138               0.000000000              -0.220454798               0.075830897               0.000000000              -0.243750232               0.085136655               0.000000000              -0.267045665               0.094442414               0.000000000              -0.290341099               0.103748172               0.000000000              -0.313636532               0.113053931               0.000000000              -0.336931966               0.122359690               0.000000000              -0.360227399               0.131665448               0.000000000              -0.383522833               0.140971207               0.000000000              -0.406818266               0.150276966               0.000000000              -0.430113700               0.159582724               0.000000000              -0.453409133               0.168888483               0.000000000              -0.476704567               0.178194241               0.000000000              -0.500000000               0.187500000               0.000000000              -0.122875978               0.050896897               0.000000000              -0.146446229               0.063340840               0.000000000              -0.170016481               0.075784784               0.000000000              -0.193586732               0.088228728               0.000000000              -0.217156983               0.100672672               0.000000000              -0.240727235               0.113116616               0.000000000              -0.264297486               0.125560560               0.000000000              -0.287867738               0.138004504               0.000000000              -0.311437989               0.150448448               0.000000000              -0.335008240               0.162892392               0.000000000              -0.358578492               0.175336336               0.000000000              -0.382148743               0.187780280               0.000000000              -0.405718994               0.200224224               0.000000000              -0.429289246               0.212668168               0.000000000              -0.452859497               0.225112112               0.000000000              -0.476429749               0.237556056               0.000000000              -0.500000000               0.250000000               0.000000000              -0.117295528               0.062695766               0.000000000              -0.141214558               0.078308531               0.000000000              -0.165133587               0.093921295               0.000000000              -0.189052617               0.109534060               0.000000000              -0.212971646               0.125146824               0.000000000              -0.236890676               0.140759589               0.000000000              -0.260809705               0.156372354               0.000000000              -0.284728735               0.171985118               0.000000000              -0.308647764               0.187597883               0.000000000              -0.332566794               0.203210648               0.000000000              -0.356485823               0.218823412               0.000000000              -0.380404853               0.234436177               0.000000000              -0.404323882               0.250048941               0.000000000              -0.428242912               0.265661706               0.000000000              -0.452161941               0.281274471               0.000000000              -0.476080971               0.296887235               0.000000000              -0.500000000               0.312500000               0.000000000              -0.110585458               0.073890841               0.000000000              -0.134923867               0.092710163               0.000000000              -0.159262276               0.111529486               0.000000000              -0.183600685               0.130348808               0.000000000              -0.207939094               0.149168131               0.000000000              -0.232277503               0.167987453               0.000000000              -0.256615912               0.186806776               0.000000000              -0.280954320               0.205626098               0.000000000              -0.305292729               0.224445420               0.000000000              -0.329631138               0.243264743               0.000000000              -0.353969547               0.262084065               0.000000000              -0.378307956               0.280903388               0.000000000              -0.402646365               0.299722710               0.000000000              -0.426984773               0.318542033               0.000000000              -0.451323182               0.337361355               0.000000000              -0.475661591               0.356180678               0.000000000              -0.500000000               0.375000000               0.000000000              -0.102810390               0.084374307               0.000000000              -0.127634741               0.106444663               0.000000000              -0.152459092               0.128515018               0.000000000              -0.177283442               0.150585374               0.000000000              -0.202107793               0.172655730               0.000000000              -0.226932143               0.194726086               0.000000000              -0.251756494               0.216796442               0.000000000              -0.276580845               0.238866798               0.000000000              -0.301405195               0.260937153               0.000000000              -0.326229546               0.283007509               0.000000000              -0.351053896               0.305077865               0.000000000              -0.375878247               0.327148221               0.000000000              -0.400702598               0.349218577               0.000000000              -0.425526948               0.371288933               0.000000000              -0.450351299               0.393359288               0.000000000              -0.475175649               0.415429644               0.000000000              -0.500000000               0.437500000               0.000000000              -0.094045202               0.094045202               0.000000000              -0.119417377               0.119417377               0.000000000              -0.144789552               0.144789552               0.000000000              -0.170161727               0.170161727               0.000000000              -0.195533901               0.195533901               0.000000000              -0.220906076               0.220906076               0.000000000              -0.246278251               0.246278251               0.000000000              -0.271650426               0.271650426               0.000000000              -0.297022601               0.297022601               0.000000000              -0.322394776               0.322394776               0.000000000              -0.347766951               0.347766951               0.000000000              -0.373139126               0.373139126               0.000000000              -0.398511300               0.398511300               0.000000000              -0.423883475               0.423883475               0.000000000              -0.449255650               0.449255650               0.000000000              -0.474627825               0.474627825               0.000000000              -0.500000000               0.500000000               0.000000000              -0.084374307               0.102810390               0.000000000              -0.106444663               0.127634741               0.000000000              -0.128515018               0.152459092               0.000000000              -0.150585374               0.177283442               0.000000000              -0.172655730               0.202107793               0.000000000              -0.194726086               0.226932143               0.000000000              -0.216796442               0.251756494               0.000000000              -0.238866798               0.276580845               0.000000000              -0.260937153               0.301405195               0.000000000              -0.283007509               0.326229546               0.000000000              -0.305077865               0.351053896               0.000000000              -0.327148221               0.375878247               0.000000000              -0.349218577               0.400702598               0.000000000              -0.371288933               0.425526948               0.000000000              -0.393359288               0.450351299               0.000000000              -0.415429644               0.475175649               0.000000000              -0.437500000               0.500000000               0.000000000              -0.073890841               0.110585458               0.000000000              -0.092710163               0.134923867               0.000000000              -0.111529486               0.159262276               0.000000000              -0.130348808               0.183600685               0.000000000              -0.149168131               0.207939094               0.000000000              -0.167987453               0.232277503               0.000000000              -0.186806776               0.256615912               0.000000000              -0.205626098               0.280954320               0.000000000              -0.224445420               0.305292729               0.000000000              -0.243264743               0.329631138               0.000000000              -0.262084065               0.353969547               0.000000000              -0.280903388               0.378307956               0.000000000              -0.299722710               0.402646365               0.000000000              -0.318542033               0.426984773               0.000000000              -0.337361355               0.451323182               0.000000000              -0.356180678               0.475661591               0.000000000              -0.375000000               0.500000000               0.000000000              -0.062695766               0.117295528               0.000000000              -0.078308531               0.141214558               0.000000000              -0.093921295               0.165133587               0.000000000              -0.109534060               0.189052617               0.000000000              -0.125146824               0.212971646               0.000000000              -0.140759589               0.236890676               0.000000000              -0.156372354               0.260809705               0.000000000              -0.171985118               0.284728735               0.000000000              -0.187597883               0.308647764               0.000000000              -0.203210648               0.332566794               0.000000000              -0.218823412               0.356485823               0.000000000              -0.234436177               0.380404853               0.000000000              -0.250048941               0.404323882               0.000000000              -0.265661706               0.428242912               0.000000000              -0.281274471               0.452161941               0.000000000              -0.296887235               0.476080971               0.000000000              -0.312500000               0.500000000               0.000000000              -0.050896897               0.122875978               0.000000000              -0.063340840               0.146446229               0.000000000              -0.075784784               0.170016481               0.000000000              -0.088228728               0.193586732               0.000000000              -0.100672672               0.217156983               0.000000000              -0.113116616               0.240727235               0.000000000              -0.125560560               0.264297486               0.000000000              -0.138004504               0.287867738               0.000000000              -0.150448448               0.311437989               0.000000000              -0.162892392               0.335008240               0.000000000              -0.175336336               0.358578492               0.000000000              -0.187780280               0.382148743               0.000000000              -0.200224224               0.405718994               0.000000000              -0.212668168               0.429289246               0.000000000              -0.225112112               0.452859497               0.000000000              -0.237556056               0.476429749               0.000000000              -0.250000000               0.500000000               0.000000000              -0.038607862               0.127273065               0.000000000              -0.047913621               0.150568498               0.000000000              -0.057219379               0.173863932               0.000000000              -0.066525138               0.197159365               0.000000000              -0.075830897               0.220454798               0.000000000              -0.085136655               0.243750232               0.000000000              -0.094442414               0.267045665               0.000000000              -0.103748172               0.290341099               0.000000000              -0.113053931               0.313636532               0.000000000              -0.122359690               0.336931966               0.000000000              -0.131665448               0.360227399               0.000000000              -0.140971207               0.383522833               0.000000000              -0.150276966               0.406818266               0.000000000              -0.159582724               0.430113700               0.000000000              -0.168888483               0.453409133               0.000000000              -0.178194241               0.476704567               0.000000000              -0.187500000               0.500000000               0.000000000              -0.025947013               0.130444442               0.000000000              -0.032137825               0.153541665               0.000000000              -0.038328636               0.176638887               0.000000000              -0.044519448               0.199736109               0.000000000              -0.050710260               0.222833332               0.000000000              -0.056901071               0.245930554               0.000000000              -0.063091883               0.269027776               0.000000000              -0.069282695               0.292124999               0.000000000              -0.075473506               0.315222221               0.000000000              -0.081664318               0.338319444               0.000000000              -0.087855130               0.361416666               0.000000000              -0.094045942               0.384513888               0.000000000              -0.100236753               0.407611111               0.000000000              -0.106427565               0.430708333               0.000000000              -0.112618377               0.453805555               0.000000000              -0.118809188               0.476902778               0.000000000              -0.125000000               0.500000000               0.000000000              -0.013036280               0.132359569               0.000000000              -0.016127762               0.155337096               0.000000000              -0.019219245               0.178314623               0.000000000              -0.022310727               0.201292150               0.000000000              -0.025402210               0.224269676               0.000000000              -0.028493692               0.247247203               0.000000000              -0.031585175               0.270224730               0.000000000              -0.034676657               0.293202257               0.000000000              -0.037768140               0.316179784               0.000000000              -0.040859622               0.339157311               0.000000000              -0.043951105               0.362134838               0.000000000              -0.047042587               0.385112365               0.000000000              -0.050134070               0.408089892               0.000000000              -0.053225552               0.431067419               0.000000000              -0.056317035               0.454044946               0.000000000              -0.059408517               0.477022473               0.000000000              -0.062500000               0.500000000               0.000000000               0.000000000               0.133000000               0.000000000               0.000000000               0.155937500               0.000000000               0.000000000               0.178875000               0.000000000               0.000000000               0.201812500               0.000000000               0.000000000               0.224750000               0.000000000               0.000000000               0.247687500               0.000000000               0.000000000               0.270625000               0.000000000               0.000000000               0.293562500               0.000000000               0.000000000               0.316500000               0.000000000               0.000000000               0.339437500               0.000000000               0.000000000               0.362375000               0.000000000               0.000000000               0.385312500               0.000000000               0.000000000               0.408250000               0.000000000               0.000000000               0.431187500               0.000000000               0.000000000               0.454125000               0.000000000               0.000000000               0.477062500               0.000000000               0.000000000               0.500000000               0.000000000 </DataArray>
</Points>
<Cells>
<DataArray type="Int32"                                    Name="connectivity"                                                      NumberOfComponents=" 1" format="ascii">
         0          1         18         17          1          2         19         18          2          3         20         19          3          4         21         20          4          5         22         21          5          6         23         22          6          7         24         23          7          8         25         24          8          9         26         25          9         10         27         26         10         11         28         27         11         12         29         28         12         13         30         29         13         14         31         30         14         15         32         31         15         16         33         32         17         18         35         34         18         19         36         35         19         20         37         36         20         21         38         37         21         22         39         38         22         23         40         39         23         24         41         40         24         25         42         41         25         26         43         42         26         27         44         43         27         28         45         44         28         29         46         45         29         30         47         46         30         31         48         47         31         32         49         48         32         33         50         49         34         35         52         51         35         36         53         52         36         37         54         53         37         38         55         54         38         39         56         55         39         40         57         56         40         41         58         57         41         42         59         58         42         43         60         59         43         44         61         60         44         45         62         61         45         46         63         62         46         47         64         63         47         48         65         64         48         49         66         65         49         50         67         66         51         52         69         68         52         53         70         69         53         54         71         70         54         55         72         71         55         56         73         72         56         57         74         73         57         58         75         74         58         59         76         75         59         60         77         76         60         61         78         77         61         62         79         78         62         63         80         79         63         64         81         80         64         65         82         81         65         66         83         82         66         67         84         83         68         69         86         85         69         70         87         86         70         71         88         87         71         72         89         88         72         73         90         89         73         74         91         90         74         75         92         91         75         76         93         92         76         77         94         93         77         78         95         94         78         79         96         95         79         80         97         96         80         81         98         97         81         82         99         98         82         83        100         99         83         84        101        100         85         86        103        102         86         87        104        103         87         88        105        104         88         89        106        105         89         90        107        106         90         91        108        107         91         92        109        108         92         93        110        109         93         94        111        110         94         95        112        111         95         96        113        112         96         97        114        113         97         98        115        114         98         99        116        115         99        100        117        116        100        101        118        117        102        103        120        119        103        104        121        120        104        105        122        121        105        106        123        122        106        107        124        123        107        108        125        124        108        109        126        125        109        110        127        126        110        111        128        127        111        112        129        128        112        113        130        129        113        114        131        130        114        115        132        131        115        116        133        132        116        117        134        133        117        118        135        134        119        120        137        136        120        121        138        137        121        122        139        138        122        123        140        139        123        124        141        140        124        125        142        141        125        126        143        142        126        127        144        143        127        128        145        144        128        129        146        145        129        130        147        146        130        131        148        147        131        132        149        148        132        133        150        149        133        134        151        150        134        135        152        151        136        137        154        153        137        138        155        154        138        139        156        155        139        140        157        156        140        141        158        157        141        142        159        158        142        143        160        159        143        144        161        160        144        145        162        161        145        146        163        162        146        147        164        163        147        148        165        164        148        149        166        165        149        150        167        166        150        151        168        167        151        152        169        168        153        154        171        170        154        155        172        171        155        156        173        172        156        157        174        173        157        158        175        174        158        159        176        175        159        160        177        176        160        161        178        177        161        162        179        178        162        163        180        179        163        164        181        180        164        165        182        181        165        166        183        182        166        167        184        183        167        168        185        184        168        169        186        185        170        171        188        187        171        172        189        188        172        173        190        189        173        174        191        190        174        175        192        191        175        176        193        192        176        177        194        193        177        178        195        194        178        179        196        195        179        180        197        196        180        181        198        197        181        182        199        198        182        183        200        199        183        184        201        200        184        185        202        201        185        186        203        202        187        188        205        204        188        189        206        205        189        190        207        206        190        191        208        207        191        192        209        208        192        193        210        209        193        194        211        210        194        195        212        211        195        196        213        212        196        197        214        213        197        198        215        214        198        199        216        215        199        200        217        216        200        201        218        217        201        202        219        218        202        203        220        219        204        205        222        221        205        206        223        222        206        207        224        223        207        208        225        224        208        209        226        225        209        210        227        226        210        211        228        227        211        212        229        228        212        213        230        229        213        214        231        230        214        215        232        231        215        216        233        232        216        217        234        233        217        218        235        234        218        219        236        235        219        220        237        236        221        222        239        238        222        223        240        239        223        224        241        240        224        225        242        241        225        226        243        242        226        227        244        243        227        228        245        244        228        229        246        245        229        230        247        246        230        231        248        247        231        232        249        248        232        233        250        249        233        234        251        250        234        235        252        251        235        236        253        252        236        237        254        253        238        239        256        255        239        240        257        256        240        241        258        257        241        242        259        258        242        243        260        259        243        244        261        260        244        245        262        261        245        246        263        262        246        247        264        263        247        248        265        264        248        249        266        265        249        250        267        266        250        251        268        267        251        252        269        268        252        253        270        269        253        254        271        270        255        256        273        272        256        257        274        273        257        258        275        274        258        259        276        275        259        260        277        276        260        261        278        277        261        262        279        278        262        263        280        279        263        264        281        280        264        265        282        281        265        266        283        282        266        267        284        283        267        268        285        284        268        269        286        285        269        270        287        286        270        271        288        287        306        307          1          0        307        308          2          1        308        309          3          2        309        310          4          3        310        311          5          4        311        312          6          5        312        313          7          6        313        314          8          7        314        315          9          8        315        316         10          9        316        317         11         10        317        318         12         11        318        319         13         12        319        320         14         13        320        321         15         14        321        322         16         15        323        324        307        306        324        325        308        307        325        326        309        308        326        327        310        309        327        328        311        310        328        329        312        311        329        330        313        312        330        331        314        313        331        332        315        314        332        333        316        315        333        334        317        316        334        335        318        317        335        336        319        318        336        337        320        319        337        338        321        320        338        339        322        321        340        341        324        323        341        342        325        324        342        343        326        325        343        344        327        326        344        345        328        327        345        346        329        328        346        347        330        329        347        348        331        330        348        349        332        331        349        350        333        332        350        351        334        333        351        352        335        334        352        353        336        335        353        354        337        336        354        355        338        337        355        356        339        338        357        358        341        340        358        359        342        341        359        360        343        342        360        361        344        343        361        362        345        344        362        363        346        345        363        364        347        346        364        365        348        347        365        366        349        348        366        367        350        349        367        368        351        350        368        369        352        351        369        370        353        352        370        371        354        353        371        372        355        354        372        373        356        355        374        375        358        357        375        376        359        358        376        377        360        359        377        378        361        360        378        379        362        361        379        380        363        362        380        381        364        363        381        382        365        364        382        383        366        365        383        384        367        366        384        385        368        367        385        386        369        368        386        387        370        369        387        388        371        370        388        389        372        371        389        390        373        372        391        392        375        374        392        393        376        375        393        394        377        376        394        395        378        377        395        396        379        378        396        397        380        379        397        398        381        380        398        399        382        381        399        400        383        382        400        401        384        383        401        402        385        384        402        403        386        385        403        404        387        386        404        405        388        387        405        406        389        388        406        407        390        389        408        409        392        391        409        410        393        392        410        411        394        393        411        412        395        394        412        413        396        395        413        414        397        396        414        415        398        397        415        416        399        398        416        417        400        399        417        418        401        400        418        419        402        401        419        420        403        402        420        421        404        403        421        422        405        404        422        423        406        405        423        424        407        406        425        426        409        408        426        427        410        409        427        428        411        410        428        429        412        411        429        430        413        412        430        431        414        413        431        432        415        414        432        433        416        415        433        434        417        416        434        435        418        417        435        436        419        418        436        437        420        419        437        438        421        420        438        439        422        421        439        440        423        422        440        441        424        423        442        443        426        425        443        444        427        426        444        445        428        427        445        446        429        428        446        447        430        429        447        448        431        430        448        449        432        431        449        450        433        432        450        451        434        433        451        452        435        434        452        453        436        435        453        454        437        436        454        455        438        437        455        456        439        438        456        457        440        439        457        458        441        440        459        460        443        442        460        461        444        443        461        462        445        444        462        463        446        445        463        464        447        446        464        465        448        447        465        466        449        448        466        467        450        449        467        468        451        450        468        469        452        451        469        470        453        452        470        471        454        453        471        472        455        454        472        473        456        455        473        474        457        456        474        475        458        457        476        477        460        459        477        478        461        460        478        479        462        461        479        480        463        462        480        481        464        463        481        482        465        464        482        483        466        465        483        484        467        466        484        485        468        467        485        486        469        468        486        487        470        469        487        488        471        470        488        489        472        471        489        490        473        472        490        491        474        473        491        492        475        474        493        494        477        476        494        495        478        477        495        496        479        478        496        497        480        479        497        498        481        480        498        499        482        481        499        500        483        482        500        501        484        483        501        502        485        484        502        503        486        485        503        504        487        486        504        505        488        487        505        506        489        488        506        507        490        489        507        508        491        490        508        509        492        491        510        511        494        493        511        512        495        494        512        513        496        495        513        514        497        496        514        515        498        497        515        516        499        498        516        517        500        499        517        518        501        500        518        519        502        501        519        520        503        502        520        521        504        503        521        522        505        504        522        523        506        505        523        524        507        506        524        525        508        507        525        526        509        508        527        528        511        510        528        529        512        511        529        530        513        512        530        531        514        513        531        532        515        514        532        533        516        515        533        534        517        516        534        535        518        517        535        536        519        518        536        537        520        519        537        538        521        520        538        539        522        521        539        540        523        522        540        541        524        523        541        542        525        524        542        543        526        525        544        545        528        527        545        546        529        528        546        547        530        529        547        548        531        530        548        549        532        531        549        550        533        532        550        551        534        533        551        552        535        534        552        553        536        535        553        554        537        536        554        555        538        537        555        556        539        538        556        557        540        539        557        558        541        540        558        559        542        541        559        560        543        542        561        562        545        544        562        563        546        545        563        564        547        546        564        565        548        547        565        566        549        548        566        567        550        549        567        568        551        550        568        569        552        551        569        570        553        552        570        571        554        553        571        572        555        554        572        573        556        555        573        574        557        556        574        575        558        557        575        576        559        558        576        577        560        559        578        579        596        595        579        580        597        596        580        581        598        597        581        582        599        598        582        583        600        599        583        584        601        600        584        585        602        601        585        586        603        602        586        587        604        603        587        588        605        604        588        589        606        605        589        590        607        606        590        591        608        607        591        592        609        608        592        593        610        609        593        594        611        610        595        596        613        612        596        597        614        613        597        598        615        614        598        599        616        615        599        600        617        616        600        601        618        617        601        602        619        618        602        603        620        619        603        604        621        620        604        605        622        621        605        606        623        622        606        607        624        623        607        608        625        624        608        609        626        625        609        610        627        626        610        611        628        627        612        613        630        629        613        614        631        630        614        615        632        631        615        616        633        632        616        617        634        633        617        618        635        634        618        619        636        635        619        620        637        636        620        621        638        637        621        622        639        638        622        623        640        639        623        624        641        640        624        625        642        641        625        626        643        642        626        627        644        643        627        628        645        644        629        630        647        646        630        631        648        647        631        632        649        648        632        633        650        649        633        634        651        650        634        635        652        651        635        636        653        652        636        637        654        653        637        638        655        654        638        639        656        655        639        640        657        656        640        641        658        657        641        642        659        658        642        643        660        659        643        644        661        660        644        645        662        661        646        647        664        663        647        648        665        664        648        649        666        665        649        650        667        666        650        651        668        667        651        652        669        668        652        653        670        669        653        654        671        670        654        655        672        671        655        656        673        672        656        657        674        673        657        658        675        674        658        659        676        675        659        660        677        676        660        661        678        677        661        662        679        678        663        664        681        680        664        665        682        681        665        666        683        682        666        667        684        683        667        668        685        684        668        669        686        685        669        670        687        686        670        671        688        687        671        672        689        688        672        673        690        689        673        674        691        690        674        675        692        691        675        676        693        692        676        677        694        693        677        678        695        694        678        679        696        695        680        681        698        697        681        682        699        698        682        683        700        699        683        684        701        700        684        685        702        701        685        686        703        702        686        687        704        703        687        688        705        704        688        689        706        705        689        690        707        706        690        691        708        707        691        692        709        708        692        693        710        709        693        694        711        710        694        695        712        711        695        696        713        712        697        698        715        714        698        699        716        715        699        700        717        716        700        701        718        717        701        702        719        718        702        703        720        719        703        704        721        720        704        705        722        721        705        706        723        722        706        707        724        723        707        708        725        724        708        709        726        725        709        710        727        726        710        711        728        727        711        712        729        728        712        713        730        729        714        715        732        731        715        716        733        732        716        717        734        733        717        718        735        734        718        719        736        735        719        720        737        736        720        721        738        737        721        722        739        738        722        723        740        739        723        724        741        740        724        725        742        741        725        726        743        742        726        727        744        743        727        728        745        744        728        729        746        745        729        730        747        746        731        732        749        748        732        733        750        749        733        734        751        750        734        735        752        751        735        736        753        752        736        737        754        753        737        738        755        754        738        739        756        755        739        740        757        756        740        741        758        757        741        742        759        758        742        743        760        759        743        744        761        760        744        745        762        761        745        746        763        762        746        747        764        763        748        749        766        765        749        750        767        766        750        751        768        767        751        752        769        768        752        753        770        769        753        754        771        770        754        755        772        771        755        756        773        772        756        757        774        773        757        758        775        774        758        759        776        775        759        760        777        776        760        761        778        777        761        762        779        778        762        763        780        779        763        764        781        780        765        766        783        782        766        767        784        783        767        768        785        784        768        769        786        785        769        770        787        786        770        771        788        787        771        772        789        788        772        773        790        789        773        774        791        790        774        775        792        791        775        776        793        792        776        777        794        793        777        778        795        794        778        779        796        795        779        780        797        796        780        781        798        797        782        783        800        799        783        784        801        800        784        785        802        801        785        786        803        802        786        787        804        803        787        788        805        804        788        789        806        805        789        790        807        806        790        791        808        807        791        792        809        808        792        793        810        809        793        794        811        810        794        795        812        811        795        796        813        812        796        797        814        813        797        798        815        814        799        800        817        816        800        801        818        817        801        802        819        818        802        803        820        819        803        804        821        820        804        805        822        821        805        806        823        822        806        807        824        823        807        808        825        824        808        809        826        825        809        810        827        826        810        811        828        827        811        812        829        828        812        813        830        829        813        814        831        830        814        815        832        831        816        817        834        833        817        818        835        834        818        819        836        835        819        820        837        836        820        821        838        837        821        822        839        838        822        823        840        839        823        824        841        840        824        825        842        841        825        826        843        842        826        827        844        843        827        828        845        844        828        829        846        845        829        830        847        846        830        831        848        847        831        832        849        848        833        834        562        561        834        835        563        562        835        836        564        563        836        837        565        564        837        838        566        565        838        839        567        566        839        840        568        567        840        841        569        568        841        842        570        569        842        843        571        570        843        844        572        571        844        845        573        572        845        846        574        573        846        847        575        574        847        848        576        575        848        849        577        576        884        885        579        578        885        886        580        579        886        887        581        580        887        888        582        581        888        889        583        582        889        890        584        583        890        891        585        584        891        892        586        585        892        893        587        586        893        894        588        587        894        895        589        588        895        896        590        589        896        897        591        590        897        898        592        591        898        899        593        592        899        900        594        593        901        902        885        884        902        903        886        885        903        904        887        886        904        905        888        887        905        906        889        888        906        907        890        889        907        908        891        890        908        909        892        891        909        910        893        892        910        911        894        893        911        912        895        894        912        913        896        895        913        914        897        896        914        915        898        897        915        916        899        898        916        917        900        899        918        919        902        901        919        920        903        902        920        921        904        903        921        922        905        904        922        923        906        905        923        924        907        906        924        925        908        907        925        926        909        908        926        927        910        909        927        928        911        910        928        929        912        911        929        930        913        912        930        931        914        913        931        932        915        914        932        933        916        915        933        934        917        916        935        936        919        918        936        937        920        919        937        938        921        920        938        939        922        921        939        940        923        922        940        941        924        923        941        942        925        924        942        943        926        925        943        944        927        926        944        945        928        927        945        946        929        928        946        947        930        929        947        948        931        930        948        949        932        931        949        950        933        932        950        951        934        933        952        953        936        935        953        954        937        936        954        955        938        937        955        956        939        938        956        957        940        939        957        958        941        940        958        959        942        941        959        960        943        942        960        961        944        943        961        962        945        944        962        963        946        945        963        964        947        946        964        965        948        947        965        966        949        948        966        967        950        949        967        968        951        950        969        970        953        952        970        971        954        953        971        972        955        954        972        973        956        955        973        974        957        956        974        975        958        957        975        976        959        958        976        977        960        959        977        978        961        960        978        979        962        961        979        980        963        962        980        981        964        963        981        982        965        964        982        983        966        965        983        984        967        966        984        985        968        967        986        987        970        969        987        988        971        970        988        989        972        971        989        990        973        972        990        991        974        973        991        992        975        974        992        993        976        975        993        994        977        976        994        995        978        977        995        996        979        978        996        997        980        979        997        998        981        980        998        999        982        981        999       1000        983        982       1000       1001        984        983       1001       1002        985        984       1003       1004        987        986       1004       1005        988        987       1005       1006        989        988       1006       1007        990        989       1007       1008        991        990       1008       1009        992        991       1009       1010        993        992       1010       1011        994        993       1011       1012        995        994       1012       1013        996        995       1013       1014        997        996       1014       1015        998        997       1015       1016        999        998       1016       1017       1000        999       1017       1018       1001       1000       1018       1019       1002       1001       1020       1021       1004       1003       1021       1022       1005       1004       1022       1023       1006       1005       1023       1024       1007       1006       1024       1025       1008       1007       1025       1026       1009       1008       1026       1027       1010       1009       1027       1028       1011       1010       1028       1029       1012       1011       1029       1030       1013       1012       1030       1031       1014       1013       1031       1032       1015       1014       1032       1033       1016       1015       1033       1034       1017       1016       1034       1035       1018       1017       1035       1036       1019       1018       1037       1038       1021       1020       1038       1039       1022       1021       1039       1040       1023       1022       1040       1041       1024       1023       1041       1042       1025       1024       1042       1043       1026       1025       1043       1044       1027       1026       1044       1045       1028       1027       1045       1046       1029       1028       1046       1047       1030       1029       1047       1048       1031       1030       1048       1049       1032       1031       1049       1050       1033       1032       1050       1051       1034       1033       1051       1052       1035       1034       1052       1053       1036       1035       1054       1055       1038       1037       1055       1056       1039       1038       1056       1057       1040       1039       1057       1058       1041       1040       1058       1059       1042       1041       1059       1060       1043       1042       1060       1061       1044       1043       1061       1062       1045       1044       1062       1063       1046       1045       1063       1064       1047       1046       1064       1065       1048       1047       1065       1066       1049       1048       1066       1067       1050       1049       1067       1068       1051       1050       1068       1069       1052       1051       1069       1070       1053       1052       1071       1072       1055       1054       1072       1073       1056       1055       1073       1074       1057       1056       1074       1075       1058       1057       1075       1076       1059       1058       1076       1077       1060       1059       1077       1078       1061       1060       1078       1079       1062       1061       1079       1080       1063       1062       1080       1081       1064       1063       1081       1082       1065       1064       1082       1083       1066       1065       1083       1084       1067       1066       1084       1085       1068       1067       1085       1086       1069       1068       1086       1087       1070       1069       1088       1089       1072       1071       1089       1090       1073       1072       1090       1091       1074       1073       1091       1092       1075       1074       1092       1093       1076       1075       1093       1094       1077       1076       1094       1095       1078       1077       1095       1096       1079       1078       1096       1097       1080       1079       1097       1098       1081       1080       1098       1099       1082       1081       1099       1100       1083       1082       1100       1101       1084       1083       1101       1102       1085       1084       1102       1103       1086       1085       1103       1104       1087       1086       1105       1106       1089       1088       1106       1107       1090       1089       1107       1108       1091       1090       1108       1109       1092       1091       1109       1110       1093       1092       1110       1111       1094       1093       1111       1112       1095       1094       1112       1113       1096       1095       1113       1114       1097       1096       1114       1115       1098       1097       1115       1116       1099       1098       1116       1117       1100       1099       1117       1118       1101       1100       1118       1119       1102       1101       1119       1120       1103       1102       1120       1121       1104       1103       1122       1123       1106       1105       1123       1124       1107       1106       1124       1125       1108       1107       1125       1126       1109       1108       1126       1127       1110       1109       1127       1128       1111       1110       1128       1129       1112       1111       1129       1130       1113       1112       1130       1131       1114       1113       1131       1132       1115       1114       1132       1133       1116       1115       1133       1134       1117       1116       1134       1135       1118       1117       1135       1136       1119       1118       1136       1137       1120       1119       1137       1138       1121       1120        272        273       1123       1122        273        274       1124       1123        274        275       1125       1124        275        276       1126       1125        276        277       1127       1126        277        278       1128       1127        278        279       1129       1128        279        280       1130       1129        280        281       1131       1130        281        282       1132       1131        282        283       1133       1132        283        284       1134       1133        284        285       1135       1134        285        286       1136       1135        286        287       1137       1136        287        288       1138       1137 </DataArray>
<DataArray type="Int32"                                    Name="offsets"                                                      NumberOfComponents=" 1" format="ascii">
         4          8         12         16         20         24         28         32         36         40         44         48         52         56         60         64         68         72         76         80         84         88         92         96        100        104        108        112        116        120        124        128        132        136        140        144        148        152        156        160        164        168        172        176        180        184        188        192        196        200        204        208        212        216        220        224        228        232        236        240        244        248        252        256        260        264        268        272        276        280        284        288        292        296        300        304        308        312        316        320        324        328        332        336        340        344        348        352        356        360        364        368        372        376        380        384        388        392        396        400        404        408        412        416        420        424        428        432        436        440        444        448        452        456        460        464        468        472        476        480        484        488        492        496        500        504        508        512        516        520        524        528        532        536        540        544        548        552        556        560        564        568        572        576        580        584        588        592        596        600        604        608        612        616        620        624        628        632        636        640        644        648        652        656        660        664        668        672        676        680        684        688        692        696        700        704        708        712        716        720        724        728        732        736        740        744        748        752        756        760        764        768        772        776        780        784        788        792        796        800        804        808        812        816        820        824        828        832        836        840        844        848        852        856        860        864        868        872        876        880        884        888        892        896        900        904        908        912        916        920        924        928        932        936        940        944        948        952        956        960        964        968        972        976        980        984        988        992        996       1000       1004       1008       1012       1016       1020       1024       1028       1032       1036       1040       1044       1048       1052       1056       1060       1064       1068       1072       1076       1080       1084       1088       1092       1096       1100       1104       1108       1112       1116       1120       1124       1128       1132       1136       1140       1144       1148       1152       1156       1160       1164       1168       1172       1176       1180       1184       1188       1192       1196       1200       1204       1208       1212       1216       1220       1224       1228       1232       1236       1240       1244       1248       1252       1256       1260       1264       1268       1272       1276       1280       1284       1288       1292       1296       1300       1304       1308       1312       1316       1320       1324       1328       1332       1336       1340       1344       1348       1352       1356       1360       1364       1368       1372       1376       1380       1384       1388       1392       1396       1400       1404       1408       1412       1416       1420       1424       1428       1432       1436       1440       1444       1448       1452       1456       1460       1464       1468       1472       1476       1480       1484       1488       1492       1496       1500       1504       1508       1512       1516       1520       1524       1528       1532       1536       1540       1544       1548       1552       1556       1560       1564       1568       1572       1576       1580       1584       1588       1592       1596       1600       1604       1608       1612       1616       1620       1624       1628       1632       1636       1640       1644       1648       1652       1656       1660       1664       1668       1672       1676       1680       1684       1688       1692       1696       1700       1704       1708       1712       1716       1720       1724       1728       1732       1736       1740       1744       1748       1752       1756       1760       1764       1768       1772       1776       1780       1784       1788       1792       1796       1800       1804       1808       1812       1816       1820       1824       1828       1832       1836       1840       1844       1848       1852       1856       1860       1864       1868       1872       1876       1880       1884       1888       1892       1896       1900       1904       1908       1912       1916       1920       1924       1928       1932       1936       1940       1944       1948       1952       1956       1960       1964       1968       1972       1976       1980       1984       1988       1992       1996       2000       2004       2008       2012       2016       2020       2024       2028       2032       2036       2040       2044       2048       2052       2056       2060       2064       2068       2072       2076       2080       2084       2088       2092       2096       2100       2104       2108       2112       2116       2120       2124       2128       2132       2136       2140       2144       2148       2152       2156       2160       2164       2168       2172       2176       2180       2184       2188       2192       2196       2200       2204       2208       2212       2216       2220       2224       2228       2232       2236       2240       2244       2248       2252       2256       2260       2264       2268       2272       2276       2280       2284       2288       2292       2296       2300       2304       2308       2312       2316       2320       2324       2328       2332       2336       2340       2344       2348       2352       2356       2360       2364       2368       2372       2376       2380       2384       2388       2392       2396       2400       2404       2408       2412       2416       2420       2424       2428       2432       2436       2440       2444       2448       2452       2456       2460       2464       2468       2472       2476       2480       2484       2488       2492       2496       2500       2504       2508       2512       2516       2520       2524       2528       2532       2536       2540       2544       2548       2552       2556       2560       2564       2568       2572       2576       2580       2584       2588       2592       2596       2600       2604       2608       2612       2616       2620       2624       2628       2632       2636       2640       2644       2648       2652       2656       2660       2664       2668       2672       2676       2680       2684       2688       2692       2696       2700       2704       2708       2712       2716       2720       2724       2728       2732       2736       2740       2744       2748       2752       2756       2760       2764       2768       2772       2776       2780       2784       2788       2792       2796       2800       2804       2808       2812       2816       2820       2824       2828       2832       2836       2840       2844       2848       2852       2856       2860       2864       2868       2872       2876       2880       2884       2888       2892       2896       2900       2904       2908       2912       2916       2920       2924       2928       2932       2936       2940       2944       2948       2952       2956       2960       2964       2968       2972       2976       2980       2984       2988       2992       2996       3000       3004       3008       3012       3016       3020       3024       3028       3032       3036       3040       3044       3048       3052       3056       3060       3064       3068       3072       3076       3080       3084       3088       3092       3096       3100       3104       3108       3112       3116       3120       3124       3128       3132       3136       3140       3144       3148       3152       3156       3160       3164       3168       3172       3176       3180       3184       3188       3192       3196       3200       3204       3208       3212       3216       3220       3224       3228       3232       3236       3240       3244       3248       3252       3256       3260       3264       3268       3272       3276       3280       3284       3288       3292       3296       3300       3304       3308       3312       3316       3320       3324       3328       3332       3336       3340       3344       3348       3352       3356       3360       3364       3368       3372       3376       3380       3384       3388       3392       3396       3400       3404       3408       3412       3416       3420       3424       3428       3432       3436       3440       3444       3448       3452       3456       3460       3464       3468       3472       3476       3480       3484       3488       3492       3496       3500       3504       3508       3512       3516       3520       3524       3528       3532       3536       3540       3544       3548       3552       3556       3560       3564       3568       3572       3576       3580       3584       3588       3592       3596       3600       3604       3608       3612       3616       3620       3624       3628       3632       3636       3640       3644       3648       3652       3656       3660       3664       3668       3672       3676       3680       3684       3688       3692       3696       3700       3704       3708       3712       3716       3720       3724       3728       3732       3736       3740       3744       3748       3752       3756       3760       3764       3768       3772       3776       3780       3784       3788       3792       3796       3800       3804       3808       3812       3816       3820       3824       3828       3832       3836       3840       3844       3848       3852       3856       3860       3864       3868       3872       3876       3880       3884       3888       3892       3896       3900       3904       3908       3912       3916       3920       3924       3928       3932       3936       3940       3944       3948       3952       3956       3960       3964       3968       3972       3976       3980       3984       3988       3992       3996       4000       4004       4008       4012       4016       4020       4024       4028       4032       4036       4040       4044       4048       4052       4056       4060       4064       4068       4072       4076       4080       4084       4088       4092       4096 </DataArray>
<DataArray type="UInt8"                                    Name="types"                                                      NumberOfComponents=" 1" format="ascii">
         9          9          9          9          9          9          9          9          9          9          9          9          9          9          9          9          9          9          9          9          9          9          9          9          9          9          9          9          9          9          9          9          9          9          9          9          9          9          9          9          9          9          9          9          9          9          9          9          9          9          9          9          9          9          9          9          9          9          9          9          9          9          9          9          9          9          9          9          9          9          9          9          9          9          9          9          9          9          9          9          9          9          9          9          9          9          9          9          9          9          9          9          9          9          9          9          9          9          9          9          9          9          9          9          9          9          9          9          9          9          9          9          9          9          9          9          9          9          9          9          9          9          9          9          9          9          9          9          9          9          9          9          9          9          9          9          9          9          9          9          9          9          9          9          9          9          9          9          9          9          9          9          9          9          9          9          9          9          9          9          9          9          9          9          9          9          9          9          9          9          9          9          9          9          9          9          9          9          9          9          9          9          9          9          9          9          9          9          9          9          9          9          9          9          9          9          9          9          9          9          9          9          9          9          9          9          9          9          9          9          9          9          9          9          9          9          9          9          9          9          9          9          9          9          9          9          9          9          9          9          9          9          9          9          9          9          9          9          9          9          9          9          9          9          9          9          9          9          9          9          9          9          9          9          9          9          9          9          9          9          9          9          9          9          9          9          9          9          9          9          9          9          9          9          9          9          9          9          9          9          9          9          9          9          9          9          9          9          9          9          9          9          9          9          9          9          9          9          9          9          9          9          9          9          9          9          9          9          9          9          9          9          9          9          9          9          9          9          9          9          9          9          9          9          9          9          9          9          9          9          9          9          9          9          9          9          9          9          9          9          9          9          9          9          9          9          9          9          9          9          9          9          9          9          9          9          9          9          9          9          9          9          9          9          9          9          9          9          9          9          9          9          9          9          9          9          9          9          9          9          9          9          9          9          9          9          9          9          9          9          9          9          9          9          9          9          9          9          9          9          9          9          9          9          9          9          9          9          9          9          9          9          9          9          9          9          9          9          9          9          9          9          9          9          9          9          9          9          9          9          9          9          9          9          9          9          9          9          9          9          9          9          9          9          9          9          9          9          9          9          9          9          9          9          9          9          9          9          9          9          9          9          9          9          9          9          9          9          9          9          9          9          9          9          9          9          9          9          9          9          9          9          9          9          9          9          9          9          9          9          9          9          9          9          9          9          9          9          9          9          9          9          9          9          9          9          9          9          9          9          9          9          9          9          9          9          9          9          9          9          9          9          9          9          9          9          9          9          9          9          9          9          9          9          9          9          9          9          9          9          9          9          9          9          9          9          9          9          9          9          9          9          9          9          9          9          9          9          9          9          9          9          9          9          9          9          9          9          9          9          9          9          9          9          9          9          9          9          9          9          9          9          9          9          9          9          9          9          9          9          9          9          9          9          9          9          9          9          9          9          9          9          9          9          9          9          9          9          9          9          9          9          9          9          9          9          9          9          9          9          9          9          9          9          9          9          9          9          9          9          9          9          9          9          9          9          9          9          9          9          9          9          9          9          9          9          9          9          9          9          9          9          9          9          9          9          9          9          9          9          9          9          9          9          9          9          9          9          9          9          9          9          9          9          9          9          9          9          9          9          9          9          9          9          9          9          9          9          9          9          9          9          9          9          9          9          9          9          9          9          9          9          9          9          9          9          9          9          9          9          9          9          9          9          9          9          9          9          9          9          9          9          9          9          9          9          9          9          9          9          9          9          9          9          9          9          9          9          9          9          9          9          9          9          9          9          9          9          9          9          9          9          9          9          9          9          9          9          9          9          9          9          9          9          9          9          9          9          9          9          9          9          9          9          9          9          9          9          9          9          9          9          9          9          9          9          9          9          9          9          9          9          9          9          9          9          9          9          9          9          9          9          9          9          9          9          9          9          9          9          9          9          9          9          9          9          9          9          9          9          9          9          9          9          9          9          9          9          9          9          9          9          9          9          9          9          9          9          9          9          9          9          9          9          9          9          9          9          9          9          9          9          9          9          9          9          9          9          9          9          9          9          9          9          9          9          9          9          9          9          9          9          9          9          9          9          9          9          9          9          9          9          9          9          9          9          9          9          9          9          9          9          9          9          9          9          9          9          9          9          9          9          9          9          9          9          9          9          9          9          9          9          9          9          9          9          9          9          9          9          9          9          9          9          9          9          9          9          9          9          9          9          9          9          9          9          9          9          9          9          9          9          9          9          9          9          9          9          9          9          9          9          9          9          9          9          9          9          9          9          9          9          9          9          9          9          9          9          9          9          9          9          9          9          9          9          9          9          9          9          9          9          9          9          9          9          9          9          9          9          9          9          9          9          9          9          9          9          9          9          9          9          9          9          9          9          9          9          9          9          9          9          9          9          9          9          9          9          9          9          9          9          9          9 </DataArray>
</Cells>
<CellData>
<DataArray type="Int32"                                    Name="material"                                                      NumberOfComponents=" 1" format="ascii">
         1          1          1          1          1          1          1          1          1          1          1          1          1          1          1          1          1          1          1          1          1          1          1          1          1          1          1          1          1          1          1          1          1          1          1          1          1          1          1          1          1          1          1          1          1          1          1          1          1          1          1          1          1          1          1          1          1          1          1          1          1          1          1          1          1          1          1          1          1          1          1          1          1          1          1          1          1          1          1          1          1          1          1          1          1          1          1          1          1          1          1          1          1          1          1          1          1          1          1          1          1          1          1          1          1          1          1          1          1          1          1          1          1          1          1          1          1          1          1          1          1          1          1          1          1          1          1          1          1          1          1          1          1          1          1          1          1          1          1          1          1          1          1          1          1          1          1          1          1          1          1          1          1          1          1          1          1          1          1          1          1          1          1          1          1          1          1          1          1          1          1          1          1          1          1          1          1          1          1          1          1          1          1          1          1          1          1          1          1          1          1          1          1          1          1          1          1          1          1          1          1          1          1          1          1          1          1          1          1          1          1          1          1          1          1          1          1          1          1          1          1          1          1          1          1          1          1          1          1          1          1          1          1          1          1          1          1          1          1          1          1          1          1          1          1          1          1          1          1          1          1          1          1          1          1          1          1          1          1          1          1          1          1          1          1          1          1          1          1          1          1          1          1          1          1          1          1          1          1          1          1          1          1          1          1          1          1          1          1          1          1          1          1          1          1          1          1          1          1          1          1          1          1          1          1          1          1          1          1          1          1          1          1          1          1          1          1          1          1          1          1          1          1          1          1          1          1          1          1          1          1          1          1          1          1          1          1          1          1          1          1          1          1          1          1          1          1          1          1          1          1          1          1          1          1          1          1          1          1          1          1          1          1          1          1          1          1          1          1          1          1          1          1          1          1          1          1          1          1          1          1          1          1          1          1          1          1          1          1          1          1          1          1          1          1          1          1          1          1          1          1          1          1          1          1          1          1          1          1          1          1          1          1          1          1          1          1          1          1          1          1          1          1          1          1          1          1          1          1          1          1          1          1          1          1          1          1          1          1          1          1          1          1          1          1          1          1          1          1          1          1          1          1          1          1          1          1          1          1          1          1          1          1          1          1          1          1          1          1          1          1          1          1          1          1          1          1          1          1          1          1          1          1          1          1          1          1          1          1          1          1          1          1          1          1          1          1          1          1          1          1          1          1          1          1          1          1          1          1          1          1          1          1          1          1          1          1          1          1          1          1          1          1          1          1          1          1          1          1          1          1          1          1          1          1          1          1          1          1          1          1          1          1          1          1          1          1          1          1          1          1          1          1          1          1          1          1          1          1          1          1          1          1          1          1          1          1          1          1          1          1          1          1          1          1          1          1          1          1          1          1          1          1          1          1          1          1          1          1          1          1          1          1          1          1          1          1          1          1          1          1          1          1          1          1          1          1          1          1          1          1          1          1          1          1          1          1          1          1          1          1          1          1          1          1          1          1          1          1          1          1          1          1          1          1          1          1          1          1          1          1          1          1          1          1          1          1          1          1          1          1          1          1          1          1          1          1          1          1          1          1          1          1          1          1          1          1          1          1          1          1          1          1          1          1          1          1          1          1          1          1          1          1          1          1          1          1          1          1          1          1          1          1          1          1          1          1          1          1          1          1          1          1          1          1          1          1          1          1          1          1          1          1          1          1          1          1          1          1          1          1          1          1          1          1          1          1          1          1          1          1          1          1          1          1          1          1          1          1          1          1          1          1          1          1          1          1          1          1          1          1          1          1          1          1          1          1          1          1          1          1          1          1          1          1          1          1          1          1          1          1          1          1          1          1          1          1          1          1          1          1          1          1          1          1          1          1          1          1          1          1          1          1          1          1          1          1          1          1          1          1          1          1          1          1          1          1          1          1          1          1          1          1          1          1          1          1          1          1          1          1          1          1          1          1          1          1          1          1          1          1          1          1          1          1          1          1          1          1          1          1          1          1          1          1          1          1          1          1          1          1          1          1          1          1          1          1          1          1          1          1          1          1          1          1          1          1          1          1          1          1          1          1          1          1          1          1          1          1          1          1          1          1          1          1          1          1          1          1          1          1          1          1          1          1          1          1          1          1          1          1          1          1          1          1          1          1          1          1          1          1          1          1          1          1          1          1          1          1          1          1          1          1          1          1          1          1          1          1          1          1          1          1          1          1          1          1          1          1          1          1          1          1          1          1          1          1          1          1          1          1          1          1          1          1          1          1          1          1          1          1          1          1          1          1          1          1          1          1          1          1          1          1          1          1          1          1          1          1          1          1          1          1          1          1          1          1          1          1          1          1          1          1          1          1          1          1          1          1          1          1          1          1          1          1          1          1          1          1          1          1          1          1          1          1          1          1          1          1          1          1          1          1          1 </DataArray>
</CellData>
<PointData>
<DataArray type="Float64"                                    Name="u"                                                      NumberOfComponents=" 3" format="ascii">
             -0.000801652              -0.000000000               0.999999989              -0.000845556              -0.000000000               0.999999989              -0.000864042               0.000000000               0.999999989              -0.000874329               0.000000000               0.999999989              -0.000882593               0.000000000               0.999999989              -0.000890959               0.000000000               0.999999989              -0.000900043               0.000000000               0.999999989              -0.000909916               0.000000000               0.999999989              -0.000920109              -0.000000000               0.999999989              -0.000930513               0.000000000               0.999999989              -0.000941031               0.000000000               0.999999989              -0.000951303               0.000000000               0.999999989              -0.000960943               0.000000000               0.999999989              -0.000969572               0.000000000               0.999999989              -0.000976754               0.000000000               0.999999989              -0.000982039               0.000000000               0.999999989              -0.000984706              -0.000000000               0.999999989              -0.000797095               0.000115067               0.999999989              -0.000837273               0.000091078               0.999999989              -0.000853416               0.000079901               0.999999989              -0.000862117               0.000074994               0.999999989              -0.000869248               0.000073162               0.999999989              -0.000876775               0.000072899               0.999999989              -0.000885116               0.000073051               0.999999989              -0.000894161               0.000073014               0.999999989              -0.000903598               0.000072307               0.999999989              -0.000913100               0.000070756               0.999999989              -0.000922393               0.000068163               0.999999989              -0.000931213               0.000064166               0.999999989              -0.000939143               0.000058410               0.999999989              -0.000945879               0.000050553               0.999999989              -0.000951011               0.000040040               0.999999989              -0.000954124               0.000026167               0.999999989              -0.000954560               0.000007673               0.999999989              -0.000783702               0.000229086               0.999999989              -0.000812965               0.000181891               0.999999989              -0.000822327               0.000160698               0.999999989              -0.000826746               0.000151731               0.999999989              -0.000831000               0.000148887               0.999999989              -0.000836272               0.000148749               0.999999989              -0.000842547               0.000149366               0.999999989              -0.000849409               0.000149426               0.999999989              -0.000856363               0.000148149               0.999999989              -0.000863027               0.000145154               0.999999989              -0.000868984               0.000139866               0.999999989              -0.000873870               0.000131862               0.999999989              -0.000877332               0.000120686               0.999999989              -0.000879043               0.000105621               0.999999989              -0.000878623               0.000085718               0.999999989              -0.000875699               0.000059818               0.999999989              -0.000870049               0.000026761               0.999999989              -0.000761860               0.000341092               0.999999989              -0.000773941               0.000272204               0.999999989              -0.000773460               0.000243114               0.999999989              -0.000772214               0.000231829               0.999999989              -0.000772730               0.000228926               0.999999989              -0.000774942               0.000229530               0.999999989              -0.000778251               0.000230947               0.999999989              -0.000781979               0.000231281               0.999999989              -0.000785334               0.000229383               0.999999989              -0.000787705               0.000224916               0.999999989              -0.000788617               0.000217141               0.999999989              -0.000787667               0.000205381               0.999999989              -0.000784473               0.000189202               0.999999989              -0.000778681               0.000167725               0.999999989              -0.000769991               0.000139951               0.999999989              -0.000758436               0.000105317               0.999999989              -0.000744428               0.000063223               0.999999989              -0.000731970               0.000450113               0.999999989              -0.000722199               0.000362032               0.999999989              -0.000710839               0.000327589               0.999999989              -0.000703778               0.000315854               0.999999989              -0.000700579               0.000313917               0.999999989              -0.000699824               0.000315787               0.999999989              -0.000699990               0.000318104               0.999999989              -0.000700008               0.000318657               0.999999989              -0.000698875               0.000316278               0.999999989              -0.000695803               0.000310390               0.999999989              -0.000690232               0.000300132               0.999999989              -0.000681742               0.000284947               0.999999989              -0.000669896               0.000264272               0.999999989              -0.000654601               0.000237592               0.999999989              -0.000636024               0.000204479               0.999999989              -0.000614773               0.000164970               0.999999989              -0.000591801               0.000119892               0.999999989              -0.000694761               0.000555106               0.999999989              -0.000660431               0.000451459               0.999999989              -0.000638841               0.000414253               0.999999989              -0.000627187               0.000403442               0.999999989              -0.000621379               0.000403131               0.999999989              -0.000618065               0.000406335               0.999999989              -0.000615150               0.000409584               0.999999989              -0.000611167               0.000410399               0.999999989              -0.000604811               0.000407409               0.999999989              -0.000595319               0.000399960               0.999999989              -0.000582051               0.000387314               0.999999989              -0.000564601               0.000368879               0.999999989              -0.000543042               0.000344508               0.999999989              -0.000517656               0.000314025               0.999999989              -0.000489095               0.000277953               0.999999989              -0.000458400               0.000237139               0.999999989              -0.000426731               0.000193385               0.999999989              -0.000650801               0.000655201               0.999999989              -0.000591508               0.000540611               0.999999989              -0.000562045               0.000502756               0.999999989              -0.000547915               0.000493594               0.999999989              -0.000540729               0.000495047               0.999999989              -0.000535499               0.000499367               0.999999989              -0.000529638               0.000503401               0.999999989              -0.000521202               0.000504409               0.999999989              -0.000508869               0.000500674               0.999999989              -0.000491873               0.000491589               0.999999989              -0.000469756               0.000476488               0.999999989              -0.000442549               0.000455324               0.999999989              -0.000410626               0.000428295               0.999999989              -0.000374785               0.000395840               0.999999989              -0.000336198               0.000358959               0.999999989              -0.000295967               0.000319269               0.999999989              -0.000255254               0.000278526               0.999999989              -0.000600970               0.000749407               0.999999989              -0.000518684               0.000629280               0.999999989              -0.000484649               0.000592360               0.999999989              -0.000470475               0.000584820               0.999999989              -0.000462954               0.000587718               0.999999989              -0.000456237               0.000592932               0.999999989              -0.000447205               0.000597511               0.999999989              -0.000433740               0.000598395               0.999999989              -0.000414412               0.000593641               0.999999989              -0.000388715               0.000582942               0.999999989              -0.000356577               0.000565819               0.999999989              -0.000318420               0.000542954               0.999999989              -0.000275088               0.000514845               0.999999989              -0.000228000               0.000482525               0.999999989              -0.000178557               0.000447398               0.999999989              -0.000128169               0.000411073               0.999999989              -0.000077995               0.000375203               0.999999989              -0.000546798               0.000836054               0.999999989              -0.000444326               0.000717474               0.999999989              -0.000410542               0.000681782               0.999999989              -0.000398052               0.000675253               0.999999989              -0.000390977               0.000679137               0.999999989              -0.000382696               0.000685281               0.999999989              -0.000370083               0.000689980               0.999999989              -0.000350555               0.000690395               0.999999989              -0.000322893               0.000684703               0.999999989              -0.000287139               0.000672696               0.999999989              -0.000243542               0.000654393               0.999999989              -0.000193027               0.000630874               0.999999989              -0.000137197               0.000603576               0.999999989              -0.000077922               0.000573775               0.999999989              -0.000017007               0.000543114               0.999999989               0.000044005               0.000512918               0.999999989               0.000104323               0.000483885               0.999999989              -0.000490540               0.000918379               0.999999989              -0.000381753               0.000817151               0.999999989              -0.000345765               0.000778538               0.999999989              -0.000332740               0.000767929               0.999999989              -0.000326397               0.000769408               0.999999989              -0.000319773               0.000775238               0.999999989              -0.000309682               0.000781737               0.999999989              -0.000293806               0.000786429               0.999999989              -0.000270880               0.000787425               0.999999989              -0.000240564               0.000783785               0.999999989              -0.000202533               0.000775376               0.999999989              -0.000156896               0.000762509               0.999999989              -0.000105001               0.000745998               0.999999989              -0.000048165               0.000727075               0.999999989               0.000012155               0.000706868               0.999999989               0.000074091               0.000686613               0.999999989               0.000136471               0.000667186               0.999999989              -0.000429116               0.000993729               0.999999989              -0.000321386               0.000914034               0.999999989              -0.000283368               0.000878341               0.999999989              -0.000269187               0.000865893               0.999999989              -0.000262769               0.000865842               0.999999989              -0.000257097               0.000871707               0.999999989              -0.000248989               0.000879842               0.999999989              -0.000236318               0.000887849               0.999999989              -0.000217887               0.000894133               0.999999989              -0.000192672               0.000897642               0.999999989              -0.000160337               0.000897773               0.999999989              -0.000120670               0.000894360               0.999999989              -0.000074010               0.000887644               0.999999989              -0.000021076               0.000878496               0.999999989               0.000036694               0.000867863               0.999999989               0.000097732               0.000856895               0.999999989               0.000160323               0.000846346               0.999999989              -0.000363776               0.001060200               0.999999989              -0.000263293               0.001005211               0.999999989              -0.000224997               0.000976417               0.999999989              -0.000209669               0.000965294               0.999999989              -0.000202506               0.000965281               0.999999989              -0.000197153               0.000971908               0.999999989              -0.000190574               0.000981905               0.999999989              -0.000180576               0.000993048               0.999999989              -0.000165883               0.001004047               0.999999989              -0.000145360               0.001013750               0.999999989              -0.000118691               0.001021376               0.999999989              -0.000085300               0.001026376               0.999999989              -0.000045105               0.001028646               0.999999989               0.000002002               0.001028490               0.999999989               0.000055538               0.001026585               0.999999989               0.000114268               0.001023942               0.999999989               0.000176710               0.001021568               0.999999989              -0.000295198               0.001116430               0.999999989              -0.000207658               0.001086695               0.999999989              -0.000171488               0.001067805               0.999999989              -0.000155740               0.001060700               0.999999989              -0.000147869               0.001062672               0.999999989              -0.000142581               0.001070937               0.999999989              -0.000137114               0.001083171               0.999999989              -0.000129222               0.001097608               0.999999989              -0.000117632               0.001113070               0.999999989              -0.000101632               0.001128367               0.999999989              -0.000080373               0.001142702               0.999999989              -0.000053533               0.001155530               0.999999989              -0.000020501               0.001166497               0.999999989               0.000019534               0.001175339               0.999999989               0.000067003               0.001182315               0.999999989               0.000121677               0.001188109               0.999999989               0.000182746               0.001193571               0.999999989              -0.000223859               0.001161467               0.999999989              -0.000154053               0.001154764               0.999999989              -0.000123016               0.001146979               0.999999989              -0.000108415               0.001145528               0.999999989              -0.000100707               0.001150819               0.999999989              -0.000095754               0.001161598               0.999999989              -0.000091014               0.001176528               0.999999989              -0.000084862               0.001194369               0.999999989              -0.000076148               0.001214094               0.999999989              -0.000064266               0.001234604               0.999999989              -0.000048417               0.001255123               0.999999989              -0.000028242               0.001275111               0.999999989              -0.000002887               0.001294070               0.999999989               0.000028856               0.001311686               0.999999989               0.000068110               0.001327756               0.999999989               0.000115512               0.001342449               0.999999989               0.000171667               0.001356158               0.999999989              -0.000150407               0.001194261               0.999999989              -0.000101934               0.001206020               0.999999989              -0.000079106               0.001208397               0.999999989              -0.000067604               0.001212844               0.999999989              -0.000061392               0.001221842               0.999999989              -0.000057445               0.001235381               0.999999989              -0.000053763               0.001253007               0.999999989              -0.000049402               0.001273824               0.999999989              -0.000043460               0.001297081               0.999999989              -0.000035484               0.001321980               0.999999989              -0.000024953               0.001347815               0.999999989              -0.000011596               0.001373986               0.999999989               0.000005540               0.001400083               0.999999989               0.000027740               0.001425632               0.999999989               0.000056070               0.001450153               0.999999989               0.000091879               0.001473384               0.999999989               0.000136439               0.001495098               0.999999989              -0.000075564               0.001214127               0.999999989              -0.000050741               0.001237839               0.999999989              -0.000038631               0.001247411               0.999999989              -0.000032244               0.001256131               0.999999989              -0.000028816               0.001268006               0.999999989              -0.000026584               0.001283877               0.999999989              -0.000024531               0.001303511               0.999999989              -0.000022232               0.001326378               0.999999989              -0.000019155               0.001352031               0.999999989              -0.000015065               0.001379820               0.999999989              -0.000009875               0.001409164               0.999999989              -0.000003194               0.001439639               0.999999989               0.000005371               0.001470886               0.999999989               0.000016720               0.001502282               0.999999989               0.000031652               0.001533167               0.999999989               0.000051169               0.001562902               0.999999989               0.000076468               0.001590778               0.999999989               0.000000000               0.001220850               0.999999989              -0.000000000               0.001248671               0.999999989              -0.000000000               0.001260810               0.999999989               0.000000000               0.001271175               0.999999989              -0.000000000               0.001284157               0.999999989              -0.000000000               0.001300773               0.999999989               0.000000000               0.001321099               0.999999989              -0.000000000               0.001344728               0.999999989               0.000000000               0.001371147               0.999999989              -0.000000000               0.001399869               0.999999989               0.000000000               0.001430475               0.999999989              -0.000000000               0.001462594               0.999999989               0.000000000               0.001495868               0.999999989               0.000000000               0.001529645               0.999999989               0.000000000               0.001563212               0.999999989              -0.000000000               0.001595712               0.999999989              -0.000000000               0.001626032               0.999999989              -0.000801652              -0.000000000               0.999999989              -0.000845556              -0.000000000               0.999999989              -0.000864042               0.000000000               0.999999989              -0.000874329               0.000000000               0.999999989              -0.000882593               0.000000000               0.999999989              -0.000890959               0.000000000               0.999999989              -0.000900043               0.000000000               0.999999989              -0.000909916               0.000000000               0.999999989              -0.000920109              -0.000000000               0.999999989              -0.000930513               0.000000000               0.999999989              -0.000941031               0.000000000               0.999999989              -0.000951303               0.000000000               0.999999989              -0.000960943               0.000000000               0.999999989              -0.000969572               0.000000000               0.999999989              -0.000976754               0.000000000               0.999999989              -0.000982039               0.000000000               0.999999989              -0.000984706              -0.000000000               0.999999989              -0.000797095              -0.000115067               0.999999989              -0.000837273              -0.000091078               0.999999989              -0.000853416              -0.000079901               0.999999989              -0.000862117              -0.000074994               0.999999989              -0.000869248              -0.000073162               0.999999989              -0.000876775              -0.000072899               0.999999989              -0.000885116              -0.000073051               0.999999989              -0.000894161              -0.000073014               0.999999989              -0.000903598              -0.000072307               0.999999989              -0.000913100              -0.000070756               0.999999989              -0.000922393              -0.000068163               0.999999989              -0.000931213              -0.000064166               0.999999989              -0.000939143              -0.000058410               0.999999989              -0.000945879              -0.000050553               0.999999989              -0.000951011              -0.000040040               0.999999989              -0.000954124              -0.000026167               0.999999989              -0.000954560              -0.000007673               0.999999989              -0.000783702              -0.000229086               0.999999989              -0.000812965              -0.000181891               0.999999989              -0.000822327              -0.000160698               0.999999989              -0.000826746              -0.000151731               0.999999989              -0.000831000              -0.000148887               0.999999989              -0.000836272              -0.000148749               0.999999989              -0.000842547              -0.000149366               0.999999989              -0.000849409              -0.000149426               0.999999989              -0.000856363              -0.000148149               0.999999989              -0.000863027              -0.000145154               0.999999989              -0.000868984              -0.000139866               0.999999989              -0.000873870              -0.000131862               0.999999989              -0.000877332              -0.000120686               0.999999989              -0.000879043              -0.000105621               0.999999989              -0.000878623              -0.000085718               0.999999989              -0.000875699              -0.000059818               0.999999989              -0.000870049              -0.000026761               0.999999989              -0.000761860              -0.000341092               0.999999989              -0.000773941              -0.000272204               0.999999989              -0.000773460              -0.000243114               0.999999989              -0.000772214              -0.000231829               0.999999989              -0.000772730              -0.000228926               0.999999989              -0.000774942              -0.000229530               0.999999989              -0.000778251              -0.000230947               0.999999989              -0.000781979              -0.000231281               0.999999989              -0.000785334              -0.000229383               0.999999989              -0.000787705              -0.000224916               0.999999989              -0.000788617              -0.000217141               0.999999989              -0.000787667              -0.000205381               0.999999989              -0.000784473              -0.000189202               0.999999989              -0.000778681              -0.000167725               0.999999989              -0.000769991              -0.000139951               0.999999989              -0.000758436              -0.000105317               0.999999989              -0.000744428              -0.000063223               0.999999989              -0.000731970              -0.000450113               0.999999989              -0.000722199              -0.000362032               0.999999989              -0.000710839              -0.000327589               0.999999989              -0.000703778              -0.000315854               0.999999989              -0.000700579              -0.000313917               0.999999989              -0.000699824              -0.000315787               0.999999989              -0.000699990              -0.000318104               0.999999989              -0.000700008              -0.000318657               0.999999989              -0.000698875              -0.000316278               0.999999989              -0.000695803              -0.000310390               0.999999989              -0.000690232              -0.000300132               0.999999989              -0.000681742              -0.000284947               0.999999989              -0.000669896              -0.000264272               0.999999989              -0.000654601              -0.000237592               0.999999989              -0.000636024              -0.000204479               0.999999989              -0.000614773              -0.000164970               0.999999989              -0.000591801              -0.000119892               0.999999989              -0.000694761              -0.000555106               0.999999989              -0.000660431              -0.000451459               0.999999989              -0.000638841              -0.000414253               0.999999989              -0.000627187              -0.000403442               0.999999989              -0.000621379              -0.000403131               0.999999989              -0.000618065              -0.000406335               0.999999989              -0.000615150              -0.000409584               0.999999989              -0.000611167              -0.000410399               0.999999989              -0.000604811              -0.000407409               0.999999989              -0.000595319              -0.000399960               0.999999989              -0.000582051              -0.000387314               0.999999989              -0.000564601              -0.000368879               0.999999989              -0.000543042              -0.000344508               0.999999989              -0.000517656              -0.000314025               0.999999989              -0.000489095              -0.000277953               0.999999989              -0.000458400              -0.000237139               0.999999989              -0.000426731              -0.000193385               0.999999989              -0.000650801              -0.000655201               0.999999989              -0.000591508              -0.000540611               0.999999989              -0.000562045              -0.000502756               0.999999989              -0.000547915              -0.000493594               0.999999989              -0.000540729              -0.000495047               0.999999989              -0.000535499              -0.000499367               0.999999989              -0.000529638              -0.000503401               0.999999989              -0.000521202              -0.000504409               0.999999989              -0.000508869              -0.000500674               0.999999989              -0.000491873              -0.000491589               0.999999989              -0.000469756              -0.000476488               0.999999989              -0.000442549              -0.000455324               0.999999989              -0.000410626              -0.000428295               0.999999989              -0.000374785              -0.000395840               0.999999989              -0.000336198              -0.000358959               0.999999989              -0.000295967              -0.000319269               0.999999989              -0.000255254              -0.000278526               0.999999989              -0.000600970              -0.000749407               0.999999989              -0.000518684              -0.000629280               0.999999989              -0.000484649              -0.000592360               0.999999989              -0.000470475              -0.000584820               0.999999989              -0.000462954              -0.000587718               0.999999989              -0.000456237              -0.000592932               0.999999989              -0.000447205              -0.000597511               0.999999989              -0.000433740              -0.000598395               0.999999989              -0.000414412              -0.000593641               0.999999989              -0.000388715              -0.000582942               0.999999989              -0.000356577              -0.000565819               0.999999989              -0.000318420              -0.000542954               0.999999989              -0.000275088              -0.000514845               0.999999989              -0.000228000              -0.000482525               0.999999989              -0.000178557              -0.000447398               0.999999989              -0.000128169              -0.000411073               0.999999989              -0.000077995              -0.000375203               0.999999989              -0.000546798              -0.000836054               0.999999989              -0.000444326              -0.000717474               0.999999989              -0.000410542              -0.000681782               0.999999989              -0.000398052              -0.000675253               0.999999989              -0.000390977              -0.000679137               0.999999989              -0.000382696              -0.000685281               0.999999989              -0.000370083              -0.000689980               0.999999989              -0.000350555              -0.000690395               0.999999989              -0.000322893              -0.000684703               0.999999989              -0.000287139              -0.000672696               0.999999989              -0.000243542              -0.000654393               0.999999989              -0.000193027              -0.000630874               0.999999989              -0.000137197              -0.000603576               0.999999989              -0.000077922              -0.000573775               0.999999989              -0.000017007              -0.000543114               0.999999989               0.000044005              -0.000512918               0.999999989               0.000104323              -0.000483885               0.999999989              -0.000490540              -0.000918379               0.999999989              -0.000381753              -0.000817151               0.999999989              -0.000345765              -0.000778538               0.999999989              -0.000332740              -0.000767929               0.999999989              -0.000326397              -0.000769408               0.999999989              -0.000319773              -0.000775238               0.999999989              -0.000309682              -0.000781737               0.999999989              -0.000293806              -0.000786429               0.999999989              -0.000270880              -0.000787425               0.999999989              -0.000240564              -0.000783785               0.999999989              -0.000202533              -0.000775376               0.999999989              -0.000156896              -0.000762509               0.999999989              -0.000105001              -0.000745998               0.999999989              -0.000048165              -0.000727075               0.999999989               0.000012155              -0.000706868               0.999999989               0.000074091              -0.000686613               0.999999989               0.000136471              -0.000667186               0.999999989              -0.000429116              -0.000993729               0.999999989              -0.000321386              -0.000914034               0.999999989              -0.000283368              -0.000878341               0.999999989              -0.000269187              -0.000865893               0.999999989              -0.000262769              -0.000865842               0.999999989              -0.000257097              -0.000871707               0.999999989              -0.000248989              -0.000879842               0.999999989              -0.000236318              -0.000887849               0.999999989              -0.000217887              -0.000894133               0.999999989              -0.000192672              -0.000897642               0.999999989              -0.000160337              -0.000897773               0.999999989              -0.000120670              -0.000894360               0.999999989              -0.000074010              -0.000887644               0.999999989              -0.000021076              -0.000878496               0.999999989               0.000036694              -0.000867863               0.999999989               0.000097732              -0.000856895               0.999999989               0.000160323              -0.000846346               0.999999989              -0.000363776              -0.001060200               0.999999989              -0.000263293              -0.001005211               0.999999989              -0.000224997              -0.000976417               0.999999989              -0.000209669              -0.000965294               0.999999989              -0.000202506              -0.000965281               0.999999989              -0.000197153              -0.000971908               0.999999989              -0.000190574              -0.000981905               0.999999989              -0.000180576              -0.000993048               0.999999989              -0.000165883              -0.001004047               0.999999989              -0.000145360              -0.001013750               0.999999989              -0.000118691              -0.001021376               0.999999989              -0.000085300              -0.001026376               0.999999989              -0.000045105              -0.001028646               0.999999989               0.000002002              -0.001028490               0.999999989               0.000055538              -0.001026585               0.999999989               0.000114268              -0.001023942               0.999999989               0.000176710              -0.001021568               0.999999989              -0.000295198              -0.001116430               0.999999989              -0.000207658              -0.001086695               0.999999989              -0.000171488              -0.001067805               0.999999989              -0.000155740              -0.001060700               0.999999989              -0.000147869              -0.001062672               0.999999989              -0.000142581              -0.001070937               0.999999989              -0.000137114              -0.001083171               0.999999989              -0.000129222              -0.001097608               0.999999989              -0.000117632              -0.001113070               0.999999989              -0.000101632              -0.001128367               0.999999989              -0.000080373              -0.001142702               0.999999989              -0.000053533              -0.001155530               0.999999989              -0.000020501              -0.001166497               0.999999989               0.000019534              -0.001175339               0.999999989               0.000067003              -0.001182315               0.999999989               0.000121677              -0.001188109               0.999999989               0.000182746              -0.001193571               0.999999989              -0.000223859              -0.001161467               0.999999989              -0.000154053              -0.001154764               0.999999989              -0.000123016              -0.001146979               0.999999989              -0.000108415              -0.001145528               0.999999989              -0.000100707              -0.001150819               0.999999989              -0.000095754              -0.001161598               0.999999989              -0.000091014              -0.001176528               0.999999989              -0.000084862              -0.001194369               0.999999989              -0.000076148              -0.001214094               0.999999989              -0.000064266              -0.001234604               0.999999989              -0.000048417              -0.001255123               0.999999989              -0.000028242              -0.001275111               0.999999989              -0.000002887              -0.001294070               0.999999989               0.000028856              -0.001311686               0.999999989               0.000068110              -0.001327756               0.999999989               0.000115512              -0.001342449               0.999999989               0.000171667              -0.001356158               0.999999989              -0.000150407              -0.001194261               0.999999989              -0.000101934              -0.001206020               0.999999989              -0.000079106              -0.001208397               0.999999989              -0.000067604              -0.001212844               0.999999989              -0.000061392              -0.001221842               0.999999989              -0.000057445              -0.001235381               0.999999989              -0.000053763              -0.001253007               0.999999989              -0.000049402              -0.001273824               0.999999989              -0.000043460              -0.001297081               0.999999989              -0.000035484              -0.001321980               0.999999989              -0.000024953              -0.001347815               0.999999989              -0.000011596              -0.001373986               0.999999989               0.000005540              -0.001400083               0.999999989               0.000027740              -0.001425632               0.999999989               0.000056070              -0.001450153               0.999999989               0.000091879              -0.001473384               0.999999989               0.000136439              -0.001495098               0.999999989              -0.000075564              -0.001214127               0.999999989              -0.000050741              -0.001237839               0.999999989              -0.000038631              -0.001247411               0.999999989              -0.000032244              -0.001256131               0.999999989              -0.000028816              -0.001268006               0.999999989              -0.000026584              -0.001283877               0.999999989              -0.000024531              -0.001303511               0.999999989              -0.000022232              -0.001326378               0.999999989              -0.000019155              -0.001352031               0.999999989              -0.000015065              -0.001379820               0.999999989              -0.000009875              -0.001409164               0.999999989              -0.000003194              -0.001439639               0.999999989               0.000005371              -0.001470886               0.999999989               0.000016720              -0.001502282               0.999999989               0.000031652              -0.001533167               0.999999989               0.000051169              -0.001562902               0.999999989               0.000076468              -0.001590778               0.999999989              -0.000000000              -0.001220850               0.999999989              -0.000000000              -0.001248671               0.999999989               0.000000000              -0.001260810               0.999999989               0.000000000              -0.001271175               0.999999989               0.000000000              -0.001284157               0.999999989               0.000000000              -0.001300773               0.999999989               0.000000000              -0.001321099               0.999999989               0.000000000              -0.001344728               0.999999989              -0.000000000              -0.001371147               0.999999989              -0.000000000              -0.001399869               0.999999989              -0.000000000              -0.001430475               0.999999989              -0.000000000              -0.001462594               0.999999989               0.000000000              -0.001495868               0.999999989              -0.000000000              -0.001529645               0.999999989              -0.000000000              -0.001563212               0.999999989              -0.000000000              -0.001595712               0.999999989               0.000000000              -0.001626032               0.999999989               0.000801652               0.000000000               0.999999989               0.000845556              -0.000000000               0.999999989               0.000864042              -0.000000000               0.999999989               0.000874329              -0.000000000               0.999999989               0.000882593               0.000000000               0.999999989               0.000890959               0.000000000               0.999999989               0.000900043              -0.000000000               0.999999989               0.000909916              -0.000000000               0.999999989               0.000920109               0.000000000               0.999999989               0.000930513              -0.000000000               0.999999989               0.000941031               0.000000000               0.999999989               0.000951303               0.000000000               0.999999989               0.000960943               0.000000000               0.999999989               0.000969572              -0.000000000               0.999999989               0.000976754              -0.000000000               0.999999989               0.000982039              -0.000000000               0.999999989               0.000984706               0.000000000               0.999999989               0.000797095              -0.000115067               0.999999989               0.000837273              -0.000091078               0.999999989               0.000853416              -0.000079901               0.999999989               0.000862117              -0.000074994               0.999999989               0.000869248              -0.000073162               0.999999989               0.000876775              -0.000072899               0.999999989               0.000885116              -0.000073051               0.999999989               0.000894161              -0.000073014               0.999999989               0.000903598              -0.000072307               0.999999989               0.000913100              -0.000070756               0.999999989               0.000922393              -0.000068163               0.999999989               0.000931213              -0.000064166               0.999999989               0.000939143              -0.000058410               0.999999989               0.000945879              -0.000050553               0.999999989               0.000951011              -0.000040040               0.999999989               0.000954124              -0.000026167               0.999999989               0.000954560              -0.000007673               0.999999989               0.000783702              -0.000229086               0.999999989               0.000812965              -0.000181891               0.999999989               0.000822327              -0.000160698               0.999999989               0.000826746              -0.000151731               0.999999989               0.000831000              -0.000148887               0.999999989               0.000836272              -0.000148749               0.999999989               0.000842547              -0.000149366               0.999999989               0.000849409              -0.000149426               0.999999989               0.000856363              -0.000148149               0.999999989               0.000863027              -0.000145154               0.999999989               0.000868984              -0.000139866               0.999999989               0.000873870              -0.000131862               0.999999989               0.000877332              -0.000120686               0.999999989               0.000879043              -0.000105621               0.999999989               0.000878623              -0.000085718               0.999999989               0.000875699              -0.000059818               0.999999989               0.000870049              -0.000026761               0.999999989               0.000761860              -0.000341092               0.999999989               0.000773941              -0.000272204               0.999999989               0.000773460              -0.000243114               0.999999989               0.000772214              -0.000231829               0.999999989               0.000772730              -0.000228926               0.999999989               0.000774942              -0.000229530               0.999999989               0.000778251              -0.000230947               0.999999989               0.000781979              -0.000231281               0.999999989               0.000785334              -0.000229383               0.999999989               0.000787705              -0.000224916               0.999999989               0.000788617              -0.000217141               0.999999989               0.000787667              -0.000205381               0.999999989               0.000784473              -0.000189202               0.999999989               0.000778681              -0.000167725               0.999999989               0.000769991              -0.000139951               0.999999989               0.000758436              -0.000105317               0.999999989               0.000744428              -0.000063223               0.999999989               0.000731970              -0.000450113               0.999999989               0.000722199              -0.000362032               0.999999989               0.000710839              -0.000327589               0.999999989               0.000703778              -0.000315854               0.999999989               0.000700579              -0.000313917               0.999999989               0.000699824              -0.000315787               0.999999989               0.000699990              -0.000318104               0.999999989               0.000700008              -0.000318657               0.999999989               0.000698875              -0.000316278               0.999999989               0.000695803              -0.000310390               0.999999989               0.000690232              -0.000300132               0.999999989               0.000681742              -0.000284947               0.999999989               0.000669896              -0.000264272               0.999999989               0.000654601              -0.000237592               0.999999989               0.000636024              -0.000204479               0.999999989               0.000614773              -0.000164970               0.999999989               0.000591801              -0.000119892               0.999999989               0.000694761              -0.000555106               0.999999989               0.000660431              -0.000451459               0.999999989               0.000638841              -0.000414253               0.999999989               0.000627187              -0.000403442               0.999999989               0.000621379              -0.000403131               0.999999989               0.000618065              -0.000406335               0.999999989               0.000615150              -0.000409584               0.999999989               0.000611167              -0.000410399               0.999999989               0.000604811              -0.000407409               0.999999989               0.000595319              -0.000399960               0.999999989               0.000582051              -0.000387314               0.999999989               0.000564601              -0.000368879               0.999999989               0.000543042              -0.000344508               0.999999989               0.000517656              -0.000314025               0.999999989               0.000489095              -0.000277953               0.999999989               0.000458400              -0.000237139               0.999999989               0.000426731              -0.000193385               0.999999989               0.000650801              -0.000655201               0.999999989               0.000591508              -0.000540611               0.999999989               0.000562045              -0.000502756               0.999999989               0.000547915              -0.000493594               0.999999989               0.000540729              -0.000495047               0.999999989               0.000535499              -0.000499367               0.999999989               0.000529638              -0.000503401               0.999999989               0.000521202              -0.000504409               0.999999989               0.000508869              -0.000500674               0.999999989               0.000491873              -0.000491589               0.999999989               0.000469756              -0.000476488               0.999999989               0.000442549              -0.000455324               0.999999989               0.000410626              -0.000428295               0.999999989               0.000374785              -0.000395840               0.999999989               0.000336198              -0.000358959               0.999999989               0.000295967              -0.000319269               0.999999989               0.000255254              -0.000278526               0.999999989               0.000600970              -0.000749407               0.999999989               0.000518684              -0.000629280               0.999999989               0.000484649              -0.000592360               0.999999989               0.000470475              -0.000584820               0.999999989               0.000462954              -0.000587718               0.999999989               0.000456237              -0.000592932               0.999999989               0.000447205              -0.000597511               0.999999989               0.000433740              -0.000598395               0.999999989               0.000414412              -0.000593641               0.999999989               0.000388715              -0.000582942               0.999999989               0.000356577              -0.000565819               0.999999989               0.000318420              -0.000542954               0.999999989               0.000275088              -0.000514845               0.999999989               0.000228000              -0.000482525               0.999999989               0.000178557              -0.000447398               0.999999989               0.000128169              -0.000411073               0.999999989               0.000077995              -0.000375203               0.999999989               0.000546798              -0.000836054               0.999999989               0.000444326              -0.000717474               0.999999989               0.000410542              -0.000681782               0.999999989               0.000398052              -0.000675253               0.999999989               0.000390977              -0.000679137               0.999999989               0.000382696              -0.000685281               0.999999989               0.000370083              -0.000689980               0.999999989               0.000350555              -0.000690395               0.999999989               0.000322893              -0.000684703               0.999999989               0.000287139              -0.000672696               0.999999989               0.000243542              -0.000654393               0.999999989               0.000193027              -0.000630874               0.999999989               0.000137197              -0.000603576               0.999999989               0.000077922              -0.000573775               0.999999989               0.000017007              -0.000543114               0.999999989              -0.000044005              -0.000512918               0.999999989              -0.000104323              -0.000483885               0.999999989               0.000490540              -0.000918379               0.999999989               0.000381753              -0.000817151               0.999999989               0.000345765              -0.000778538               0.999999989               0.000332740              -0.000767929               0.999999989               0.000326397              -0.000769408               0.999999989               0.000319773              -0.000775238               0.999999989               0.000309682              -0.000781737               0.999999989               0.000293806              -0.000786429               0.999999989               0.000270880              -0.000787425               0.999999989               0.000240564              -0.000783785               0.999999989               0.000202533              -0.000775376               0.999999989               0.000156896              -0.000762509               0.999999989               0.000105001              -0.000745998               0.999999989               0.000048165              -0.000727075               0.999999989              -0.000012155              -0.000706868               0.999999989              -0.000074091              -0.000686613               0.999999989              -0.000136471              -0.000667186               0.999999989               0.000429116              -0.000993729               0.999999989               0.000321386              -0.000914034               0.999999989               0.000283368              -0.000878341               0.999999989               0.000269187              -0.000865893               0.999999989               0.000262769              -0.000865842               0.999999989               0.000257097              -0.000871707               0.999999989               0.000248989              -0.000879842               0.999999989               0.000236318              -0.000887849               0.999999989               0.000217887              -0.000894133               0.999999989               0.000192672              -0.000897642               0.999999989               0.000160337              -0.000897773               0.999999989               0.000120670              -0.000894360               0.999999989               0.000074010              -0.000887644               0.999999989               0.000021076              -0.000878496               0.999999989              -0.000036694              -0.000867863               0.999999989              -0.000097732              -0.000856895               0.999999989              -0.000160323              -0.000846346               0.999999989               0.000363776              -0.001060200               0.999999989               0.000263293              -0.001005211               0.999999989               0.000224997              -0.000976417               0.999999989               0.000209669              -0.000965294               0.999999989               0.000202506              -0.000965281               0.999999989               0.000197153              -0.000971908               0.999999989               0.000190574              -0.000981905               0.999999989               0.000180576              -0.000993048               0.999999989               0.000165883              -0.001004047               0.999999989               0.000145360              -0.001013750               0.999999989               0.000118691              -0.001021376               0.999999989               0.000085300              -0.001026376               0.999999989               0.000045105              -0.001028646               0.999999989              -0.000002002              -0.001028490               0.999999989              -0.000055538              -0.001026585               0.999999989              -0.000114268              -0.001023942               0.999999989              -0.000176710              -0.001021568               0.999999989               0.000295198              -0.001116430               0.999999989               0.000207658              -0.001086695               0.999999989               0.000171488              -0.001067805               0.999999989               0.000155740              -0.001060700               0.999999989               0.000147869              -0.001062672               0.999999989               0.000142581              -0.001070937               0.999999989               0.000137114              -0.001083171               0.999999989               0.000129222              -0.001097608               0.999999989               0.000117632              -0.001113070               0.999999989               0.000101632              -0.001128367               0.999999989               0.000080373              -0.001142702               0.999999989               0.000053533              -0.001155530               0.999999989               0.000020501              -0.001166497               0.999999989              -0.000019534              -0.001175339               0.999999989              -0.000067003              -0.001182315               0.999999989              -0.000121677              -0.001188109               0.999999989              -0.000182746              -0.001193571               0.999999989               0.000223859              -0.001161467               0.999999989               0.000154053              -0.001154764               0.999999989               0.000123016              -0.001146979               0.999999989               0.000108415              -0.001145528               0.999999989               0.000100707              -0.001150819               0.999999989               0.000095754              -0.001161598               0.999999989               0.000091014              -0.001176528               0.999999989               0.000084862              -0.001194369               0.999999989               0.000076148              -0.001214094               0.999999989               0.000064266              -0.001234604               0.999999989               0.000048417              -0.001255123               0.999999989               0.000028242              -0.001275111               0.999999989               0.000002887              -0.001294070               0.999999989              -0.000028856              -0.001311686               0.999999989              -0.000068110              -0.001327756               0.999999989              -0.000115512              -0.001342449               0.999999989              -0.000171667              -0.001356158               0.999999989               0.000150407              -0.001194261               0.999999989               0.000101934              -0.001206020               0.999999989               0.000079106              -0.001208397               0.999999989               0.000067604              -0.001212844               0.999999989               0.000061392              -0.001221842               0.999999989               0.000057445              -0.001235381               0.999999989               0.000053763              -0.001253007               0.999999989               0.000049402              -0.001273824               0.999999989               0.000043460              -0.001297081               0.999999989               0.000035484              -0.001321980               0.999999989               0.000024953              -0.001347815               0.999999989               0.000011596              -0.001373986               0.999999989              -0.000005540              -0.001400083               0.999999989              -0.000027740              -0.001425632               0.999999989              -0.000056070              -0.001450153               0.999999989              -0.000091879              -0.001473384               0.999999989              -0.000136439              -0.001495098               0.999999989               0.000075564              -0.001214127               0.999999989               0.000050741              -0.001237839               0.999999989               0.000038631              -0.001247411               0.999999989               0.000032244              -0.001256131               0.999999989               0.000028816              -0.001268006               0.999999989               0.000026584              -0.001283877               0.999999989               0.000024531              -0.001303511               0.999999989               0.000022232              -0.001326378               0.999999989               0.000019155              -0.001352031               0.999999989               0.000015065              -0.001379820               0.999999989               0.000009875              -0.001409164               0.999999989               0.000003194              -0.001439639               0.999999989              -0.000005371              -0.001470886               0.999999989              -0.000016720              -0.001502282               0.999999989              -0.000031652              -0.001533167               0.999999989              -0.000051169              -0.001562902               0.999999989              -0.000076468              -0.001590778               0.999999989              -0.000000000              -0.001220850               0.999999989              -0.000000000              -0.001248671               0.999999989               0.000000000              -0.001260810               0.999999989               0.000000000              -0.001271175               0.999999989               0.000000000              -0.001284157               0.999999989               0.000000000              -0.001300773               0.999999989               0.000000000              -0.001321099               0.999999989               0.000000000              -0.001344728               0.999999989              -0.000000000              -0.001371147               0.999999989              -0.000000000              -0.001399869               0.999999989              -0.000000000              -0.001430475               0.999999989              -0.000000000              -0.001462594               0.999999989               0.000000000              -0.001495868               0.999999989              -0.000000000              -0.001529645               0.999999989              -0.000000000              -0.001563212               0.999999989              -0.000000000              -0.001595712               0.999999989               0.000000000              -0.001626032               0.999999989               0.000801652               0.000000000               0.999999989               0.000845556              -0.000000000               0.999999989               0.000864042              -0.000000000               0.999999989               0.000874329              -0.000000000               0.999999989               0.000882593               0.000000000               0.999999989               0.000890959               0.000000000               0.999999989               0.000900043              -0.000000000               0.999999989               0.000909916              -0.000000000               0.999999989               0.000920109               0.000000000               0.999999989               0.000930513              -0.000000000               0.999999989               0.000941031               0.000000000               0.999999989               0.000951303               0.000000000               0.999999989               0.000960943               0.000000000               0.999999989               0.000969572              -0.000000000               0.999999989               0.000976754              -0.000000000               0.999999989               0.000982039              -0.000000000               0.999999989               0.000984706               0.000000000               0.999999989               0.000797095               0.000115067               0.999999989               0.000837273               0.000091078               0.999999989               0.000853416               0.000079901               0.999999989               0.000862117               0.000074994               0.999999989               0.000869248               0.000073162               0.999999989               0.000876775               0.000072899               0.999999989               0.000885116               0.000073051               0.999999989               0.000894161               0.000073014               0.999999989               0.000903598               0.000072307               0.999999989               0.000913100               0.000070756               0.999999989               0.000922393               0.000068163               0.999999989               0.000931213               0.000064166               0.999999989               0.000939143               0.000058410               0.999999989               0.000945879               0.000050553               0.999999989               0.000951011               0.000040040               0.999999989               0.000954124               0.000026167               0.999999989               0.000954560               0.000007673               0.999999989               0.000783702               0.000229086               0.999999989               0.000812965               0.000181891               0.999999989               0.000822327               0.000160698               0.999999989               0.000826746               0.000151731               0.999999989               0.000831000               0.000148887               0.999999989               0.000836272               0.000148749               0.999999989               0.000842547               0.000149366               0.999999989               0.000849409               0.000149426               0.999999989               0.000856363               0.000148149               0.999999989               0.000863027               0.000145154               0.999999989               0.000868984               0.000139866               0.999999989               0.000873870               0.000131862               0.999999989               0.000877332               0.000120686               0.999999989               0.000879043               0.000105621               0.999999989               0.000878623               0.000085718               0.999999989               0.000875699               0.000059818               0.999999989               0.000870049               0.000026761               0.999999989               0.000761860               0.000341092               0.999999989               0.000773941               0.000272204               0.999999989               0.000773460               0.000243114               0.999999989               0.000772214               0.000231829               0.999999989               0.000772730               0.000228926               0.999999989               0.000774942               0.000229530               0.999999989               0.000778251               0.000230947               0.999999989               0.000781979               0.000231281               0.999999989               0.000785334               0.000229383               0.999999989               0.000787705               0.000224916               0.999999989               0.000788617               0.000217141               0.999999989               0.000787667               0.000205381               0.999999989               0.000784473               0.000189202               0.999999989               0.000778681               0.000167725               0.999999989               0.000769991               0.000139951               0.999999989               0.000758436               0.000105317               0.999999989               0.000744428               0.000063223               0.999999989               0.000731970               0.000450113               0.999999989               0.000722199               0.000362032               0.999999989               0.000710839               0.000327589               0.999999989               0.000703778               0.000315854               0.999999989               0.000700579               0.000313917               0.999999989               0.000699824               0.000315787               0.999999989               0.000699990               0.000318104               0.999999989               0.000700008               0.000318657               0.999999989               0.000698875               0.000316278               0.999999989               0.000695803               0.000310390               0.999999989               0.000690232               0.000300132               0.999999989               0.000681742               0.000284947               0.999999989               0.000669896               0.000264272               0.999999989               0.000654601               0.000237592               0.999999989               0.000636024               0.000204479               0.999999989               0.000614773               0.000164970               0.999999989               0.000591801               0.000119892               0.999999989               0.000694761               0.000555106               0.999999989               0.000660431               0.000451459               0.999999989               0.000638841               0.000414253               0.999999989               0.000627187               0.000403442               0.999999989               0.000621379               0.000403131               0.999999989               0.000618065               0.000406335               0.999999989               0.000615150               0.000409584               0.999999989               0.000611167               0.000410399               0.999999989               0.000604811               0.000407409               0.999999989               0.000595319               0.000399960               0.999999989               0.000582051               0.000387314               0.999999989               0.000564601               0.000368879               0.999999989               0.000543042               0.000344508               0.999999989               0.000517656               0.000314025               0.999999989               0.000489095               0.000277953               0.999999989               0.000458400               0.000237139               0.999999989               0.000426731               0.000193385               0.999999989               0.000650801               0.000655201               0.999999989               0.000591508               0.000540611               0.999999989               0.000562045               0.000502756               0.999999989               0.000547915               0.000493594               0.999999989               0.000540729               0.000495047               0.999999989               0.000535499               0.000499367               0.999999989               0.000529638               0.000503401               0.999999989               0.000521202               0.000504409               0.999999989               0.000508869               0.000500674               0.999999989               0.000491873               0.000491589               0.999999989               0.000469756               0.000476488               0.999999989               0.000442549               0.000455324               0.999999989               0.000410626               0.000428295               0.999999989               0.000374785               0.000395840               0.999999989               0.000336198               0.000358959               0.999999989               0.000295967               0.000319269               0.999999989               0.000255254               0.000278526               0.999999989               0.000600970               0.000749407               0.999999989               0.000518684               0.000629280               0.999999989               0.000484649               0.000592360               0.999999989               0.000470475               0.000584820               0.999999989               0.000462954               0.000587718               0.999999989               0.000456237               0.000592932               0.999999989               0.000447205               0.000597511               0.999999989               0.000433740               0.000598395               0.999999989               0.000414412               0.000593641               0.999999989               0.000388715               0.000582942               0.999999989               0.000356577               0.000565819               0.999999989               0.000318420               0.000542954               0.999999989               0.000275088               0.000514845               0.999999989               0.000228000               0.000482525               0.999999989               0.000178557               0.000447398               0.999999989               0.000128169               0.000411073               0.999999989               0.000077995               0.000375203               0.999999989               0.000546798               0.000836054               0.999999989               0.000444326               0.000717474               0.999999989               0.000410542               0.000681782               0.999999989               0.000398052               0.000675253               0.999999989               0.000390977               0.000679137               0.999999989               0.000382696               0.000685281               0.999999989               0.000370083               0.000689980               0.999999989               0.000350555               0.000690395               0.999999989               0.000322893               0.000684703               0.999999989               0.000287139               0.000672696               0.999999989               0.000243542               0.000654393               0.999999989               0.000193027               0.000630874               0.999999989               0.000137197               0.000603576               0.999999989               0.000077922               0.000573775               0.999999989               0.000017007               0.000543114               0.999999989              -0.000044005               0.000512918               0.999999989              -0.000104323               0.000483885               0.999999989               0.000490540               0.000918379               0.999999989               0.000381753               0.000817151               0.999999989               0.000345765               0.000778538               0.999999989               0.000332740               0.000767929               0.999999989               0.000326397               0.000769408               0.999999989               0.000319773               0.000775238               0.999999989               0.000309682               0.000781737               0.999999989               0.000293806               0.000786429               0.999999989               0.000270880               0.000787425               0.999999989               0.000240564               0.000783785               0.999999989               0.000202533               0.000775376               0.999999989               0.000156896               0.000762509               0.999999989               0.000105001               0.000745998               0.999999989               0.000048165               0.000727075               0.999999989              -0.000012155               0.000706868               0.999999989              -0.000074091               0.000686613               0.999999989              -0.000136471               0.000667186               0.999999989               0.000429116               0.000993729               0.999999989               0.000321386               0.000914034               0.999999989               0.000283368               0.000878341               0.999999989               0.000269187               0.000865893               0.999999989               0.000262769               0.000865842               0.999999989               0.000257097               0.000871707               0.999999989               0.000248989               0.000879842               0.999999989               0.000236318               0.000887849               0.999999989               0.000217887               0.000894133               0.999999989               0.000192672               0.000897642               0.999999989               0.000160337               0.000897773               0.999999989               0.000120670               0.000894360               0.999999989               0.000074010               0.000887644               0.999999989               0.000021076               0.000878496               0.999999989              -0.000036694               0.000867863               0.999999989              -0.000097732               0.000856895               0.999999989              -0.000160323               0.000846346               0.999999989               0.000363776               0.001060200               0.999999989               0.000263293               0.001005211               0.999999989               0.000224997               0.000976417               0.999999989               0.000209669               0.000965294               0.999999989               0.000202506               0.000965281               0.999999989               0.000197153               0.000971908               0.999999989               0.000190574               0.000981905               0.999999989               0.000180576               0.000993048               0.999999989               0.000165883               0.001004047               0.999999989               0.000145360               0.001013750               0.999999989               0.000118691               0.001021376               0.999999989               0.000085300               0.001026376               0.999999989               0.000045105               0.001028646               0.999999989              -0.000002002               0.001028490               0.999999989              -0.000055538               0.001026585               0.999999989              -0.000114268               0.001023942               0.999999989              -0.000176710               0.001021568               0.999999989               0.000295198               0.001116430               0.999999989               0.000207658               0.001086695               0.999999989               0.000171488               0.001067805               0.999999989               0.000155740               0.001060700               0.999999989               0.000147869               0.001062672               0.999999989               0.000142581               0.001070937               0.999999989               0.000137114               0.001083171               0.999999989               0.000129222               0.001097608               0.999999989               0.000117632               0.001113070               0.999999989               0.000101632               0.001128367               0.999999989               0.000080373               0.001142702               0.999999989               0.000053533               0.001155530               0.999999989               0.000020501               0.001166497               0.999999989              -0.000019534               0.001175339               0.999999989              -0.000067003               0.001182315               0.999999989              -0.000121677               0.001188109               0.999999989              -0.000182746               0.001193571               0.999999989               0.000223859               0.001161467               0.999999989               0.000154053               0.001154764               0.999999989               0.000123016               0.001146979               0.999999989               0.000108415               0.001145528               0.999999989               0.000100707               0.001150819               0.999999989               0.000095754               0.001161598               0.999999989               0.000091014               0.001176528               0.999999989               0.000084862               0.001194369               0.999999989               0.000076148               0.001214094               0.999999989               0.000064266               0.001234604               0.999999989               0.000048417               0.001255123               0.999999989               0.000028242               0.001275111               0.999999989               0.000002887               0.001294070               0.999999989              -0.000028856               0.001311686               0.999999989              -0.000068110               0.001327756               0.999999989              -0.000115512               0.001342449               0.999999989              -0.000171667               0.001356158               0.999999989               0.000150407               0.001194261               0.999999989               0.000101934               0.001206020               0.999999989               0.000079106               0.001208397               0.999999989               0.000067604               0.001212844               0.999999989               0.000061392               0.001221842               0.999999989               0.000057445               0.001235381               0.999999989               0.000053763               0.001253007               0.999999989               0.000049402               0.001273824               0.999999989               0.000043460               0.001297081               0.999999989               0.000035484               0.001321980               0.999999989               0.000024953               0.001347815               0.999999989               0.000011596               0.001373986               0.999999989              -0.000005540               0.001400083               0.999999989              -0.000027740               0.001425632               0.999999989              -0.000056070               0.001450153               0.999999989              -0.000091879               0.001473384               0.999999989              -0.000136439               0.001495098               0.999999989               0.000075564               0.001214127               0.999999989               0.000050741               0.001237839               0.999999989               0.000038631               0.001247411               0.999999989               0.000032244               0.001256131               0.999999989               0.000028816               0.001268006               0.999999989               0.000026584               0.001283877               0.999999989               0.000024531               0.001303511               0.999999989               0.000022232               0.001326378               0.999999989               0.000019155               0.001352031               0.999999989               0.000015065               0.001379820               0.999999989               0.000009875               0.001409164               0.999999989               0.000003194               0.001439639               0.999999989              -0.000005371               0.001470886               0.999999989              -0.000016720               0.001502282               0.999999989              -0.000031652               0.001533167               0.999999989              -0.000051169               0.001562902               0.999999989              -0.000076468               0.001590778               0.999999989               0.000000000               0.001220850               0.999999989              -0.000000000               0.001248671               0.999999989              -0.000000000               0.001260810               0.999999989               0.000000000               0.001271175               0.999999989              -0.000000000               0.001284157               0.999999989              -0.000000000               0.001300773               0.999999989               0.000000000               0.001321099               0.999999989              -0.000000000               0.001344728               0.999999989               0.000000000               0.001371147               0.999999989              -0.000000000               0.001399869               0.999999989               0.000000000               0.001430475               0.999999989              -0.000000000               0.001462594               0.999999989               0.000000000               0.001495868               0.999999989               0.000000000               0.001529645               0.999999989               0.000000000               0.001563212               0.999999989              -0.000000000               0.001595712               0.999999989              -0.000000000               0.001626032               0.999999989 </DataArray>
<DataArray type="Float64"                                    Name="defo"                                                      NumberOfComponents=" 3" format="ascii">
             -0.000801652              -0.000000000               0.999999989              -0.000845556              -0.000000000               0.999999989              -0.000864042               0.000000000               0.999999989              -0.000874329               0.000000000               0.999999989              -0.000882593               0.000000000               0.999999989              -0.000890959               0.000000000               0.999999989              -0.000900043               0.000000000               0.999999989              -0.000909916               0.000000000               0.999999989              -0.000920109              -0.000000000               0.999999989              -0.000930513               0.000000000               0.999999989              -0.000941031               0.000000000               0.999999989              -0.000951303               0.000000000               0.999999989              -0.000960943               0.000000000               0.999999989              -0.000969572               0.000000000               0.999999989              -0.000976754               0.000000000               0.999999989              -0.000982039               0.000000000               0.999999989              -0.000984706              -0.000000000               0.999999989              -0.000797095               0.000115067               0.999999989              -0.000837273               0.000091078               0.999999989              -0.000853416               0.000079901               0.999999989              -0.000862117               0.000074994               0.999999989              -0.000869248               0.000073162               0.999999989              -0.000876775               0.000072899               0.999999989              -0.000885116               0.000073051               0.999999989              -0.000894161               0.000073014               0.999999989              -0.000903598               0.000072307               0.999999989              -0.000913100               0.000070756               0.999999989              -0.000922393               0.000068163               0.999999989              -0.000931213               0.000064166               0.999999989              -0.000939143               0.000058410               0.999999989              -0.000945879               0.000050553               0.999999989              -0.000951011               0.000040040               0.999999989              -0.000954124               0.000026167               0.999999989              -0.000954560               0.000007673               0.999999989              -0.000783702               0.000229086               0.999999989              -0.000812965               0.000181891               0.999999989              -0.000822327               0.000160698               0.999999989              -0.000826746               0.000151731               0.999999989              -0.000831000               0.000148887               0.999999989              -0.000836272               0.000148749               0.999999989              -0.000842547               0.000149366               0.999999989              -0.000849409               0.000149426               0.999999989              -0.000856363               0.000148149               0.999999989              -0.000863027               0.000145154               0.999999989              -0.000868984               0.000139866               0.999999989              -0.000873870               0.000131862               0.999999989              -0.000877332               0.000120686               0.999999989              -0.000879043               0.000105621               0.999999989              -0.000878623               0.000085718               0.999999989              -0.000875699               0.000059818               0.999999989              -0.000870049               0.000026761               0.999999989              -0.000761860               0.000341092               0.999999989              -0.000773941               0.000272204               0.999999989              -0.000773460               0.000243114               0.999999989              -0.000772214               0.000231829               0.999999989              -0.000772730               0.000228926               0.999999989              -0.000774942               0.000229530               0.999999989              -0.000778251               0.000230947               0.999999989              -0.000781979               0.000231281               0.999999989              -0.000785334               0.000229383               0.999999989              -0.000787705               0.000224916               0.999999989              -0.000788617               0.000217141               0.999999989              -0.000787667               0.000205381               0.999999989              -0.000784473               0.000189202               0.999999989              -0.000778681               0.000167725               0.999999989              -0.000769991               0.000139951               0.999999989              -0.000758436               0.000105317               0.999999989              -0.000744428               0.000063223               0.999999989              -0.000731970               0.000450113               0.999999989              -0.000722199               0.000362032               0.999999989              -0.000710839               0.000327589               0.999999989              -0.000703778               0.000315854               0.999999989              -0.000700579               0.000313917               0.999999989              -0.000699824               0.000315787               0.999999989              -0.000699990               0.000318104               0.999999989              -0.000700008               0.000318657               0.999999989              -0.000698875               0.000316278               0.999999989              -0.000695803               0.000310390               0.999999989              -0.000690232               0.000300132               0.999999989              -0.000681742               0.000284947               0.999999989              -0.000669896               0.000264272               0.999999989              -0.000654601               0.000237592               0.999999989              -0.000636024               0.000204479               0.999999989              -0.000614773               0.000164970               0.999999989              -0.000591801               0.000119892               0.999999989              -0.000694761               0.000555106               0.999999989              -0.000660431               0.000451459               0.999999989              -0.000638841               0.000414253               0.999999989              -0.000627187               0.000403442               0.999999989              -0.000621379               0.000403131               0.999999989              -0.000618065               0.000406335               0.999999989              -0.000615150               0.000409584               0.999999989              -0.000611167               0.000410399               0.999999989              -0.000604811               0.000407409               0.999999989              -0.000595319               0.000399960               0.999999989              -0.000582051               0.000387314               0.999999989              -0.000564601               0.000368879               0.999999989              -0.000543042               0.000344508               0.999999989              -0.000517656               0.000314025               0.999999989              -0.000489095               0.000277953               0.999999989              -0.000458400               0.000237139               0.999999989              -0.000426731               0.000193385               0.999999989              -0.000650801               0.000655201               0.999999989              -0.000591508               0.000540611               0.999999989              -0.000562045               0.000502756               0.999999989              -0.000547915               0.000493594               0.999999989              -0.000540729               0.000495047               0.999999989              -0.000535499               0.000499367               0.999999989              -0.000529638               0.000503401               0.999999989              -0.000521202               0.000504409               0.999999989              -0.000508869               0.000500674               0.999999989              -0.000491873               0.000491589               0.999999989              -0.000469756               0.000476488               0.999999989              -0.000442549               0.000455324               0.999999989              -0.000410626               0.000428295               0.999999989              -0.000374785               0.000395840               0.999999989              -0.000336198               0.000358959               0.999999989              -0.000295967               0.000319269               0.999999989              -0.000255254               0.000278526               0.999999989              -0.000600970               0.000749407               0.999999989              -0.000518684               0.000629280               0.999999989              -0.000484649               0.000592360               0.999999989              -0.000470475               0.000584820               0.999999989              -0.000462954               0.000587718               0.999999989              -0.000456237               0.000592932               0.999999989              -0.000447205               0.000597511               0.999999989              -0.000433740               0.000598395               0.999999989              -0.000414412               0.000593641               0.999999989              -0.000388715               0.000582942               0.999999989              -0.000356577               0.000565819               0.999999989              -0.000318420               0.000542954               0.999999989              -0.000275088               0.000514845               0.999999989              -0.000228000               0.000482525               0.999999989              -0.000178557               0.000447398               0.999999989              -0.000128169               0.000411073               0.999999989              -0.000077995               0.000375203               0.999999989              -0.000546798               0.000836054               0.999999989              -0.000444326               0.000717474               0.999999989              -0.000410542               0.000681782               0.999999989              -0.000398052               0.000675253               0.999999989              -0.000390977               0.000679137               0.999999989              -0.000382696               0.000685281               0.999999989              -0.000370083               0.000689980               0.999999989              -0.000350555               0.000690395               0.999999989              -0.000322893               0.000684703               0.999999989              -0.000287139               0.000672696               0.999999989              -0.000243542               0.000654393               0.999999989              -0.000193027               0.000630874               0.999999989              -0.000137197               0.000603576               0.999999989              -0.000077922               0.000573775               0.999999989              -0.000017007               0.000543114               0.999999989               0.000044005               0.000512918               0.999999989               0.000104323               0.000483885               0.999999989              -0.000490540               0.000918379               0.999999989              -0.000381753               0.000817151               0.999999989              -0.000345765               0.000778538               0.999999989              -0.000332740               0.000767929               0.999999989              -0.000326397               0.000769408               0.999999989              -0.000319773               0.000775238               0.999999989              -0.000309682               0.000781737               0.999999989              -0.000293806               0.000786429               0.999999989              -0.000270880               0.000787425               0.999999989              -0.000240564               0.000783785               0.999999989              -0.000202533               0.000775376               0.999999989              -0.000156896               0.000762509               0.999999989              -0.000105001               0.000745998               0.999999989              -0.000048165               0.000727075               0.999999989               0.000012155               0.000706868               0.999999989               0.000074091               0.000686613               0.999999989               0.000136471               0.000667186               0.999999989              -0.000429116               0.000993729               0.999999989              -0.000321386               0.000914034               0.999999989              -0.000283368               0.000878341               0.999999989              -0.000269187               0.000865893               0.999999989              -0.000262769               0.000865842               0.999999989              -0.000257097               0.000871707               0.999999989              -0.000248989               0.000879842               0.999999989              -0.000236318               0.000887849               0.999999989              -0.000217887               0.000894133               0.999999989              -0.000192672               0.000897642               0.999999989              -0.000160337               0.000897773               0.999999989              -0.000120670               0.000894360               0.999999989              -0.000074010               0.000887644               0.999999989              -0.000021076               0.000878496               0.999999989               0.000036694               0.000867863               0.999999989               0.000097732               0.000856895               0.999999989               0.000160323               0.000846346               0.999999989              -0.000363776               0.001060200               0.999999989              -0.000263293               0.001005211               0.999999989              -0.000224997               0.000976417               0.999999989              -0.000209669               0.000965294               0.999999989              -0.000202506               0.000965281               0.999999989              -0.000197153               0.000971908               0.999999989              -0.000190574               0.000981905               0.999999989              -0.000180576               0.000993048               0.999999989              -0.000165883               0.001004047               0.999999989              -0.000145360               0.001013750               0.999999989              -0.000118691               0.001021376               0.999999989              -0.000085300               0.001026376               0.999999989              -0.000045105               0.001028646               0.999999989               0.000002002               0.001028490               0.999999989               0.000055538               0.001026585               0.999999989               0.000114268               0.001023942               0.999999989               0.000176710               0.001021568               0.999999989              -0.000295198               0.001116430               0.999999989              -0.000207658               0.001086695               0.999999989              -0.000171488               0.001067805               0.999999989              -0.000155740               0.001060700               0.999999989              -0.000147869               0.001062672               0.999999989              -0.000142581               0.001070937               0.999999989              -0.000137114               0.001083171               0.999999989              -0.000129222               0.001097608               0.999999989              -0.000117632               0.001113070               0.999999989              -0.000101632               0.001128367               0.999999989              -0.000080373               0.001142702               0.999999989              -0.000053533               0.001155530               0.999999989              -0.000020501               0.001166497               0.999999989               0.000019534               0.001175339               0.999999989               0.000067003               0.001182315               0.999999989               0.000121677               0.001188109               0.999999989               0.000182746               0.001193571               0.999999989              -0.000223859               0.001161467               0.999999989              -0.000154053               0.001154764               0.999999989              -0.000123016               0.001146979               0.999999989              -0.000108415               0.001145528               0.999999989              -0.000100707               0.001150819               0.999999989              -0.000095754               0.001161598               0.999999989              -0.000091014               0.001176528               0.999999989              -0.000084862               0.001194369               0.999999989              -0.000076148               0.001214094               0.999999989              -0.000064266               0.001234604               0.999999989              -0.000048417               0.001255123               0.999999989              -0.000028242               0.001275111               0.999999989              -0.000002887               0.001294070               0.999999989               0.000028856               0.001311686               0.999999989               0.000068110               0.001327756               0.999999989               0.000115512               0.001342449               0.999999989               0.000171667               0.001356158               0.999999989              -0.000150407               0.001194261               0.999999989              -0.000101934               0.001206020               0.999999989              -0.000079106               0.001208397               0.999999989              -0.000067604               0.001212844               0.999999989              -0.000061392               0.001221842               0.999999989              -0.000057445               0.001235381               0.999999989              -0.000053763               0.001253007               0.999999989              -0.000049402               0.001273824               0.999999989              -0.000043460               0.001297081               0.999999989              -0.000035484               0.001321980               0.999999989              -0.000024953               0.001347815               0.999999989              -0.000011596               0.001373986               0.999999989               0.000005540               0.001400083               0.999999989               0.000027740               0.001425632               0.999999989               0.000056070               0.001450153               0.999999989               0.000091879               0.001473384               0.999999989               0.000136439               0.001495098               0.999999989              -0.000075564               0.001214127               0.999999989              -0.000050741               0.001237839               0.999999989              -0.000038631               0.001247411               0.999999989              -0.000032244               0.001256131               0.999999989              -0.000028816               0.001268006               0.999999989              -0.000026584               0.001283877               0.999999989              -0.000024531               0.001303511               0.999999989              -0.000022232               0.001326378               0.999999989              -0.000019155               0.001352031               0.999999989              -0.000015065               0.001379820               0.999999989              -0.000009875               0.001409164               0.999999989              -0.000003194               0.001439639               0.999999989               0.000005371               0.001470886               0.999999989               0.000016720               0.001502282               0.999999989               0.000031652               0.001533167               0.999999989               0.000051169               0.001562902               0.999999989               0.000076468               0.001590778               0.999999989               0.000000000               0.001220850               0.999999989              -0.000000000               0.001248671               0.999999989              -0.000000000               0.001260810               0.999999989               0.000000000               0.001271175               0.999999989              -0.000000000               0.001284157               0.999999989              -0.000000000               0.001300773               0.999999989               0.000000000               0.001321099               0.999999989              -0.000000000               0.001344728               0.999999989               0.000000000               0.001371147               0.999999989              -0.000000000               0.001399869               0.999999989               0.000000000               0.001430475               0.999999989              -0.000000000               0.001462594               0.999999989               0.000000000               0.001495868               0.999999989               0.000000000               0.001529645               0.999999989               0.000000000               0.001563212               0.999999989              -0.000000000               0.001595712               0.999999989              -0.000000000               0.001626032               0.999999989              -0.000801652              -0.000000000               0.999999989              -0.000845556              -0.000000000               0.999999989              -0.000864042               0.000000000               0.999999989              -0.000874329               0.000000000               0.999999989              -0.000882593               0.000000000               0.999999989              -0.000890959               0.000000000               0.999999989              -0.000900043               0.000000000               0.999999989              -0.000909916               0.000000000               0.999999989              -0.000920109              -0.000000000               0.999999989              -0.000930513               0.000000000               0.999999989              -0.000941031               0.000000000               0.999999989              -0.000951303               0.000000000               0.999999989              -0.000960943               0.000000000               0.999999989              -0.000969572               0.000000000               0.999999989              -0.000976754               0.000000000               0.999999989              -0.000982039               0.000000000               0.999999989              -0.000984706              -0.000000000               0.999999989              -0.000797095              -0.000115067               0.999999989              -0.000837273              -0.000091078               0.999999989              -0.000853416              -0.000079901               0.999999989              -0.000862117              -0.000074994               0.999999989              -0.000869248              -0.000073162               0.999999989              -0.000876775              -0.000072899               0.999999989              -0.000885116              -0.000073051               0.999999989              -0.000894161              -0.000073014               0.999999989              -0.000903598              -0.000072307               0.999999989              -0.000913100              -0.000070756               0.999999989              -0.000922393              -0.000068163               0.999999989              -0.000931213              -0.000064166               0.999999989              -0.000939143              -0.000058410               0.999999989              -0.000945879              -0.000050553               0.999999989              -0.000951011              -0.000040040               0.999999989              -0.000954124              -0.000026167               0.999999989              -0.000954560              -0.000007673               0.999999989              -0.000783702              -0.000229086               0.999999989              -0.000812965              -0.000181891               0.999999989              -0.000822327              -0.000160698               0.999999989              -0.000826746              -0.000151731               0.999999989              -0.000831000              -0.000148887               0.999999989              -0.000836272              -0.000148749               0.999999989              -0.000842547              -0.000149366               0.999999989              -0.000849409              -0.000149426               0.999999989              -0.000856363              -0.000148149               0.999999989              -0.000863027              -0.000145154               0.999999989              -0.000868984              -0.000139866               0.999999989              -0.000873870              -0.000131862               0.999999989              -0.000877332              -0.000120686               0.999999989              -0.000879043              -0.000105621               0.999999989              -0.000878623              -0.000085718               0.999999989              -0.000875699              -0.000059818               0.999999989              -0.000870049              -0.000026761               0.999999989              -0.000761860              -0.000341092               0.999999989              -0.000773941              -0.000272204               0.999999989              -0.000773460              -0.000243114               0.999999989              -0.000772214              -0.000231829               0.999999989              -0.000772730              -0.000228926               0.999999989              -0.000774942              -0.000229530               0.999999989              -0.000778251              -0.000230947               0.999999989              -0.000781979              -0.000231281               0.999999989              -0.000785334              -0.000229383               0.999999989              -0.000787705              -0.000224916               0.999999989              -0.000788617              -0.000217141               0.999999989              -0.000787667              -0.000205381               0.999999989              -0.000784473              -0.000189202               0.999999989              -0.000778681              -0.000167725               0.999999989              -0.000769991              -0.000139951               0.999999989              -0.000758436              -0.000105317               0.999999989              -0.000744428              -0.000063223               0.999999989              -0.000731970              -0.000450113               0.999999989              -0.000722199              -0.000362032               0.999999989              -0.000710839              -0.000327589               0.999999989              -0.000703778              -0.000315854               0.999999989              -0.000700579              -0.000313917               0.999999989              -0.000699824              -0.000315787               0.999999989              -0.000699990              -0.000318104               0.999999989              -0.000700008              -0.000318657               0.999999989              -0.000698875              -0.000316278               0.999999989              -0.000695803              -0.000310390               0.999999989              -0.000690232              -0.000300132               0.999999989              -0.000681742              -0.000284947               0.999999989              -0.000669896              -0.000264272               0.999999989              -0.000654601              -0.000237592               0.999999989              -0.000636024              -0.000204479               0.999999989              -0.000614773              -0.000164970               0.999999989              -0.000591801              -0.000119892               0.999999989              -0.000694761              -0.000555106               0.999999989              -0.000660431              -0.000451459               0.999999989              -0.000638841              -0.000414253               0.999999989              -0.000627187              -0.000403442               0.999999989              -0.000621379              -0.000403131               0.999999989              -0.000618065              -0.000406335               0.999999989              -0.000615150              -0.000409584               0.999999989              -0.000611167              -0.000410399               0.999999989              -0.000604811              -0.000407409               0.999999989              -0.000595319              -0.000399960               0.999999989              -0.000582051              -0.000387314               0.999999989              -0.000564601              -0.000368879               0.999999989              -0.000543042              -0.000344508               0.999999989              -0.000517656              -0.000314025               0.999999989              -0.000489095              -0.000277953               0.999999989              -0.000458400              -0.000237139               0.999999989              -0.000426731              -0.000193385               0.999999989              -0.000650801              -0.000655201               0.999999989              -0.000591508              -0.000540611               0.999999989              -0.000562045              -0.000502756               0.999999989              -0.000547915              -0.000493594               0.999999989              -0.000540729              -0.000495047               0.999999989              -0.000535499              -0.000499367               0.999999989              -0.000529638              -0.000503401               0.999999989              -0.000521202              -0.000504409               0.999999989              -0.000508869              -0.000500674               0.999999989              -0.000491873              -0.000491589               0.999999989              -0.000469756              -0.000476488               0.999999989              -0.000442549              -0.000455324               0.999999989              -0.000410626              -0.000428295               0.999999989              -0.000374785              -0.000395840               0.999999989              -0.000336198              -0.000358959               0.999999989              -0.000295967              -0.000319269               0.999999989              -0.000255254              -0.000278526               0.999999989              -0.000600970              -0.000749407               0.999999989              -0.000518684              -0.000629280               0.999999989              -0.000484649              -0.000592360               0.999999989              -0.000470475              -0.000584820               0.999999989              -0.000462954              -0.000587718               0.999999989              -0.000456237              -0.000592932               0.999999989              -0.000447205              -0.000597511               0.999999989              -0.000433740              -0.000598395               0.999999989              -0.000414412              -0.000593641               0.999999989              -0.000388715              -0.000582942               0.999999989              -0.000356577              -0.000565819               0.999999989              -0.000318420              -0.000542954               0.999999989              -0.000275088              -0.000514845               0.999999989              -0.000228000              -0.000482525               0.999999989              -0.000178557              -0.000447398               0.999999989              -0.000128169              -0.000411073               0.999999989              -0.000077995              -0.000375203               0.999999989              -0.000546798              -0.000836054               0.999999989              -0.000444326              -0.000717474               0.999999989              -0.000410542              -0.000681782               0.999999989              -0.000398052              -0.000675253               0.999999989              -0.000390977              -0.000679137               0.999999989              -0.000382696              -0.000685281               0.999999989              -0.000370083              -0.000689980               0.999999989              -0.000350555              -0.000690395               0.999999989              -0.000322893              -0.000684703               0.999999989              -0.000287139              -0.000672696               0.999999989              -0.000243542              -0.000654393               0.999999989              -0.000193027              -0.000630874               0.999999989              -0.000137197              -0.000603576               0.999999989              -0.000077922              -0.000573775               0.999999989              -0.000017007              -0.000543114               0.999999989               0.000044005              -0.000512918               0.999999989               0.000104323              -0.000483885               0.999999989              -0.000490540              -0.000918379               0.999999989              -0.000381753              -0.000817151               0.999999989              -0.000345765              -0.000778538               0.999999989              -0.000332740              -0.000767929               0.999999989              -0.000326397              -0.000769408               0.999999989              -0.000319773              -0.000775238               0.999999989              -0.000309682              -0.000781737               0.999999989              -0.000293806              -0.000786429               0.999999989              -0.000270880              -0.000787425               0.999999989              -0.000240564              -0.000783785               0.999999989              -0.000202533              -0.000775376               0.999999989              -0.000156896              -0.000762509               0.999999989              -0.000105001              -0.000745998               0.999999989              -0.000048165              -0.000727075               0.999999989               0.000012155              -0.000706868               0.999999989               0.000074091              -0.000686613               0.999999989               0.000136471              -0.000667186               0.999999989              -0.000429116              -0.000993729               0.999999989              -0.000321386              -0.000914034               0.999999989              -0.000283368              -0.000878341               0.999999989              -0.000269187              -0.000865893               0.999999989              -0.000262769              -0.000865842               0.999999989              -0.000257097              -0.000871707               0.999999989              -0.000248989              -0.000879842               0.999999989              -0.000236318              -0.000887849               0.999999989              -0.000217887              -0.000894133               0.999999989              -0.000192672              -0.000897642               0.999999989              -0.000160337              -0.000897773               0.999999989              -0.000120670              -0.000894360               0.999999989              -0.000074010              -0.000887644               0.999999989              -0.000021076              -0.000878496               0.999999989               0.000036694              -0.000867863               0.999999989               0.000097732              -0.000856895               0.999999989               0.000160323              -0.000846346               0.999999989              -0.000363776              -0.001060200               0.999999989              -0.000263293              -0.001005211               0.999999989              -0.000224997              -0.000976417               0.999999989              -0.000209669              -0.000965294               0.999999989              -0.000202506              -0.000965281               0.999999989              -0.000197153              -0.000971908               0.999999989              -0.000190574              -0.000981905               0.999999989              -0.000180576              -0.000993048               0.999999989              -0.000165883              -0.001004047               0.999999989              -0.000145360              -0.001013750               0.999999989              -0.000118691              -0.001021376               0.999999989              -0.000085300              -0.001026376               0.999999989              -0.000045105              -0.001028646               0.999999989               0.000002002              -0.001028490               0.999999989               0.000055538              -0.001026585               0.999999989               0.000114268              -0.001023942               0.999999989               0.000176710              -0.001021568               0.999999989              -0.000295198              -0.001116430               0.999999989              -0.000207658              -0.001086695               0.999999989              -0.000171488              -0.001067805               0.999999989              -0.000155740              -0.001060700               0.999999989              -0.000147869              -0.001062672               0.999999989              -0.000142581              -0.001070937               0.999999989              -0.000137114              -0.001083171               0.999999989              -0.000129222              -0.001097608               0.999999989              -0.000117632              -0.001113070               0.999999989              -0.000101632              -0.001128367               0.999999989              -0.000080373              -0.001142702               0.999999989              -0.000053533              -0.001155530               0.999999989              -0.000020501              -0.001166497               0.999999989               0.000019534              -0.001175339               0.999999989               0.000067003              -0.001182315               0.999999989               0.000121677              -0.001188109               0.999999989               0.000182746              -0.001193571               0.999999989              -0.000223859              -0.001161467               0.999999989              -0.000154053              -0.001154764               0.999999989              -0.000123016              -0.001146979               0.999999989              -0.000108415              -0.001145528               0.999999989              -0.000100707              -0.001150819               0.999999989              -0.000095754              -0.001161598               0.999999989              -0.000091014              -0.001176528               0.999999989              -0.000084862              -0.001194369               0.999999989              -0.000076148              -0.001214094               0.999999989              -0.000064266              -0.001234604               0.999999989              -0.000048417              -0.001255123               0.999999989              -0.000028242              -0.001275111               0.999999989              -0.000002887              -0.001294070               0.999999989               0.000028856              -0.001311686               0.999999989               0.000068110              -0.001327756               0.999999989               0.000115512              -0.001342449               0.999999989               0.000171667              -0.001356158               0.999999989              -0.000150407              -0.001194261               0.999999989              -0.000101934              -0.001206020               0.999999989              -0.000079106              -0.001208397               0.999999989              -0.000067604              -0.001212844               0.999999989              -0.000061392              -0.001221842               0.999999989              -0.000057445              -0.001235381               0.999999989              -0.000053763              -0.001253007               0.999999989              -0.000049402              -0.001273824               0.999999989              -0.000043460              -0.001297081               0.999999989              -0.000035484              -0.001321980               0.999999989              -0.000024953              -0.001347815               0.999999989              -0.000011596              -0.001373986               0.999999989               0.000005540              -0.001400083               0.999999989               0.000027740              -0.001425632               0.999999989               0.000056070              -0.001450153               0.999999989               0.000091879              -0.001473384               0.999999989               0.000136439              -0.001495098               0.999999989              -0.000075564              -0.001214127               0.999999989              -0.000050741              -0.001237839               0.999999989              -0.000038631              -0.001247411               0.999999989              -0.000032244              -0.001256131               0.999999989              -0.000028816              -0.001268006               0.999999989              -0.000026584              -0.001283877               0.999999989              -0.000024531              -0.001303511               0.999999989              -0.000022232              -0.001326378               0.999999989              -0.000019155              -0.001352031               0.999999989              -0.000015065              -0.001379820               0.999999989              -0.000009875              -0.001409164               0.999999989              -0.000003194              -0.001439639               0.999999989               0.000005371              -0.001470886               0.999999989               0.000016720              -0.001502282               0.999999989               0.000031652              -0.001533167               0.999999989               0.000051169              -0.001562902               0.999999989               0.000076468              -0.001590778               0.999999989              -0.000000000              -0.001220850               0.999999989              -0.000000000              -0.001248671               0.999999989               0.000000000              -0.001260810               0.999999989               0.000000000              -0.001271175               0.999999989               0.000000000              -0.001284157               0.999999989               0.000000000              -0.001300773               0.999999989               0.000000000              -0.001321099               0.999999989               0.000000000              -0.001344728               0.999999989              -0.000000000              -0.001371147               0.999999989              -0.000000000              -0.001399869               0.999999989              -0.000000000              -0.001430475               0.999999989              -0.000000000              -0.001462594               0.999999989               0.000000000              -0.001495868               0.999999989              -0.000000000              -0.001529645               0.999999989              -0.000000000              -0.001563212               0.999999989              -0.000000000              -0.001595712               0.999999989               0.000000000              -0.001626032               0.999999989               0.000801652               0.000000000               0.999999989               0.000845556              -0.000000000               0.999999989               0.000864042              -0.000000000               0.999999989               0.000874329              -0.000000000               0.999999989               0.000882593               0.000000000               0.999999989               0.000890959               0.000000000               0.999999989               0.000900043              -0.000000000               0.999999989               0.000909916              -0.000000000               0.999999989               0.000920109               0.000000000               0.999999989               0.000930513              -0.000000000               0.999999989               0.000941031               0.000000000               0.999999989               0.000951303               0.000000000               0.999999989               0.000960943               0.000000000               0.999999989               0.000969572              -0.000000000               0.999999989               0.000976754              -0.000000000               0.999999989               0.000982039              -0.000000000               0.999999989               0.000984706               0.000000000               0.999999989               0.000797095              -0.000115067               0.999999989               0.000837273              -0.000091078               0.999999989               0.000853416              -0.000079901               0.999999989               0.000862117              -0.000074994               0.999999989               0.000869248              -0.000073162               0.999999989               0.000876775              -0.000072899               0.999999989               0.000885116              -0.000073051               0.999999989               0.000894161              -0.000073014               0.999999989               0.000903598              -0.000072307               0.999999989               0.000913100              -0.000070756               0.999999989               0.000922393              -0.000068163               0.999999989               0.000931213              -0.000064166               0.999999989               0.000939143              -0.000058410               0.999999989               0.000945879              -0.000050553               0.999999989               0.000951011              -0.000040040               0.999999989               0.000954124              -0.000026167               0.999999989               0.000954560              -0.000007673               0.999999989               0.000783702              -0.000229086               0.999999989               0.000812965              -0.000181891               0.999999989               0.000822327              -0.000160698               0.999999989               0.000826746              -0.000151731               0.999999989               0.000831000              -0.000148887               0.999999989               0.000836272              -0.000148749               0.999999989               0.000842547              -0.000149366               0.999999989               0.000849409              -0.000149426               0.999999989               0.000856363              -0.000148149               0.999999989               0.000863027              -0.000145154               0.999999989               0.000868984              -0.000139866               0.999999989               0.000873870              -0.000131862               0.999999989               0.000877332              -0.000120686               0.999999989               0.000879043              -0.000105621               0.999999989               0.000878623              -0.000085718               0.999999989               0.000875699              -0.000059818               0.999999989               0.000870049              -0.000026761               0.999999989               0.000761860              -0.000341092               0.999999989               0.000773941              -0.000272204               0.999999989               0.000773460              -0.000243114               0.999999989               0.000772214              -0.000231829               0.999999989               0.000772730              -0.000228926               0.999999989               0.000774942              -0.000229530               0.999999989               0.000778251              -0.000230947               0.999999989               0.000781979              -0.000231281               0.999999989               0.000785334              -0.000229383               0.999999989               0.000787705              -0.000224916               0.999999989               0.000788617              -0.000217141               0.999999989               0.000787667              -0.000205381               0.999999989               0.000784473              -0.000189202               0.999999989               0.000778681              -0.000167725               0.999999989               0.000769991              -0.000139951               0.999999989               0.000758436              -0.000105317               0.999999989               0.000744428              -0.000063223               0.999999989               0.000731970              -0.000450113               0.999999989               0.000722199              -0.000362032               0.999999989               0.000710839              -0.000327589               0.999999989               0.000703778              -0.000315854               0.999999989               0.000700579              -0.000313917               0.999999989               0.000699824              -0.000315787               0.999999989               0.000699990              -0.000318104               0.999999989               0.000700008              -0.000318657               0.999999989               0.000698875              -0.000316278               0.999999989               0.000695803              -0.000310390               0.999999989               0.000690232              -0.000300132               0.999999989               0.000681742              -0.000284947               0.999999989               0.000669896              -0.000264272               0.999999989               0.000654601              -0.000237592               0.999999989               0.000636024              -0.000204479               0.999999989               0.000614773              -0.000164970               0.999999989               0.000591801              -0.000119892               0.999999989               0.000694761              -0.000555106               0.999999989               0.000660431              -0.000451459               0.999999989               0.000638841              -0.000414253               0.999999989               0.000627187              -0.000403442               0.999999989               0.000621379              -0.000403131               0.999999989               0.000618065              -0.000406335               0.999999989               0.000615150              -0.000409584               0.999999989               0.000611167              -0.000410399               0.999999989               0.000604811              -0.000407409               0.999999989               0.000595319              -0.000399960               0.999999989               0.000582051              -0.000387314               0.999999989               0.000564601              -0.000368879               0.999999989               0.000543042              -0.000344508               0.999999989               0.000517656              -0.000314025               0.999999989               0.000489095              -0.000277953               0.999999989               0.000458400              -0.000237139               0.999999989               0.000426731              -0.000193385               0.999999989               0.000650801              -0.000655201               0.999999989               0.000591508              -0.000540611               0.999999989               0.000562045              -0.000502756               0.999999989               0.000547915              -0.000493594               0.999999989               0.000540729              -0.000495047               0.999999989               0.000535499              -0.000499367               0.999999989               0.000529638              -0.000503401               0.999999989               0.000521202              -0.000504409               0.999999989               0.000508869              -0.000500674               0.999999989               0.000491873              -0.000491589               0.999999989               0.000469756              -0.000476488               0.999999989               0.000442549              -0.000455324               0.999999989               0.000410626              -0.000428295               0.999999989               0.000374785              -0.000395840               0.999999989               0.000336198              -0.000358959               0.999999989               0.000295967              -0.000319269               0.999999989               0.000255254              -0.000278526               0.999999989               0.000600970              -0.000749407               0.999999989               0.000518684              -0.000629280               0.999999989               0.000484649              -0.000592360               0.999999989               0.000470475              -0.000584820               0.999999989               0.000462954              -0.000587718               0.999999989               0.000456237              -0.000592932               0.999999989               0.000447205              -0.000597511               0.999999989               0.000433740              -0.000598395               0.999999989               0.000414412              -0.000593641               0.999999989               0.000388715              -0.000582942               0.999999989               0.000356577              -0.000565819               0.999999989               0.000318420              -0.000542954               0.999999989               0.000275088              -0.000514845               0.999999989               0.000228000              -0.000482525               0.999999989               0.000178557              -0.000447398               0.999999989               0.000128169              -0.000411073               0.999999989               0.000077995              -0.000375203               0.999999989               0.000546798              -0.000836054               0.999999989               0.000444326              -0.000717474               0.999999989               0.000410542              -0.000681782               0.999999989               0.000398052              -0.000675253               0.999999989               0.000390977              -0.000679137               0.999999989               0.000382696              -0.000685281               0.999999989               0.000370083              -0.000689980               0.999999989               0.000350555              -0.000690395               0.999999989               0.000322893              -0.000684703               0.999999989               0.000287139              -0.000672696               0.999999989               0.000243542              -0.000654393               0.999999989               0.000193027              -0.000630874               0.999999989               0.000137197              -0.000603576               0.999999989               0.000077922              -0.000573775               0.999999989               0.000017007              -0.000543114               0.999999989              -0.000044005              -0.000512918               0.999999989              -0.000104323              -0.000483885               0.999999989               0.000490540              -0.000918379               0.999999989               0.000381753              -0.000817151               0.999999989               0.000345765              -0.000778538               0.999999989               0.000332740              -0.000767929               0.999999989               0.000326397              -0.000769408               0.999999989               0.000319773              -0.000775238               0.999999989               0.000309682              -0.000781737               0.999999989               0.000293806              -0.000786429               0.999999989               0.000270880              -0.000787425               0.999999989               0.000240564              -0.000783785               0.999999989               0.000202533              -0.000775376               0.999999989               0.000156896              -0.000762509               0.999999989               0.000105001              -0.000745998               0.999999989               0.000048165              -0.000727075               0.999999989              -0.000012155              -0.000706868               0.999999989              -0.000074091              -0.000686613               0.999999989              -0.000136471              -0.000667186               0.999999989               0.000429116              -0.000993729               0.999999989               0.000321386              -0.000914034               0.999999989               0.000283368              -0.000878341               0.999999989               0.000269187              -0.000865893               0.999999989               0.000262769              -0.000865842               0.999999989               0.000257097              -0.000871707               0.999999989               0.000248989              -0.000879842               0.999999989               0.000236318              -0.000887849               0.999999989               0.000217887              -0.000894133               0.999999989               0.000192672              -0.000897642               0.999999989               0.000160337              -0.000897773               0.999999989               0.000120670              -0.000894360               0.999999989               0.000074010              -0.000887644               0.999999989               0.000021076              -0.000878496               0.999999989              -0.000036694              -0.000867863               0.999999989              -0.000097732              -0.000856895               0.999999989              -0.000160323              -0.000846346               0.999999989               0.000363776              -0.001060200               0.999999989               0.000263293              -0.001005211               0.999999989               0.000224997              -0.000976417               0.999999989               0.000209669              -0.000965294               0.999999989               0.000202506              -0.000965281               0.999999989               0.000197153              -0.000971908               0.999999989               0.000190574              -0.000981905               0.999999989               0.000180576              -0.000993048               0.999999989               0.000165883              -0.001004047               0.999999989               0.000145360              -0.001013750               0.999999989               0.000118691              -0.001021376               0.999999989               0.000085300              -0.001026376               0.999999989               0.000045105              -0.001028646               0.999999989              -0.000002002              -0.001028490               0.999999989              -0.000055538              -0.001026585               0.999999989              -0.000114268              -0.001023942               0.999999989              -0.000176710              -0.001021568               0.999999989               0.000295198              -0.001116430               0.999999989               0.000207658              -0.001086695               0.999999989               0.000171488              -0.001067805               0.999999989               0.000155740              -0.001060700               0.999999989               0.000147869              -0.001062672               0.999999989               0.000142581              -0.001070937               0.999999989               0.000137114              -0.001083171               0.999999989               0.000129222              -0.001097608               0.999999989               0.000117632              -0.001113070               0.999999989               0.000101632              -0.001128367               0.999999989               0.000080373              -0.001142702               0.999999989               0.000053533              -0.001155530               0.999999989               0.000020501              -0.001166497               0.999999989              -0.000019534              -0.001175339               0.999999989              -0.000067003              -0.001182315               0.999999989              -0.000121677              -0.001188109               0.999999989              -0.000182746              -0.001193571               0.999999989               0.000223859              -0.001161467               0.999999989               0.000154053              -0.001154764               0.999999989               0.000123016              -0.001146979               0.999999989               0.000108415              -0.001145528               0.999999989               0.000100707              -0.001150819               0.999999989               0.000095754              -0.001161598               0.999999989               0.000091014              -0.001176528               0.999999989               0.000084862              -0.001194369               0.999999989               0.000076148              -0.001214094               0.999999989               0.000064266              -0.001234604               0.999999989               0.000048417              -0.001255123               0.999999989               0.000028242              -0.001275111               0.999999989               0.000002887              -0.001294070               0.999999989              -0.000028856              -0.001311686               0.999999989              -0.000068110              -0.001327756               0.999999989              -0.000115512              -0.001342449               0.999999989              -0.000171667              -0.001356158               0.999999989               0.000150407              -0.001194261               0.999999989               0.000101934              -0.001206020               0.999999989               0.000079106              -0.001208397               0.999999989               0.000067604              -0.001212844               0.999999989               0.000061392              -0.001221842               0.999999989               0.000057445              -0.001235381               0.999999989               0.000053763              -0.001253007               0.999999989               0.000049402              -0.001273824               0.999999989               0.000043460              -0.001297081               0.999999989               0.000035484              -0.001321980               0.999999989               0.000024953              -0.001347815               0.999999989               0.000011596              -0.001373986               0.999999989              -0.000005540              -0.001400083               0.999999989              -0.000027740              -0.001425632               0.999999989              -0.000056070              -0.001450153               0.999999989              -0.000091879              -0.001473384               0.999999989              -0.000136439              -0.001495098               0.999999989               0.000075564              -0.001214127               0.999999989               0.000050741              -0.001237839               0.999999989               0.000038631              -0.001247411               0.999999989               0.000032244              -0.001256131               0.999999989               0.000028816              -0.001268006               0.999999989               0.000026584              -0.001283877               0.999999989               0.000024531              -0.001303511               0.999999989               0.000022232              -0.001326378               0.999999989               0.000019155              -0.001352031               0.999999989               0.000015065              -0.001379820               0.999999989               0.000009875              -0.001409164               0.999999989               0.000003194              -0.001439639               0.999999989              -0.000005371              -0.001470886               0.999999989              -0.000016720              -0.001502282               0.999999989              -0.000031652              -0.001533167               0.999999989              -0.000051169              -0.001562902               0.999999989              -0.000076468              -0.001590778               0.999999989              -0.000000000              -0.001220850               0.999999989              -0.000000000              -0.001248671               0.999999989               0.000000000              -0.001260810               0.999999989               0.000000000              -0.001271175               0.999999989               0.000000000              -0.001284157               0.999999989               0.000000000              -0.001300773               0.999999989               0.000000000              -0.001321099               0.999999989               0.000000000              -0.001344728               0.999999989              -0.000000000              -0.001371147               0.999999989              -0.000000000              -0.001399869               0.999999989              -0.000000000              -0.001430475               0.999999989              -0.000000000              -0.001462594               0.999999989               0.000000000              -0.001495868               0.999999989              -0.000000000              -0.001529645               0.999999989              -0.000000000              -0.001563212               0.999999989              -0.000000000              -0.001595712               0.999999989               0.000000000              -0.001626032               0.999999989               0.000801652               0.000000000               0.999999989               0.000845556              -0.000000000               0.999999989               0.000864042              -0.000000000               0.999999989               0.000874329              -0.000000000               0.999999989               0.000882593               0.000000000               0.999999989               0.000890959               0.000000000               0.999999989               0.000900043              -0.000000000               0.999999989               0.000909916              -0.000000000               0.999999989               0.000920109               0.000000000               0.999999989               0.000930513              -0.000000000               0.999999989               0.000941031               0.000000000               0.999999989               0.000951303               0.000000000               0.999999989               0.000960943               0.000000000               0.999999989               0.000969572              -0.000000000               0.999999989               0.000976754              -0.000000000               0.999999989               0.000982039              -0.000000000               0.999999989               0.000984706               0.000000000               0.999999989               0.000797095               0.000115067               0.999999989               0.000837273               0.000091078               0.999999989               0.000853416               0.000079901               0.999999989               0.000862117               0.000074994               0.999999989               0.000869248               0.000073162               0.999999989               0.000876775               0.000072899               0.999999989               0.000885116               0.000073051               0.999999989               0.000894161               0.000073014               0.999999989               0.000903598               0.000072307               0.999999989               0.000913100               0.000070756               0.999999989               0.000922393               0.000068163               0.999999989               0.000931213               0.000064166               0.999999989               0.000939143               0.000058410               0.999999989               0.000945879               0.000050553               0.999999989               0.000951011               0.000040040               0.999999989               0.000954124               0.000026167               0.999999989               0.000954560               0.000007673               0.999999989               0.000783702               0.000229086               0.999999989               0.000812965               0.000181891               0.999999989               0.000822327               0.000160698               0.999999989               0.000826746               0.000151731               0.999999989               0.000831000               0.000148887               0.999999989               0.000836272               0.000148749               0.999999989               0.000842547               0.000149366               0.999999989               0.000849409               0.000149426               0.999999989               0.000856363               0.000148149               0.999999989               0.000863027               0.000145154               0.999999989               0.000868984               0.000139866               0.999999989               0.000873870               0.000131862               0.999999989               0.000877332               0.000120686               0.999999989               0.000879043               0.000105621               0.999999989               0.000878623               0.000085718               0.999999989               0.000875699               0.000059818               0.999999989               0.000870049               0.000026761               0.999999989               0.000761860               0.000341092               0.999999989               0.000773941               0.000272204               0.999999989               0.000773460               0.000243114               0.999999989               0.000772214               0.000231829               0.999999989               0.000772730               0.000228926               0.999999989               0.000774942               0.000229530               0.999999989               0.000778251               0.000230947               0.999999989               0.000781979               0.000231281               0.999999989               0.000785334               0.000229383               0.999999989               0.000787705               0.000224916               0.999999989               0.000788617               0.000217141               0.999999989               0.000787667               0.000205381               0.999999989               0.000784473               0.000189202               0.999999989               0.000778681               0.000167725               0.999999989               0.000769991               0.000139951               0.999999989               0.000758436               0.000105317               0.999999989               0.000744428               0.000063223               0.999999989               0.000731970               0.000450113               0.999999989               0.000722199               0.000362032               0.999999989               0.000710839               0.000327589               0.999999989               0.000703778               0.000315854               0.999999989               0.000700579               0.000313917               0.999999989               0.000699824               0.000315787               0.999999989               0.000699990               0.000318104               0.999999989               0.000700008               0.000318657               0.999999989               0.000698875               0.000316278               0.999999989               0.000695803               0.000310390               0.999999989               0.000690232               0.000300132               0.999999989               0.000681742               0.000284947               0.999999989               0.000669896               0.000264272               0.999999989               0.000654601               0.000237592               0.999999989               0.000636024               0.000204479               0.999999989               0.000614773               0.000164970               0.999999989               0.000591801               0.000119892               0.999999989               0.000694761               0.000555106               0.999999989               0.000660431               0.000451459               0.999999989               0.000638841               0.000414253               0.999999989               0.000627187               0.000403442               0.999999989               0.000621379               0.000403131               0.999999989               0.000618065               0.000406335               0.999999989               0.000615150               0.000409584               0.999999989               0.000611167               0.000410399               0.999999989               0.000604811               0.000407409               0.999999989               0.000595319               0.000399960               0.999999989               0.000582051               0.000387314               0.999999989               0.000564601               0.000368879               0.999999989               0.000543042               0.000344508               0.999999989               0.000517656               0.000314025               0.999999989               0.000489095               0.000277953               0.999999989               0.000458400               0.000237139               0.999999989               0.000426731               0.000193385               0.999999989               0.000650801               0.000655201               0.999999989               0.000591508               0.000540611               0.999999989               0.000562045               0.000502756               0.999999989               0.000547915               0.000493594               0.999999989               0.000540729               0.000495047               0.999999989               0.000535499               0.000499367               0.999999989               0.000529638               0.000503401               0.999999989               0.000521202               0.000504409               0.999999989               0.000508869               0.000500674               0.999999989               0.000491873               0.000491589               0.999999989               0.000469756               0.000476488               0.999999989               0.000442549               0.000455324               0.999999989               0.000410626               0.000428295               0.999999989               0.000374785               0.000395840               0.999999989               0.000336198               0.000358959               0.999999989               0.000295967               0.000319269               0.999999989               0.000255254               0.000278526               0.999999989               0.000600970               0.000749407               0.999999989               0.000518684               0.000629280               0.999999989               0.000484649               0.000592360               0.999999989               0.000470475               0.000584820               0.999999989               0.000462954               0.000587718               0.999999989               0.000456237               0.000592932               0.999999989               0.000447205               0.000597511               0.999999989               0.000433740               0.000598395               0.999999989               0.000414412               0.000593641               0.999999989               0.000388715               0.000582942               0.999999989               0.000356577               0.000565819               0.999999989               0.000318420               0.000542954               0.999999989               0.000275088               0.000514845               0.999999989               0.000228000               0.000482525               0.999999989               0.000178557               0.000447398               0.999999989               0.000128169               0.000411073               0.999999989               0.000077995               0.000375203               0.999999989               0.000546798               0.000836054               0.999999989               0.000444326               0.000717474               0.999999989               0.000410542               0.000681782               0.999999989               0.000398052               0.000675253               0.999999989               0.000390977               0.000679137               0.999999989               0.000382696               0.000685281               0.999999989               0.000370083               0.000689980               0.999999989               0.000350555               0.000690395               0.999999989               0.000322893               0.000684703               0.999999989               0.000287139               0.000672696               0.999999989               0.000243542               0.000654393               0.999999989               0.000193027               0.000630874               0.999999989               0.000137197               0.000603576               0.999999989               0.000077922               0.000573775               0.999999989               0.000017007               0.000543114               0.999999989              -0.000044005               0.000512918               0.999999989              -0.000104323               0.000483885               0.999999989               0.000490540               0.000918379               0.999999989               0.000381753               0.000817151               0.999999989               0.000345765               0.000778538               0.999999989               0.000332740               0.000767929               0.999999989               0.000326397               0.000769408               0.999999989               0.000319773               0.000775238               0.999999989               0.000309682               0.000781737               0.999999989               0.000293806               0.000786429               0.999999989               0.000270880               0.000787425               0.999999989               0.000240564               0.000783785               0.999999989               0.000202533               0.000775376               0.999999989               0.000156896               0.000762509               0.999999989               0.000105001               0.000745998               0.999999989               0.000048165               0.000727075               0.999999989              -0.000012155               0.000706868               0.999999989              -0.000074091               0.000686613               0.999999989              -0.000136471               0.000667186               0.999999989               0.000429116               0.000993729               0.999999989               0.000321386               0.000914034               0.999999989               0.000283368               0.000878341               0.999999989               0.000269187               0.000865893               0.999999989               0.000262769               0.000865842               0.999999989               0.000257097               0.000871707               0.999999989               0.000248989               0.000879842               0.999999989               0.000236318               0.000887849               0.999999989               0.000217887               0.000894133               0.999999989               0.000192672               0.000897642               0.999999989               0.000160337               0.000897773               0.999999989               0.000120670               0.000894360               0.999999989               0.000074010               0.000887644               0.999999989               0.000021076               0.000878496               0.999999989              -0.000036694               0.000867863               0.999999989              -0.000097732               0.000856895               0.999999989              -0.000160323               0.000846346               0.999999989               0.000363776               0.001060200               0.999999989               0.000263293               0.001005211               0.999999989               0.000224997               0.000976417               0.999999989               0.000209669               0.000965294               0.999999989               0.000202506               0.000965281               0.999999989               0.000197153               0.000971908               0.999999989               0.000190574               0.000981905               0.999999989               0.000180576               0.000993048               0.999999989               0.000165883               0.001004047               0.999999989               0.000145360               0.001013750               0.999999989               0.000118691               0.001021376               0.999999989               0.000085300               0.001026376               0.999999989               0.000045105               0.001028646               0.999999989              -0.000002002               0.001028490               0.999999989              -0.000055538               0.001026585               0.999999989              -0.000114268               0.001023942               0.999999989              -0.000176710               0.001021568               0.999999989               0.000295198               0.001116430               0.999999989               0.000207658               0.001086695               0.999999989               0.000171488               0.001067805               0.999999989               0.000155740               0.001060700               0.999999989               0.000147869               0.001062672               0.999999989               0.000142581               0.001070937               0.999999989               0.000137114               0.001083171               0.999999989               0.000129222               0.001097608               0.999999989               0.000117632               0.001113070               0.999999989               0.000101632               0.001128367               0.999999989               0.000080373               0.001142702               0.999999989               0.000053533               0.001155530               0.999999989               0.000020501               0.001166497               0.999999989              -0.000019534               0.001175339               0.999999989              -0.000067003               0.001182315               0.999999989              -0.000121677               0.001188109               0.999999989              -0.000182746               0.001193571               0.999999989               0.000223859               0.001161467               0.999999989               0.000154053               0.001154764               0.999999989               0.000123016               0.001146979               0.999999989               0.000108415               0.001145528               0.999999989               0.000100707               0.001150819               0.999999989               0.000095754               0.001161598               0.999999989               0.000091014               0.001176528               0.999999989               0.000084862               0.001194369               0.999999989               0.000076148               0.001214094               0.999999989               0.000064266               0.001234604               0.999999989               0.000048417               0.001255123               0.999999989               0.000028242               0.001275111               0.999999989               0.000002887               0.001294070               0.999999989              -0.000028856               0.001311686               0.999999989              -0.000068110               0.001327756               0.999999989              -0.000115512               0.001342449               0.999999989              -0.000171667               0.001356158               0.999999989               0.000150407               0.001194261               0.999999989               0.000101934               0.001206020               0.999999989               0.000079106               0.001208397               0.999999989               0.000067604               0.001212844               0.999999989               0.000061392               0.001221842               0.999999989               0.000057445               0.001235381               0.999999989               0.000053763               0.001253007               0.999999989               0.000049402               0.001273824               0.999999989               0.000043460               0.001297081               0.999999989               0.000035484               0.001321980               0.999999989               0.000024953               0.001347815               0.999999989               0.000011596               0.001373986               0.999999989              -0.000005540               0.001400083               0.999999989              -0.000027740               0.001425632               0.999999989              -0.000056070               0.001450153               0.999999989              -0.000091879               0.001473384               0.999999989              -0.000136439               0.001495098               0.999999989               0.000075564               0.001214127               0.999999989               0.000050741               0.001237839               0.999999989               0.000038631               0.001247411               0.999999989               0.000032244               0.001256131               0.999999989               0.000028816               0.001268006               0.999999989               0.000026584               0.001283877               0.999999989               0.000024531               0.001303511               0.999999989               0.000022232               0.001326378               0.999999989               0.000019155               0.001352031               0.999999989               0.000015065               0.001379820               0.999999989               0.000009875               0.001409164               0.999999989               0.000003194               0.001439639               0.999999989              -0.000005371               0.001470886               0.999999989              -0.000016720               0.001502282               0.999999989              -0.000031652               0.001533167               0.999999989              -0.000051169               0.001562902               0.999999989              -0.000076468               0.001590778               0.999999989               0.000000000               0.001220850               0.999999989              -0.000000000               0.001248671               0.999999989              -0.000000000               0.001260810               0.999999989               0.000000000               0.001271175               0.999999989              -0.000000000               0.001284157               0.999999989              -0.000000000               0.001300773               0.999999989               0.000000000               0.001321099               0.999999989              -0.000000000               0.001344728               0.999999989               0.000000000               0.001371147               0.999999989              -0.000000000               0.001399869               0.999999989               0.000000000               0.001430475               0.999999989              -0.000000000               0.001462594               0.999999989               0.000000000               0.001495868               0.999999989               0.000000000               0.001529645               0.999999989               0.000000000               0.001563212               0.999999989              -0.000000000               0.001595712               0.999999989              -0.000000000               0.001626032               0.999999989 </DataArray>
<DataArray type="Float64"                                    Name="stress"                                                      NumberOfComponents="10" format="ascii">
              0.001960064               0.020869216              -0.000000000              -0.001873623               0.007580877               0.005707254               0.000000000               0.000000000               0.000000000               0.000000000               0.001858560               0.015980893              -0.000000000              -0.001300648               0.005760460               0.004459812               0.000000000               0.000000000               0.000000000               0.000000000               0.002364607               0.011995749               0.000000000              -0.000612740               0.004202790               0.003590050               0.000000000               0.000000000               0.000000000               0.000000000               0.002160094               0.009732456               0.000000000              -0.000406521               0.003379626               0.002973106               0.000000000               0.000000000               0.000000000               0.000000000               0.001773687               0.008291785               0.000000000              -0.000371340               0.002887681               0.002516341               0.000000000               0.000000000               0.000000000               0.000000000               0.001385147               0.007285920               0.000000000              -0.000391309               0.002559052               0.002167743               0.000000000               0.000000000               0.000000000               0.000000000               0.001041150               0.006508485              -0.000000000              -0.000423129               0.002310516               0.001887388               0.000000000               0.000000000               0.000000000               0.000000000               0.000763162               0.005857952              -0.000000000              -0.000446057               0.002101317               0.001655260               0.000000000               0.000000000               0.000000000               0.000000000               0.000541159               0.005273546              -0.000000000              -0.000456257               0.001909917               0.001453660               0.000000000               0.000000000               0.000000000               0.000000000               0.000348506               0.004720761               0.000000000              -0.000459404               0.001726706               0.001267302               0.000000000               0.000000000               0.000000000               0.000000000               0.000188082               0.004182529              -0.000000000              -0.000452284               0.001544924               0.001092639               0.000000000               0.000000000               0.000000000               0.000000000               0.000068327               0.003642032              -0.000000000              -0.000429630               0.001357209               0.000927578               0.000000000               0.000000000               0.000000000               0.000000000              -0.000014954               0.003081997              -0.000000000              -0.000390856               0.001157607               0.000766751               0.000000000               0.000000000               0.000000000               0.000000000              -0.000064392               0.002488098              -0.000000000              -0.000335159               0.000941077               0.000605919               0.000000000               0.000000000               0.000000000               0.000000000              -0.000081348               0.001841539               0.000000000              -0.000260697               0.000700739               0.000440042               0.000000000               0.000000000               0.000000000               0.000000000              -0.000056789               0.001120633              -0.000000000              -0.000161375               0.000427332               0.000265957               0.000000000               0.000000000               0.000000000               0.000000000              -0.000090798               0.000569885              -0.000000000              -0.000105285               0.000225055               0.000119770               0.000000000               0.000000000               0.000000000               0.000000000               0.002010143               0.020417348              -0.001371630              -0.001798361               0.007405168               0.005606808               0.000000000               0.000000000               0.000000000               0.000000000               0.001794108               0.015697134              -0.000610665              -0.001289348               0.005662108               0.004372760               0.000000000               0.000000000               0.000000000               0.000000000               0.002179493               0.011884357               0.000137847              -0.000668233               0.004184157               0.003515924               0.000000000               0.000000000               0.000000000               0.000000000               0.001930713               0.009706762               0.000444047              -0.000489327               0.003398664               0.002909337               0.000000000               0.000000000               0.000000000               0.000000000               0.001535449               0.008314128               0.000562311              -0.000463472               0.002925839               0.002462367               0.000000000               0.000000000               0.000000000               0.000000000               0.001153571               0.007328197               0.000594076              -0.000483435               0.002603853               0.002120418               0.000000000               0.000000000               0.000000000               0.000000000               0.000829129               0.006561255               0.000584374              -0.000509232               0.002356807               0.001847575               0.000000000               0.000000000               0.000000000               0.000000000               0.000569243               0.005913185               0.000557177              -0.000525681               0.002146269               0.001620588               0.000000000               0.000000000               0.000000000               0.000000000               0.000365186               0.005329953               0.000523912              -0.000529298               0.001953066               0.001423768               0.000000000               0.000000000               0.000000000               0.000000000               0.000201013               0.004780644               0.000491144              -0.000522199               0.001767598               0.001245399               0.000000000               0.000000000               0.000000000               0.000000000               0.000068967               0.004242728               0.000457690              -0.000504477               0.001582387               0.001077910               0.000000000               0.000000000               0.000000000               0.000000000              -0.000026311               0.003704883               0.000420599              -0.000472976               0.001392607               0.000919631               0.000000000               0.000000000               0.000000000               0.000000000              -0.000086600               0.003155835               0.000377469              -0.000426954               0.001194252               0.000767299               0.000000000               0.000000000               0.000000000               0.000000000              -0.000115522               0.002580658               0.000322419              -0.000365902               0.000982178               0.000616276               0.000000000               0.000000000               0.000000000               0.000000000              -0.000112488               0.001963366               0.000247921              -0.000287603               0.000750317               0.000462713               0.000000000               0.000000000               0.000000000               0.000000000              -0.000070550               0.001289562               0.000141709              -0.000187651               0.000492400               0.000304749               0.000000000               0.000000000               0.000000000               0.000000000              -0.000091455               0.000788196               0.000089679              -0.000132820               0.000307002               0.000174183               0.000000000               0.000000000               0.000000000               0.000000000               0.002130692               0.019130387              -0.002541085              -0.001592286               0.006907494               0.005315208               0.000000000               0.000000000               0.000000000               0.000000000               0.001601193               0.014891486              -0.001127691              -0.001260985               0.005384107               0.004123122               0.000000000               0.000000000               0.000000000               0.000000000               0.001652129               0.011571150               0.000247093              -0.000826843               0.004132626               0.003305783               0.000000000               0.000000000               0.000000000               0.000000000               0.001287935               0.009638350               0.000786991              -0.000721816               0.003453357               0.002731540               0.000000000               0.000000000               0.000000000               0.000000000               0.000880095               0.008365266               0.000985713              -0.000715621               0.003026935               0.002311313               0.000000000               0.000000000               0.000000000               0.000000000               0.000530503               0.007432080               0.001034658              -0.000730070               0.002720692               0.001990622               0.000000000               0.000000000               0.000000000               0.000000000               0.000258973               0.006688523               0.001013607              -0.000738949               0.002475802               0.001736853               0.000000000               0.000000000               0.000000000               0.000000000               0.000059826               0.006048226               0.000960669              -0.000733592               0.002260586               0.001526994               0.000000000               0.000000000               0.000000000               0.000000000              -0.000082782               0.005466124               0.000901129              -0.000714307               0.002060125               0.001345818               0.000000000               0.000000000               0.000000000               0.000000000              -0.000181264               0.004920458               0.000840272              -0.000683030               0.001867813               0.001184783               0.000000000               0.000000000               0.000000000               0.000000000              -0.000244141               0.004390964               0.000775321              -0.000640422               0.001677114               0.001036692               0.000000000               0.000000000               0.000000000               0.000000000              -0.000274701               0.003867582               0.000707038              -0.000586459               0.001484667               0.000898208               0.000000000               0.000000000               0.000000000               0.000000000              -0.000273852               0.003346028               0.000627912              -0.000520947               0.001288980               0.000768034               0.000000000               0.000000000               0.000000000               0.000000000              -0.000243011               0.002816526               0.000526701              -0.000443194               0.001086564               0.000643370               0.000000000               0.000000000               0.000000000               0.000000000              -0.000182455               0.002274089               0.000394203              -0.000352681               0.000875582               0.000522901               0.000000000               0.000000000               0.000000000               0.000000000              -0.000096643               0.001724568               0.000219832              -0.000251812               0.000658788               0.000406976               0.000000000               0.000000000               0.000000000               0.000000000              -0.000089434               0.001343043               0.000136725              -0.000201418               0.000514816               0.000313398               0.000000000               0.000000000               0.000000000               0.000000000               0.002222280               0.017183761              -0.003346012              -0.001314614               0.006166067               0.004851453               0.000000000               0.000000000               0.000000000               0.000000000               0.001257652               0.013687290              -0.001484442              -0.001239289               0.004975481               0.003736191               0.000000000               0.000000000               0.000000000               0.000000000               0.000845172               0.011101171               0.000296557              -0.001070704               0.004057255               0.002986550               0.000000000               0.000000000               0.000000000               0.000000000               0.000353069               0.009518846               0.000953710              -0.001057452               0.003525401               0.002467948               0.000000000               0.000000000               0.000000000               0.000000000              -0.000037785               0.008404284               0.001180463              -0.001064703               0.003156301               0.002091598               0.000000000               0.000000000               0.000000000               0.000000000              -0.000312276               0.007542068               0.001227274              -0.001059860               0.002867284               0.001807424               0.000000000               0.000000000               0.000000000               0.000000000              -0.000496435               0.006822831               0.001192764              -0.001039015               0.002620592               0.001581578               0.000000000               0.000000000               0.000000000               0.000000000              -0.000604612               0.006189530               0.001120630              -0.001000419               0.002396629               0.001396210               0.000000000               0.000000000               0.000000000               0.000000000              -0.000649090               0.005615730               0.001043322              -0.000945373               0.002187015               0.001241643               0.000000000               0.000000000               0.000000000               0.000000000              -0.000649932               0.005080840               0.000966870              -0.000878828               0.001986539               0.001107711               0.000000000               0.000000000               0.000000000               0.000000000              -0.000619111               0.004569055               0.000883877              -0.000803297               0.001790768               0.000987472               0.000000000               0.000000000               0.000000000               0.000000000              -0.000559292               0.004074309               0.000796675              -0.000719022               0.001597763               0.000878742               0.000000000               0.000000000               0.000000000               0.000000000              -0.000472907               0.003593595               0.000697947              -0.000626538               0.001406699               0.000780161               0.000000000               0.000000000               0.000000000               0.000000000              -0.000361332               0.003131290               0.000572384              -0.000526910               0.001219389               0.000692480               0.000000000               0.000000000               0.000000000               0.000000000              -0.000234459               0.002697557               0.000415866              -0.000425116               0.001040882               0.000615766               0.000000000               0.000000000               0.000000000               0.000000000              -0.000113264               0.002310145               0.000225331              -0.000331241               0.000880454               0.000549213               0.000000000               0.000000000               0.000000000               0.000000000              -0.000080972               0.002074600               0.000133272              -0.000289689               0.000788089               0.000498400               0.000000000               0.000000000               0.000000000               0.000000000               0.002153559               0.014807698              -0.003712016              -0.001043378               0.005283642               0.004240264               0.000000000               0.000000000               0.000000000               0.000000000               0.000739585               0.012245298              -0.001665561              -0.001253316               0.004499497               0.003246181               0.000000000               0.000000000               0.000000000               0.000000000              -0.000146022               0.010528258               0.000260490              -0.001370787               0.003966313               0.002595526               0.000000000               0.000000000               0.000000000               0.000000000              -0.000710185               0.009322263               0.000918875              -0.001431599               0.003584589               0.002152990               0.000000000               0.000000000               0.000000000               0.000000000              -0.001030906               0.008372862               0.001124746              -0.001433194               0.003268657               0.001835463               0.000000000               0.000000000               0.000000000               0.000000000              -0.001190204               0.007580014               0.001158077              -0.001393825               0.002991254               0.001597429               0.000000000               0.000000000               0.000000000               0.000000000              -0.001246559               0.006892494               0.001114478              -0.001329018               0.002740481               0.001411463               0.000000000               0.000000000               0.000000000               0.000000000              -0.001229892               0.006279114               0.001038363              -0.001246096               0.002508382               0.001262287               0.000000000               0.000000000               0.000000000               0.000000000              -0.001154392               0.005724103               0.000960274              -0.001148407               0.002290818               0.001142410               0.000000000               0.000000000               0.000000000               0.000000000              -0.001040871               0.005207723               0.000882220              -0.001041290               0.002082987               0.001041697               0.000000000               0.000000000               0.000000000               0.000000000              -0.000902509               0.004720736               0.000798363              -0.000928531               0.001883073               0.000954542               0.000000000               0.000000000               0.000000000               0.000000000              -0.000742178               0.004263387               0.000709399              -0.000811238               0.001691527               0.000880289               0.000000000               0.000000000               0.000000000               0.000000000              -0.000565760               0.003839527               0.000606930              -0.000692099               0.001510529               0.000818430               0.000000000               0.000000000               0.000000000               0.000000000              -0.000386095               0.003460434               0.000481544              -0.000577339               0.001345913               0.000768574               0.000000000               0.000000000               0.000000000               0.000000000              -0.000221223               0.003146569               0.000331658              -0.000476279               0.001207605               0.000731327               0.000000000               0.000000000               0.000000000               0.000000000              -0.000096491               0.002915155               0.000168692              -0.000400578               0.001105234               0.000704657               0.000000000               0.000000000               0.000000000               0.000000000              -0.000054046               0.002808726               0.000091095              -0.000371357               0.001060018               0.000688661               0.000000000               0.000000000               0.000000000               0.000000000               0.001811982               0.012257296              -0.003647032              -0.000852670               0.004369947               0.003517277               0.000000000               0.000000000               0.000000000               0.000000000               0.000053303               0.010726818              -0.001694676              -0.001320861               0.004015857               0.002694996               0.000000000               0.000000000               0.000000000               0.000000000              -0.001207423               0.009898481               0.000117505              -0.001690089               0.003862824               0.002172734               0.000000000               0.000000000               0.000000000               0.000000000              -0.001749950               0.009034822               0.000689101              -0.001785580               0.003606771               0.001821191               0.000000000               0.000000000               0.000000000               0.000000000              -0.001932219               0.008231094               0.000852515              -0.001753465               0.003328159               0.001574694               0.000000000               0.000000000               0.000000000               0.000000000              -0.001934451               0.007503414               0.000880050              -0.001663342               0.003055560               0.001392218               0.000000000               0.000000000               0.000000000               0.000000000              -0.001838923               0.006859968               0.000845447              -0.001547088               0.002802329               0.001255241               0.000000000               0.000000000               0.000000000               0.000000000              -0.001677767               0.006283423               0.000781523              -0.001414587               0.002565982               0.001151395               0.000000000               0.000000000               0.000000000               0.000000000              -0.001475536               0.005754285               0.000716958              -0.001272609               0.002342279               0.001069670               0.000000000               0.000000000               0.000000000               0.000000000              -0.001250289               0.005262579               0.000653480              -0.001126678               0.002129735               0.001003057               0.000000000               0.000000000               0.000000000               0.000000000              -0.001007857               0.004809082               0.000583310              -0.000979079               0.001929371               0.000950292               0.000000000               0.000000000               0.000000000               0.000000000              -0.000762607               0.004400016               0.000505144              -0.000835978               0.001745317               0.000909339               0.000000000               0.000000000               0.000000000               0.000000000              -0.000528031               0.004044548               0.000412163              -0.000703578               0.001582695               0.000879117               0.000000000               0.000000000               0.000000000               0.000000000              -0.000318565               0.003754324               0.000303835              -0.000588751               0.001447679               0.000858928               0.000000000               0.000000000               0.000000000               0.000000000              -0.000154515               0.003543812               0.000188133              -0.000500918               0.001348232               0.000847313               0.000000000               0.000000000               0.000000000               0.000000000              -0.000054470               0.003424091               0.000083647              -0.000448436               0.001290831               0.000842395               0.000000000               0.000000000               0.000000000               0.000000000              -0.000022181               0.003390562               0.000038267              -0.000432137               0.001274222               0.000842085               0.000000000               0.000000000               0.000000000               0.000000000               0.001135525               0.009750566              -0.003228988              -0.000793000               0.003514489               0.002721489               0.000000000               0.000000000               0.000000000               0.000000000              -0.000768998               0.009251542              -0.001625050              -0.001444814               0.003565421               0.002120606               0.000000000               0.000000000               0.000000000               0.000000000              -0.002225722               0.009237785              -0.000142146              -0.001989364               0.003742352               0.001752988               0.000000000               0.000000000               0.000000000               0.000000000              -0.002630246               0.008658629               0.000304125              -0.002068666               0.003575736               0.001507070               0.000000000               0.000000000               0.000000000               0.000000000              -0.002623489               0.007975720               0.000437816              -0.001980768               0.003318803               0.001338034               0.000000000               0.000000000               0.000000000               0.000000000              -0.002447457               0.007318370               0.000477901              -0.001832588               0.003050295               0.001217707               0.000000000               0.000000000               0.000000000               0.000000000              -0.002191292               0.006728358               0.000475013              -0.001662775               0.002797022               0.001134247               0.000000000               0.000000000               0.000000000               0.000000000              -0.001888322               0.006191357               0.000441603              -0.001482037               0.002557777               0.001075740               0.000000000               0.000000000               0.000000000               0.000000000              -0.001569330               0.005694176               0.000405041              -0.001300268               0.002331462               0.001031195               0.000000000               0.000000000               0.000000000               0.000000000              -0.001248684               0.005239240               0.000367568              -0.001123159               0.002120782               0.000997623               0.000000000               0.000000000               0.000000000               0.000000000              -0.000934683               0.004832604               0.000323442              -0.000954579               0.001929045               0.000974466               0.000000000               0.000000000               0.000000000               0.000000000              -0.000639786               0.004491997               0.000270341              -0.000801417               0.001764456               0.000963039               0.000000000               0.000000000               0.000000000               0.000000000              -0.000385443               0.004220684               0.000204461              -0.000672125               0.001630922               0.000958797               0.000000000               0.000000000               0.000000000               0.000000000              -0.000190419               0.004025523               0.000129668              -0.000574596               0.001533360               0.000958763               0.000000000               0.000000000               0.000000000               0.000000000              -0.000062805               0.003909762               0.000061702              -0.000512271               0.001473998               0.000961727               0.000000000               0.000000000               0.000000000               0.000000000              -0.000006271               0.003868674               0.000017264              -0.000485935               0.001451523               0.000965589               0.000000000               0.000000000               0.000000000               0.000000000               0.000005382               0.003874779               0.000000725              -0.000482328               0.001452356               0.000970028               0.000000000               0.000000000               0.000000000               0.000000000               0.000156686               0.007440938              -0.002563926              -0.000871360               0.002770740               0.001899380               0.000000000               0.000000000               0.000000000               0.000000000              -0.001677115               0.007906267              -0.001508256              -0.001617198               0.003174462               0.001557263               0.000000000               0.000000000               0.000000000               0.000000000              -0.003098655               0.008553711              -0.000506636              -0.002231204               0.003594943               0.001363739               0.000000000               0.000000000               0.000000000               0.000000000              -0.003266222               0.008192490              -0.000173209              -0.002248889               0.003480432               0.001231543               0.000000000               0.000000000               0.000000000               0.000000000              -0.003041250               0.007623226              -0.000037262              -0.002093367               0.003238839               0.001145472               0.000000000               0.000000000               0.000000000               0.000000000              -0.002690282               0.007051994               0.000036229              -0.001890350               0.002980758               0.001090408               0.000000000               0.000000000               0.000000000               0.000000000              -0.002287436               0.006516896               0.000081357              -0.001672396               0.002729742               0.001057346               0.000000000               0.000000000               0.000000000               0.000000000              -0.001862309               0.006019172               0.000094774              -0.001450759               0.002489957               0.001039198               0.000000000               0.000000000               0.000000000               0.000000000              -0.001448214               0.005565406               0.000099928              -0.001238753               0.002268035               0.001029282               0.000000000               0.000000000               0.000000000               0.000000000              -0.001059097               0.005164166               0.000099228              -0.001042679               0.002068931               0.001026252               0.000000000               0.000000000               0.000000000               0.000000000              -0.000702840               0.004827103               0.000092404              -0.000866951               0.001898002               0.001031051               0.000000000               0.000000000               0.000000000               0.000000000              -0.000396509               0.004567706               0.000080539              -0.000719652               0.001762438               0.001042785               0.000000000               0.000000000               0.000000000               0.000000000              -0.000161840               0.004391898               0.000054821              -0.000609676               0.001667177               0.001057501               0.000000000               0.000000000               0.000000000               0.000000000              -0.000011108               0.004298979               0.000022804              -0.000541537               0.001613491               0.001071954               0.000000000               0.000000000               0.000000000               0.000000000               0.000058742               0.004282769              -0.000003130              -0.000513316               0.001598681               0.001085365               0.000000000               0.000000000               0.000000000               0.000000000               0.000055044               0.004321082              -0.000010756              -0.000519492               0.001613511               0.001094018               0.000000000               0.000000000               0.000000000               0.000000000               0.000039608               0.004367537              -0.000012953              -0.000531088               0.001632860               0.001101773               0.000000000               0.000000000               0.000000000               0.000000000              -0.001002163               0.005495335              -0.001758752              -0.001062726               0.002186002               0.001123275               0.000000000               0.000000000               0.000000000               0.000000000              -0.002569926               0.006706055              -0.001383313              -0.001801975               0.002835987               0.001034012               0.000000000               0.000000000               0.000000000               0.000000000              -0.003784400               0.007867189              -0.000946971              -0.002402543               0.003423218               0.001020675               0.000000000               0.000000000               0.000000000               0.000000000              -0.003702978               0.007735601              -0.000684065              -0.002355561               0.003363695               0.001008134               0.000000000               0.000000000               0.000000000               0.000000000              -0.003286582               0.007309648              -0.000517422              -0.002146169               0.003151915               0.001005746               0.000000000               0.000000000               0.000000000               0.000000000              -0.002789159               0.006838933              -0.000398694              -0.001900797               0.002913220               0.001012424               0.000000000               0.000000000               0.000000000               0.000000000              -0.002272348               0.006372100              -0.000301910              -0.001648639               0.002673558               0.001024919               0.000000000               0.000000000               0.000000000               0.000000000              -0.001756337               0.005923259              -0.000228533              -0.001399030               0.002440743               0.001041713               0.000000000               0.000000000               0.000000000               0.000000000              -0.001269103               0.005517502              -0.000175058              -0.001165598               0.002227682               0.001062083               0.000000000               0.000000000               0.000000000               0.000000000              -0.000826424               0.005164578              -0.000132104              -0.000955479               0.002040002               0.001084523               0.000000000               0.000000000               0.000000000               0.000000000              -0.000441068               0.004881637              -0.000092475              -0.000775603               0.001885730               0.001110127               0.000000000               0.000000000               0.000000000               0.000000000              -0.000137477               0.004679004              -0.000054319              -0.000636428               0.001771795               0.001135367               0.000000000               0.000000000               0.000000000               0.000000000               0.000075386               0.004561385              -0.000029386              -0.000541902               0.001701081               0.001159178               0.000000000               0.000000000               0.000000000               0.000000000               0.000196342               0.004531188              -0.000016013              -0.000492769               0.001674637               0.001181868               0.000000000               0.000000000               0.000000000               0.000000000               0.000235327               0.004581084              -0.000009882              -0.000484387               0.001688475               0.001204088               0.000000000               0.000000000               0.000000000               0.000000000               0.000214591               0.004685115              -0.000007319              -0.000505167               0.001730078               0.001224912               0.000000000               0.000000000               0.000000000               0.000000000               0.000185142               0.004755160              -0.000006255              -0.000524965               0.001760026               0.001235060               0.000000000               0.000000000               0.000000000               0.000000000              -0.002343850               0.003694891              -0.000915038              -0.001340802               0.001678552               0.000337749               0.000000000               0.000000000               0.000000000               0.000000000              -0.003327079               0.005317457              -0.001247460              -0.001912332               0.002409912               0.000497580               0.000000000               0.000000000               0.000000000               0.000000000              -0.004204291               0.006853709              -0.001408456              -0.002433317               0.003095652               0.000662335               0.000000000               0.000000000               0.000000000               0.000000000              -0.003982502               0.007073160              -0.001228056              -0.002377577               0.003150222               0.000772645               0.000000000               0.000000000               0.000000000               0.000000000              -0.003488007               0.006892417              -0.001033309              -0.002169550               0.003020632               0.000851083               0.000000000               0.000000000               0.000000000               0.000000000              -0.002934743               0.006600731              -0.000866274              -0.001925615               0.002842093               0.000916478               0.000000000               0.000000000               0.000000000               0.000000000              -0.002381711               0.006281655              -0.000719407              -0.001678345               0.002653312               0.000974968               0.000000000               0.000000000               0.000000000               0.000000000              -0.001841212               0.005947797              -0.000591713              -0.001433925               0.002460554               0.001026629               0.000000000               0.000000000               0.000000000               0.000000000              -0.001324396               0.005624870              -0.000489875              -0.001199754               0.002274856               0.001075102               0.000000000               0.000000000               0.000000000               0.000000000              -0.000852345               0.005332397              -0.000399318              -0.000986177               0.002106174               0.001119997               0.000000000               0.000000000               0.000000000               0.000000000              -0.000434567               0.005087461              -0.000308099              -0.000798893               0.001962101               0.001163208               0.000000000               0.000000000               0.000000000               0.000000000              -0.000089825               0.004897690              -0.000221694              -0.000645894               0.001847845               0.001201951               0.000000000               0.000000000               0.000000000               0.000000000               0.000169017               0.004775404              -0.000145266              -0.000533543               0.001769633               0.001236090               0.000000000               0.000000000               0.000000000               0.000000000               0.000340094               0.004730403              -0.000079286              -0.000463764               0.001731373               0.001267609               0.000000000               0.000000000               0.000000000               0.000000000               0.000434119               0.004763552              -0.000033959              -0.000432648               0.001732051               0.001299403               0.000000000               0.000000000               0.000000000               0.000000000               0.000469030               0.004863625              -0.000011071              -0.000432066               0.001765214               0.001333148               0.000000000               0.000000000               0.000000000               0.000000000               0.000462627               0.004924829              -0.000001514              -0.000442117               0.001788966               0.001346848               0.000000000               0.000000000               0.000000000               0.000000000              -0.004037543               0.002072367              -0.000101855              -0.001773121               0.001281821              -0.000491301               0.000000000               0.000000000               0.000000000               0.000000000              -0.004175395               0.003921577              -0.001058271              -0.002055966               0.001992500              -0.000063466               0.000000000               0.000000000               0.000000000               0.000000000              -0.004546663               0.005652989              -0.001782103              -0.002411617               0.002688182               0.000276566               0.000000000               0.000000000               0.000000000               0.000000000              -0.004191065               0.006205935              -0.001750121              -0.002347386               0.002851086               0.000503700               0.000000000               0.000000000               0.000000000               0.000000000              -0.003656048               0.006309055              -0.001559617              -0.002159645               0.002822879               0.000663234               0.000000000               0.000000000               0.000000000               0.000000000              -0.003082709               0.006235845              -0.001361772              -0.001935492               0.002723758               0.000788266               0.000000000               0.000000000               0.000000000               0.000000000              -0.002513002               0.006081871              -0.001180035              -0.001702606               0.002594805               0.000892199               0.000000000               0.000000000               0.000000000               0.000000000              -0.001958875               0.005883808              -0.001014603              -0.001470051               0.002451267               0.000981216               0.000000000               0.000000000               0.000000000               0.000000000              -0.001426662               0.005672628              -0.000866751              -0.001244074               0.002305548               0.001061474               0.000000000               0.000000000               0.000000000               0.000000000              -0.000932754               0.005460734              -0.000730081              -0.001032372               0.002164350               0.001131978               0.000000000               0.000000000               0.000000000               0.000000000              -0.000477739               0.005259403              -0.000599566              -0.000836576               0.002031975               0.001195400               0.000000000               0.000000000               0.000000000               0.000000000              -0.000072553               0.005078883              -0.000471746              -0.000662066               0.001913633               0.001251567               0.000000000               0.000000000               0.000000000               0.000000000               0.000264462               0.004942383              -0.000345236              -0.000518624               0.001820319               0.001301696               0.000000000               0.000000000               0.000000000               0.000000000               0.000518215               0.004863573              -0.000223873              -0.000413615               0.001759047               0.001345431               0.000000000               0.000000000               0.000000000               0.000000000               0.000686435               0.004853032              -0.000121480              -0.000349215               0.001734066               0.001384851               0.000000000               0.000000000               0.000000000               0.000000000               0.000775032               0.004906793              -0.000046841              -0.000322711               0.001743152               0.001420441               0.000000000               0.000000000               0.000000000               0.000000000               0.000792121               0.004943036              -0.000015883              -0.000320833               0.001754606               0.001433773               0.000000000               0.000000000               0.000000000               0.000000000              -0.005964084               0.000756393               0.000604060              -0.002331078               0.001029150              -0.001301928               0.000000000               0.000000000               0.000000000               0.000000000              -0.005147873               0.002599038              -0.000805384              -0.002255328               0.001618111              -0.000637217               0.000000000               0.000000000               0.000000000               0.000000000              -0.004831802               0.004272471              -0.001968730              -0.002345980               0.002206135              -0.000139845               0.000000000               0.000000000               0.000000000               0.000000000              -0.004271598               0.005059817              -0.002114366              -0.002234321               0.002431362               0.000197041               0.000000000               0.000000000               0.000000000               0.000000000              -0.003676129               0.005427201              -0.001978230              -0.002056944               0.002494696               0.000437752               0.000000000               0.000000000               0.000000000               0.000000000              -0.003085091               0.005580139              -0.001787387              -0.001854422               0.002478168               0.000623745               0.000000000               0.000000000               0.000000000               0.000000000              -0.002509438               0.005609138              -0.001595683              -0.001642178               0.002417086               0.000774908               0.000000000               0.000000000               0.000000000               0.000000000              -0.001954464               0.005575629              -0.001411112              -0.001429874               0.002335149               0.000905274               0.000000000               0.000000000               0.000000000               0.000000000              -0.001423170               0.005505129              -0.001237116              -0.001221827               0.002242300               0.001020473               0.000000000               0.000000000               0.000000000               0.000000000              -0.000914740               0.005402159              -0.001075679              -0.001018295               0.002140133               0.001121838               0.000000000               0.000000000               0.000000000               0.000000000              -0.000436239               0.005277442              -0.000922759              -0.000823268               0.002033552               0.001210284               0.000000000               0.000000000               0.000000000               0.000000000               0.000011531               0.005148090              -0.000772089              -0.000639186               0.001929075               0.001289889               0.000000000               0.000000000               0.000000000               0.000000000               0.000415133               0.005034407              -0.000615723              -0.000473625               0.001835994               0.001362369               0.000000000               0.000000000               0.000000000               0.000000000               0.000749365               0.004949994              -0.000447950              -0.000337737               0.001762560               0.001424824               0.000000000               0.000000000               0.000000000               0.000000000               0.000992190               0.004914761              -0.000280988              -0.000242273               0.001718995               0.001476722               0.000000000               0.000000000               0.000000000               0.000000000               0.001133798               0.004937968              -0.000129069              -0.000192071               0.001709997               0.001517925               0.000000000               0.000000000               0.000000000               0.000000000               0.001169124               0.004958388              -0.000056571              -0.000181377               0.001713238               0.001531862               0.000000000               0.000000000               0.000000000               0.000000000              -0.008003451              -0.000186397               0.001094302              -0.002977992               0.000930525              -0.002047467               0.000000000               0.000000000               0.000000000               0.000000000              -0.006195483               0.001424384              -0.000528930              -0.002501351               0.001308569              -0.001192782               0.000000000               0.000000000               0.000000000               0.000000000              -0.005083115               0.002838619              -0.001936838              -0.002260992               0.001699858              -0.000561134               0.000000000               0.000000000               0.000000000               0.000000000              -0.004246448               0.003735806              -0.002234728              -0.002059390               0.001931718              -0.000127672               0.000000000               0.000000000               0.000000000               0.000000000              -0.003549096               0.004301838              -0.002182345              -0.001868637               0.002056810               0.000188173               0.000000000               0.000000000               0.000000000               0.000000000              -0.002929536               0.004655791              -0.002031575              -0.001680546               0.002112096               0.000431550               0.000000000               0.000000000               0.000000000               0.000000000              -0.002358626               0.004873936              -0.001853368              -0.001493724               0.002122536               0.000628813               0.000000000               0.000000000               0.000000000               0.000000000              -0.001811920               0.005015491              -0.001671298              -0.001306404               0.002107281               0.000800877               0.000000000               0.000000000               0.000000000               0.000000000              -0.001285547               0.005094412              -0.001500364              -0.001118880               0.002071080               0.000952200               0.000000000               0.000000000               0.000000000               0.000000000              -0.000772078               0.005117722              -0.001339839              -0.000929243               0.002015638               0.001086395               0.000000000               0.000000000               0.000000000               0.000000000              -0.000274519               0.005105733              -0.001186544              -0.000741160               0.001948947               0.001207787               0.000000000               0.000000000               0.000000000               0.000000000               0.000209720               0.005074252              -0.001036220              -0.000555636               0.001876612               0.001320977               0.000000000               0.000000000               0.000000000               0.000000000               0.000664968               0.005026492              -0.000868762              -0.000378948               0.001801796               0.001422849               0.000000000               0.000000000               0.000000000               0.000000000               0.001070191               0.004976134              -0.000673978              -0.000220695               0.001732260               0.001511565               0.000000000               0.000000000               0.000000000               0.000000000               0.001403713               0.004950648              -0.000458651              -0.000092439               0.001681012               0.001588574               0.000000000               0.000000000               0.000000000               0.000000000               0.001639930               0.004963583              -0.000233328              -0.000005474               0.001656336               0.001650861               0.000000000               0.000000000               0.000000000               0.000000000               0.001733887               0.004979797              -0.000121068               0.000027732               0.001650672               0.001678404               0.000000000               0.000000000               0.000000000               0.000000000              -0.009971151              -0.000778645               0.001275329              -0.003641848               0.000954394              -0.002687454               0.000000000               0.000000000               0.000000000               0.000000000              -0.007236685               0.000465363              -0.000283083              -0.002771925               0.001079088              -0.001692836               0.000000000               0.000000000               0.000000000               0.000000000              -0.005309498               0.001492038              -0.001682797              -0.002177564               0.001223191              -0.000954372               0.000000000               0.000000000               0.000000000               0.000000000              -0.004149670               0.002383541              -0.002061564              -0.001854066               0.001412525              -0.000441541               0.000000000               0.000000000               0.000000000               0.000000000              -0.003315310               0.003069116              -0.002085882              -0.001626878               0.001565320              -0.000061558               0.000000000               0.000000000               0.000000000               0.000000000              -0.002646317               0.003584040              -0.001986304              -0.001440371               0.001674791               0.000234420               0.000000000               0.000000000               0.000000000               0.000000000              -0.002070625               0.003973559              -0.001842514              -0.001273177               0.001748898               0.000475721               0.000000000               0.000000000               0.000000000               0.000000000              -0.001532031               0.004275231              -0.001688583              -0.001108914               0.001794700               0.000685786               0.000000000               0.000000000               0.000000000               0.000000000              -0.001013740               0.004498436              -0.001541781              -0.000942455               0.001813615               0.000871159               0.000000000               0.000000000               0.000000000               0.000000000              -0.000507122               0.004653011              -0.001404070              -0.000771796               0.001808253               0.001036457               0.000000000               0.000000000               0.000000000               0.000000000               0.000000494               0.004764558              -0.001274688              -0.000595384               0.001786631               0.001191247               0.000000000               0.000000000               0.000000000               0.000000000               0.000509552               0.004843520              -0.001144582              -0.000414358               0.001752609               0.001338252               0.000000000               0.000000000               0.000000000               0.000000000               0.001011104               0.004893537              -0.000989457              -0.000232528               0.001708672               0.001476144               0.000000000               0.000000000               0.000000000               0.000000000               0.001493607               0.004921043              -0.000797905              -0.000055028               0.001658674               0.001603646               0.000000000               0.000000000               0.000000000               0.000000000               0.001944526               0.004942604              -0.000570570               0.000111370               0.001610395               0.001721765               0.000000000               0.000000000               0.000000000               0.000000000               0.002337682               0.004971042              -0.000305450               0.000255248               0.001571915               0.001827163               0.000000000               0.000000000               0.000000000               0.000000000               0.002559172               0.005003505              -0.000172060               0.000334248               0.001556402               0.001890650               0.000000000               0.000000000               0.000000000               0.000000000              -0.011617553              -0.001086878               0.001113697              -0.004220720               0.001044607              -0.003176113               0.000000000               0.000000000               0.000000000               0.000000000              -0.008133389              -0.000230375              -0.000110557              -0.003021222               0.000930276              -0.002090946               0.000000000               0.000000000               0.000000000               0.000000000              -0.005497682               0.000389191              -0.001235789              -0.002110278               0.000833150              -0.001277128               0.000000000               0.000000000               0.000000000               0.000000000              -0.004022595               0.001201010              -0.001586209              -0.001658597               0.000953195              -0.000705402               0.000000000               0.000000000               0.000000000               0.000000000              -0.003048078               0.001937127              -0.001649756              -0.001385168               0.001107423              -0.000277745               0.000000000               0.000000000               0.000000000               0.000000000              -0.002322222               0.002560039              -0.001597120              -0.001190836               0.001250282               0.000059446               0.000000000               0.000000000               0.000000000               0.000000000              -0.001725163               0.003075902              -0.001499861              -0.001031422               0.001369097               0.000337675               0.000000000               0.000000000               0.000000000               0.000000000              -0.001187985               0.003500370              -0.001389735              -0.000883039               0.001461124               0.000578085               0.000000000               0.000000000               0.000000000               0.000000000              -0.000677703               0.003847562              -0.001280970              -0.000735083               0.001527535               0.000792452               0.000000000               0.000000000               0.000000000               0.000000000              -0.000177993               0.004124626              -0.001181042              -0.000582325               0.001568970               0.000986645               0.000000000               0.000000000               0.000000000               0.000000000               0.000329866               0.004349963              -0.001090528              -0.000420045               0.001589988               0.001169943               0.000000000               0.000000000               0.000000000               0.000000000               0.000850527               0.004538292              -0.000997847              -0.000248339               0.001595528               0.001347189               0.000000000               0.000000000               0.000000000               0.000000000               0.001390309               0.004694096              -0.000880517              -0.000065397               0.001586482               0.001521085               0.000000000               0.000000000               0.000000000               0.000000000               0.001949237               0.004810707              -0.000729227               0.000129624               0.001560345               0.001689969               0.000000000               0.000000000               0.000000000               0.000000000               0.002528658               0.004896715              -0.000537933               0.000336154               0.001520170               0.001856325               0.000000000               0.000000000               0.000000000               0.000000000               0.003118272               0.004957931              -0.000295063               0.000549605               0.001469425               0.002019031               0.000000000               0.000000000               0.000000000               0.000000000               0.003518225               0.005019923              -0.000174345               0.000691837               0.001442679               0.002134516               0.000000000               0.000000000               0.000000000               0.000000000              -0.012712540              -0.001203533               0.000645630              -0.004616758               0.001137734              -0.003479024               0.000000000               0.000000000               0.000000000               0.000000000              -0.008741487              -0.000639892              -0.000026899              -0.003198069               0.000852720              -0.002345349               0.000000000               0.000000000               0.000000000               0.000000000              -0.005625550              -0.000336269              -0.000653523              -0.002067546               0.000577088              -0.001490458               0.000000000               0.000000000               0.000000000               0.000000000              -0.003913980               0.000386906              -0.000864717              -0.001516104               0.000634332              -0.000881772               0.000000000               0.000000000               0.000000000               0.000000000              -0.002835738               0.001139248              -0.000914417              -0.001205806               0.000781679              -0.000424127               0.000000000               0.000000000               0.000000000               0.000000000              -0.002067635               0.001816023              -0.000892445              -0.001002364               0.000939456              -0.000062909               0.000000000               0.000000000               0.000000000               0.000000000              -0.001451596               0.002400236              -0.000843829              -0.000844376               0.001081529               0.000237153               0.000000000               0.000000000               0.000000000               0.000000000              -0.000910316               0.002903220              -0.000786495              -0.000704269               0.001202487               0.000498217               0.000000000               0.000000000               0.000000000               0.000000000              -0.000400071               0.003334948              -0.000727400              -0.000566894               0.001300603               0.000733709               0.000000000               0.000000000               0.000000000               0.000000000               0.000098758               0.003698371              -0.000675364              -0.000425261               0.001374532               0.000949270               0.000000000               0.000000000               0.000000000               0.000000000               0.000603659               0.004010924              -0.000629224              -0.000274993               0.001428625               0.001153633               0.000000000               0.000000000               0.000000000               0.000000000               0.001127443               0.004288403              -0.000582498              -0.000113259               0.001467206               0.001353947               0.000000000               0.000000000               0.000000000               0.000000000               0.001686559               0.004525840              -0.000522729               0.000066729               0.001486355               0.001553084               0.000000000               0.000000000               0.000000000               0.000000000               0.002298462               0.004712189              -0.000441259               0.000272897               0.001479748               0.001752645               0.000000000               0.000000000               0.000000000               0.000000000               0.002979573               0.004850746              -0.000332911               0.000510991               0.001446569               0.001957560               0.000000000               0.000000000               0.000000000               0.000000000               0.003744933               0.004940849              -0.000186083               0.000786736               0.001384688               0.002171424               0.000000000               0.000000000               0.000000000               0.000000000               0.004315208               0.005030873              -0.000112913               0.000989334               0.001347163               0.002336497               0.000000000               0.000000000               0.000000000               0.000000000              -0.013097897              -0.001229924              -0.000000000              -0.004757968               0.001176007              -0.003581961               0.000000000               0.000000000               0.000000000               0.000000000              -0.008957093              -0.000774965              -0.000000000              -0.003262037               0.000829018              -0.002433019               0.000000000               0.000000000               0.000000000               0.000000000              -0.005670742              -0.000588206               0.000000000              -0.002053001               0.000488262              -0.001564740               0.000000000               0.000000000               0.000000000               0.000000000              -0.003871326               0.000098940               0.000000000              -0.001464113               0.000521014              -0.000943099               0.000000000               0.000000000               0.000000000               0.000000000              -0.002758881               0.000847249               0.000000000              -0.001140485               0.000662573              -0.000477912               0.000000000               0.000000000               0.000000000               0.000000000              -0.001975348               0.001537165               0.000000000              -0.000932899               0.000823349              -0.000109550               0.000000000               0.000000000               0.000000000               0.000000000              -0.001349727               0.002146980              -0.000000000              -0.000774518               0.000973825               0.000199307               0.000000000               0.000000000               0.000000000               0.000000000              -0.000805728               0.002676219               0.000000000              -0.000636674               0.001104288               0.000467615               0.000000000               0.000000000               0.000000000               0.000000000              -0.000293609               0.003135707              -0.000000000              -0.000502066               0.001212580               0.000710515               0.000000000               0.000000000               0.000000000               0.000000000               0.000208290               0.003534051              -0.000000000              -0.000363647               0.001299221               0.000935574               0.000000000               0.000000000               0.000000000               0.000000000               0.000712086               0.003884370               0.000000000              -0.000218514               0.001367615               0.001149101               0.000000000               0.000000000               0.000000000               0.000000000               0.001237947               0.004199798               0.000000000              -0.000060745               0.001420167               0.001359422               0.000000000               0.000000000               0.000000000               0.000000000               0.001801624               0.004470243              -0.000000000               0.000116827               0.001451124               0.001567951               0.000000000               0.000000000               0.000000000               0.000000000               0.002430480               0.004685441              -0.000000000               0.000325747               0.001453216               0.001778962               0.000000000               0.000000000               0.000000000               0.000000000               0.003150988               0.004845583              -0.000000000               0.000575917               0.001423206               0.001999123               0.000000000               0.000000000               0.000000000               0.000000000               0.003987843               0.004941778              -0.000000000               0.000877710               0.001354673               0.002232383               0.000000000               0.000000000               0.000000000               0.000000000               0.004631382               0.005039055              -0.000000000               0.001106875               0.001310710               0.002417585               0.000000000               0.000000000               0.000000000               0.000000000               0.000000000               0.000000000               0.000000000               0.000000000               0.000000000               0.000000000               0.000000000               0.000000000               0.000000000               0.000000000               0.000000000               0.000000000               0.000000000               0.000000000               0.000000000               0.000000000               0.000000000               0.000000000               0.000000000               0.000000000               0.000000000               0.000000000               0.000000000               0.000000000               0.000000000               0.000000000               0.000000000               0.000000000               0.000000000               0.000000000               0.000000000               0.000000000               0.000000000               0.000000000               0.000000000               0.000000000               0.000000000               0.000000000               0.000000000               0.000000000               0.000000000               0.000000000               0.000000000               0.000000000               0.000000000               0.000000000               0.000000000               0.000000000               0.000000000               0.000000000               0.000000000               0.000000000               0.000000000               0.000000000               0.000000000               0.000000000               0.000000000               0.000000000               0.000000000               0.000000000               0.000000000               0.000000000               0.000000000               0.000000000               0.000000000               0.000000000               0.000000000               0.000000000               0.000000000               0.000000000               0.000000000               0.000000000               0.000000000               0.000000000               0.000000000               0.000000000               0.000000000               0.000000000               0.000000000               0.000000000               0.000000000               0.000000000               0.000000000               0.000000000               0.000000000               0.000000000               0.000000000               0.000000000               0.000000000               0.000000000               0.000000000               0.000000000               0.000000000               0.000000000               0.000000000               0.000000000               0.000000000               0.000000000               0.000000000               0.000000000               0.000000000               0.000000000               0.000000000               0.000000000               0.000000000               0.000000000               0.000000000               0.000000000               0.000000000               0.000000000               0.000000000               0.000000000               0.000000000               0.000000000               0.000000000               0.000000000               0.000000000               0.000000000               0.000000000               0.000000000               0.000000000               0.000000000               0.000000000               0.000000000               0.000000000               0.000000000               0.000000000               0.000000000               0.000000000               0.000000000               0.000000000               0.000000000               0.000000000               0.000000000               0.000000000               0.000000000               0.000000000               0.000000000               0.000000000               0.000000000               0.000000000               0.000000000               0.000000000               0.000000000               0.000000000               0.000000000               0.000000000               0.000000000               0.000000000               0.000000000               0.000000000               0.000000000               0.000000000               0.000000000               0.000000000               0.000000000               0.000000000               0.000000000               0.000000000               0.000000000               0.000000000               0.000000000               0.000000000               0.000000000               0.000000000               0.000000000               0.000000000               0.000000000               0.000000000               0.000000000               0.002010143               0.020417348               0.001371630              -0.001798361               0.007405168               0.005606808               0.000000000               0.000000000               0.000000000               0.000000000               0.001794108               0.015697134               0.000610665              -0.001289348               0.005662108               0.004372760               0.000000000               0.000000000               0.000000000               0.000000000               0.002179493               0.011884357              -0.000137847              -0.000668233               0.004184157               0.003515924               0.000000000               0.000000000               0.000000000               0.000000000               0.001930713               0.009706762              -0.000444047              -0.000489327               0.003398664               0.002909337               0.000000000               0.000000000               0.000000000               0.000000000               0.001535449               0.008314128              -0.000562311              -0.000463472               0.002925839               0.002462367               0.000000000               0.000000000               0.000000000               0.000000000               0.001153571               0.007328197              -0.000594076              -0.000483435               0.002603853               0.002120418               0.000000000               0.000000000               0.000000000               0.000000000               0.000829129               0.006561255              -0.000584374              -0.000509232               0.002356807               0.001847575               0.000000000               0.000000000               0.000000000               0.000000000               0.000569243               0.005913185              -0.000557177              -0.000525681               0.002146269               0.001620588               0.000000000               0.000000000               0.000000000               0.000000000               0.000365186               0.005329953              -0.000523912              -0.000529298               0.001953066               0.001423768               0.000000000               0.000000000               0.000000000               0.000000000               0.000201013               0.004780644              -0.000491144              -0.000522199               0.001767598               0.001245399               0.000000000               0.000000000               0.000000000               0.000000000               0.000068967               0.004242728              -0.000457690              -0.000504477               0.001582387               0.001077910               0.000000000               0.000000000               0.000000000               0.000000000              -0.000026311               0.003704883              -0.000420599              -0.000472976               0.001392607               0.000919631               0.000000000               0.000000000               0.000000000               0.000000000              -0.000086600               0.003155835              -0.000377469              -0.000426954               0.001194252               0.000767299               0.000000000               0.000000000               0.000000000               0.000000000              -0.000115522               0.002580658              -0.000322419              -0.000365902               0.000982178               0.000616276               0.000000000               0.000000000               0.000000000               0.000000000              -0.000112488               0.001963366              -0.000247921              -0.000287603               0.000750317               0.000462713               0.000000000               0.000000000               0.000000000               0.000000000              -0.000070550               0.001289562              -0.000141709              -0.000187651               0.000492400               0.000304749               0.000000000               0.000000000               0.000000000               0.000000000              -0.000091455               0.000788196              -0.000089679              -0.000132820               0.000307002               0.000174183               0.000000000               0.000000000               0.000000000               0.000000000               0.002130692               0.019130387               0.002541085              -0.001592286               0.006907494               0.005315208               0.000000000               0.000000000               0.000000000               0.000000000               0.001601193               0.014891486               0.001127691              -0.001260985               0.005384107               0.004123122               0.000000000               0.000000000               0.000000000               0.000000000               0.001652129               0.011571150              -0.000247093              -0.000826843               0.004132626               0.003305783               0.000000000               0.000000000               0.000000000               0.000000000               0.001287935               0.009638350              -0.000786991              -0.000721816               0.003453357               0.002731540               0.000000000               0.000000000               0.000000000               0.000000000               0.000880095               0.008365266              -0.000985713              -0.000715621               0.003026935               0.002311313               0.000000000               0.000000000               0.000000000               0.000000000               0.000530503               0.007432080              -0.001034658              -0.000730070               0.002720692               0.001990622               0.000000000               0.000000000               0.000000000               0.000000000               0.000258973               0.006688523              -0.001013607              -0.000738949               0.002475802               0.001736853               0.000000000               0.000000000               0.000000000               0.000000000               0.000059826               0.006048226              -0.000960669              -0.000733592               0.002260586               0.001526994               0.000000000               0.000000000               0.000000000               0.000000000              -0.000082782               0.005466124              -0.000901129              -0.000714307               0.002060125               0.001345818               0.000000000               0.000000000               0.000000000               0.000000000              -0.000181264               0.004920458              -0.000840272              -0.000683030               0.001867813               0.001184783               0.000000000               0.000000000               0.000000000               0.000000000              -0.000244141               0.004390964              -0.000775321              -0.000640422               0.001677114               0.001036692               0.000000000               0.000000000               0.000000000               0.000000000              -0.000274701               0.003867582              -0.000707038              -0.000586459               0.001484667               0.000898208               0.000000000               0.000000000               0.000000000               0.000000000              -0.000273852               0.003346028              -0.000627912              -0.000520947               0.001288980               0.000768034               0.000000000               0.000000000               0.000000000               0.000000000              -0.000243011               0.002816526              -0.000526701              -0.000443194               0.001086564               0.000643370               0.000000000               0.000000000               0.000000000               0.000000000              -0.000182455               0.002274089              -0.000394203              -0.000352681               0.000875582               0.000522901               0.000000000               0.000000000               0.000000000               0.000000000              -0.000096643               0.001724568              -0.000219832              -0.000251812               0.000658788               0.000406976               0.000000000               0.000000000               0.000000000               0.000000000              -0.000089434               0.001343043              -0.000136725              -0.000201418               0.000514816               0.000313398               0.000000000               0.000000000               0.000000000               0.000000000               0.002222280               0.017183761               0.003346012              -0.001314614               0.006166067               0.004851453               0.000000000               0.000000000               0.000000000               0.000000000               0.001257652               0.013687290               0.001484442              -0.001239289               0.004975481               0.003736191               0.000000000               0.000000000               0.000000000               0.000000000               0.000845172               0.011101171              -0.000296557              -0.001070704               0.004057255               0.002986550               0.000000000               0.000000000               0.000000000               0.000000000               0.000353069               0.009518846              -0.000953710              -0.001057452               0.003525401               0.002467948               0.000000000               0.000000000               0.000000000               0.000000000              -0.000037785               0.008404284              -0.001180463              -0.001064703               0.003156301               0.002091598               0.000000000               0.000000000               0.000000000               0.000000000              -0.000312276               0.007542068              -0.001227274              -0.001059860               0.002867284               0.001807424               0.000000000               0.000000000               0.000000000               0.000000000              -0.000496435               0.006822831              -0.001192764              -0.001039015               0.002620592               0.001581578               0.000000000               0.000000000               0.000000000               0.000000000              -0.000604612               0.006189530              -0.001120630              -0.001000419               0.002396629               0.001396210               0.000000000               0.000000000               0.000000000               0.000000000              -0.000649090               0.005615730              -0.001043322              -0.000945373               0.002187015               0.001241643               0.000000000               0.000000000               0.000000000               0.000000000              -0.000649932               0.005080840              -0.000966870              -0.000878828               0.001986539               0.001107711               0.000000000               0.000000000               0.000000000               0.000000000              -0.000619111               0.004569055              -0.000883877              -0.000803297               0.001790768               0.000987472               0.000000000               0.000000000               0.000000000               0.000000000              -0.000559292               0.004074309              -0.000796675              -0.000719022               0.001597763               0.000878742               0.000000000               0.000000000               0.000000000               0.000000000              -0.000472907               0.003593595              -0.000697947              -0.000626538               0.001406699               0.000780161               0.000000000               0.000000000               0.000000000               0.000000000              -0.000361332               0.003131290              -0.000572384              -0.000526910               0.001219389               0.000692480               0.000000000               0.000000000               0.000000000               0.000000000              -0.000234459               0.002697557              -0.000415866              -0.000425116               0.001040882               0.000615766               0.000000000               0.000000000               0.000000000               0.000000000              -0.000113264               0.002310145              -0.000225331              -0.000331241               0.000880454               0.000549213               0.000000000               0.000000000               0.000000000               0.000000000              -0.000080972               0.002074600              -0.000133272              -0.000289689               0.000788089               0.000498400               0.000000000               0.000000000               0.000000000               0.000000000               0.002153559               0.014807698               0.003712016              -0.001043378               0.005283642               0.004240264               0.000000000               0.000000000               0.000000000               0.000000000               0.000739585               0.012245298               0.001665561              -0.001253316               0.004499497               0.003246181               0.000000000               0.000000000               0.000000000               0.000000000              -0.000146022               0.010528258              -0.000260490              -0.001370787               0.003966313               0.002595526               0.000000000               0.000000000               0.000000000               0.000000000              -0.000710185               0.009322263              -0.000918875              -0.001431599               0.003584589               0.002152990               0.000000000               0.000000000               0.000000000               0.000000000              -0.001030906               0.008372862              -0.001124746              -0.001433194               0.003268657               0.001835463               0.000000000               0.000000000               0.000000000               0.000000000              -0.001190204               0.007580014              -0.001158077              -0.001393825               0.002991254               0.001597429               0.000000000               0.000000000               0.000000000               0.000000000              -0.001246559               0.006892494              -0.001114478              -0.001329018               0.002740481               0.001411463               0.000000000               0.000000000               0.000000000               0.000000000              -0.001229892               0.006279114              -0.001038363              -0.001246096               0.002508382               0.001262287               0.000000000               0.000000000               0.000000000               0.000000000              -0.001154392               0.005724103              -0.000960274              -0.001148407               0.002290818               0.001142410               0.000000000               0.000000000               0.000000000               0.000000000              -0.001040871               0.005207723              -0.000882220              -0.001041290               0.002082987               0.001041697               0.000000000               0.000000000               0.000000000               0.000000000              -0.000902509               0.004720736              -0.000798363              -0.000928531               0.001883073               0.000954542               0.000000000               0.000000000               0.000000000               0.000000000              -0.000742178               0.004263387              -0.000709399              -0.000811238               0.001691527               0.000880289               0.000000000               0.000000000               0.000000000               0.000000000              -0.000565760               0.003839527              -0.000606930              -0.000692099               0.001510529               0.000818430               0.000000000               0.000000000               0.000000000               0.000000000              -0.000386095               0.003460434              -0.000481544              -0.000577339               0.001345913               0.000768574               0.000000000               0.000000000               0.000000000               0.000000000              -0.000221223               0.003146569              -0.000331658              -0.000476279               0.001207605               0.000731327               0.000000000               0.000000000               0.000000000               0.000000000              -0.000096491               0.002915155              -0.000168692              -0.000400578               0.001105234               0.000704657               0.000000000               0.000000000               0.000000000               0.000000000              -0.000054046               0.002808726              -0.000091095              -0.000371357               0.001060018               0.000688661               0.000000000               0.000000000               0.000000000               0.000000000               0.001811982               0.012257296               0.003647032              -0.000852670               0.004369947               0.003517277               0.000000000               0.000000000               0.000000000               0.000000000               0.000053303               0.010726818               0.001694676              -0.001320861               0.004015857               0.002694996               0.000000000               0.000000000               0.000000000               0.000000000              -0.001207423               0.009898481              -0.000117505              -0.001690089               0.003862824               0.002172734               0.000000000               0.000000000               0.000000000               0.000000000              -0.001749950               0.009034822              -0.000689101              -0.001785580               0.003606771               0.001821191               0.000000000               0.000000000               0.000000000               0.000000000              -0.001932219               0.008231094              -0.000852515              -0.001753465               0.003328159               0.001574694               0.000000000               0.000000000               0.000000000               0.000000000              -0.001934451               0.007503414              -0.000880050              -0.001663342               0.003055560               0.001392218               0.000000000               0.000000000               0.000000000               0.000000000              -0.001838923               0.006859968              -0.000845447              -0.001547088               0.002802329               0.001255241               0.000000000               0.000000000               0.000000000               0.000000000              -0.001677767               0.006283423              -0.000781523              -0.001414587               0.002565982               0.001151395               0.000000000               0.000000000               0.000000000               0.000000000              -0.001475536               0.005754285              -0.000716958              -0.001272609               0.002342279               0.001069670               0.000000000               0.000000000               0.000000000               0.000000000              -0.001250289               0.005262579              -0.000653480              -0.001126678               0.002129735               0.001003057               0.000000000               0.000000000               0.000000000               0.000000000              -0.001007857               0.004809082              -0.000583310              -0.000979079               0.001929371               0.000950292               0.000000000               0.000000000               0.000000000               0.000000000              -0.000762607               0.004400016              -0.000505144              -0.000835978               0.001745317               0.000909339               0.000000000               0.000000000               0.000000000               0.000000000              -0.000528031               0.004044548              -0.000412163              -0.000703578               0.001582695               0.000879117               0.000000000               0.000000000               0.000000000               0.000000000              -0.000318565               0.003754324              -0.000303835              -0.000588751               0.001447679               0.000858928               0.000000000               0.000000000               0.000000000               0.000000000              -0.000154515               0.003543812              -0.000188133              -0.000500918               0.001348232               0.000847313               0.000000000               0.000000000               0.000000000               0.000000000              -0.000054470               0.003424091              -0.000083647              -0.000448436               0.001290831               0.000842395               0.000000000               0.000000000               0.000000000               0.000000000              -0.000022181               0.003390562              -0.000038267              -0.000432137               0.001274222               0.000842085               0.000000000               0.000000000               0.000000000               0.000000000               0.001135525               0.009750566               0.003228988              -0.000793000               0.003514489               0.002721489               0.000000000               0.000000000               0.000000000               0.000000000              -0.000768998               0.009251542               0.001625050              -0.001444814               0.003565421               0.002120606               0.000000000               0.000000000               0.000000000               0.000000000              -0.002225722               0.009237785               0.000142146              -0.001989364               0.003742352               0.001752988               0.000000000               0.000000000               0.000000000               0.000000000              -0.002630246               0.008658629              -0.000304125              -0.002068666               0.003575736               0.001507070               0.000000000               0.000000000               0.000000000               0.000000000              -0.002623489               0.007975720              -0.000437816              -0.001980768               0.003318803               0.001338034               0.000000000               0.000000000               0.000000000               0.000000000              -0.002447457               0.007318370              -0.000477901              -0.001832588               0.003050295               0.001217707               0.000000000               0.000000000               0.000000000               0.000000000              -0.002191292               0.006728358              -0.000475013              -0.001662775               0.002797022               0.001134247               0.000000000               0.000000000               0.000000000               0.000000000              -0.001888322               0.006191357              -0.000441603              -0.001482037               0.002557777               0.001075740               0.000000000               0.000000000               0.000000000               0.000000000              -0.001569330               0.005694176              -0.000405041              -0.001300268               0.002331462               0.001031195               0.000000000               0.000000000               0.000000000               0.000000000              -0.001248684               0.005239240              -0.000367568              -0.001123159               0.002120782               0.000997623               0.000000000               0.000000000               0.000000000               0.000000000              -0.000934683               0.004832604              -0.000323442              -0.000954579               0.001929045               0.000974466               0.000000000               0.000000000               0.000000000               0.000000000              -0.000639786               0.004491997              -0.000270341              -0.000801417               0.001764456               0.000963039               0.000000000               0.000000000               0.000000000               0.000000000              -0.000385443               0.004220684              -0.000204461              -0.000672125               0.001630922               0.000958797               0.000000000               0.000000000               0.000000000               0.000000000              -0.000190419               0.004025523              -0.000129668              -0.000574596               0.001533360               0.000958763               0.000000000               0.000000000               0.000000000               0.000000000              -0.000062805               0.003909762              -0.000061702              -0.000512271               0.001473998               0.000961727               0.000000000               0.000000000               0.000000000               0.000000000              -0.000006271               0.003868674              -0.000017264              -0.000485935               0.001451523               0.000965589               0.000000000               0.000000000               0.000000000               0.000000000               0.000005382               0.003874779              -0.000000725              -0.000482328               0.001452356               0.000970028               0.000000000               0.000000000               0.000000000               0.000000000               0.000156686               0.007440938               0.002563926              -0.000871360               0.002770740               0.001899380               0.000000000               0.000000000               0.000000000               0.000000000              -0.001677115               0.007906267               0.001508256              -0.001617198               0.003174462               0.001557263               0.000000000               0.000000000               0.000000000               0.000000000              -0.003098655               0.008553711               0.000506636              -0.002231204               0.003594943               0.001363739               0.000000000               0.000000000               0.000000000               0.000000000              -0.003266222               0.008192490               0.000173209              -0.002248889               0.003480432               0.001231543               0.000000000               0.000000000               0.000000000               0.000000000              -0.003041250               0.007623226               0.000037262              -0.002093367               0.003238839               0.001145472               0.000000000               0.000000000               0.000000000               0.000000000              -0.002690282               0.007051994              -0.000036229              -0.001890350               0.002980758               0.001090408               0.000000000               0.000000000               0.000000000               0.000000000              -0.002287436               0.006516896              -0.000081357              -0.001672396               0.002729742               0.001057346               0.000000000               0.000000000               0.000000000               0.000000000              -0.001862309               0.006019172              -0.000094774              -0.001450759               0.002489957               0.001039198               0.000000000               0.000000000               0.000000000               0.000000000              -0.001448214               0.005565406              -0.000099928              -0.001238753               0.002268035               0.001029282               0.000000000               0.000000000               0.000000000               0.000000000              -0.001059097               0.005164166              -0.000099228              -0.001042679               0.002068931               0.001026252               0.000000000               0.000000000               0.000000000               0.000000000              -0.000702840               0.004827103              -0.000092404              -0.000866951               0.001898002               0.001031051               0.000000000               0.000000000               0.000000000               0.000000000              -0.000396509               0.004567706              -0.000080539              -0.000719652               0.001762438               0.001042785               0.000000000               0.000000000               0.000000000               0.000000000              -0.000161840               0.004391898              -0.000054821              -0.000609676               0.001667177               0.001057501               0.000000000               0.000000000               0.000000000               0.000000000              -0.000011108               0.004298979              -0.000022804              -0.000541537               0.001613491               0.001071954               0.000000000               0.000000000               0.000000000               0.000000000               0.000058742               0.004282769               0.000003130              -0.000513316               0.001598681               0.001085365               0.000000000               0.000000000               0.000000000               0.000000000               0.000055044               0.004321082               0.000010756              -0.000519492               0.001613511               0.001094018               0.000000000               0.000000000               0.000000000               0.000000000               0.000039608               0.004367537               0.000012953              -0.000531088               0.001632860               0.001101773               0.000000000               0.000000000               0.000000000               0.000000000              -0.001002163               0.005495335               0.001758752              -0.001062726               0.002186002               0.001123275               0.000000000               0.000000000               0.000000000               0.000000000              -0.002569926               0.006706055               0.001383313              -0.001801975               0.002835987               0.001034012               0.000000000               0.000000000               0.000000000               0.000000000              -0.003784400               0.007867189               0.000946971              -0.002402543               0.003423218               0.001020675               0.000000000               0.000000000               0.000000000               0.000000000              -0.003702978               0.007735601               0.000684065              -0.002355561               0.003363695               0.001008134               0.000000000               0.000000000               0.000000000               0.000000000              -0.003286582               0.007309648               0.000517422              -0.002146169               0.003151915               0.001005746               0.000000000               0.000000000               0.000000000               0.000000000              -0.002789159               0.006838933               0.000398694              -0.001900797               0.002913220               0.001012424               0.000000000               0.000000000               0.000000000               0.000000000              -0.002272348               0.006372100               0.000301910              -0.001648639               0.002673558               0.001024919               0.000000000               0.000000000               0.000000000               0.000000000              -0.001756337               0.005923259               0.000228533              -0.001399030               0.002440743               0.001041713               0.000000000               0.000000000               0.000000000               0.000000000              -0.001269103               0.005517502               0.000175058              -0.001165598               0.002227682               0.001062083               0.000000000               0.000000000               0.000000000               0.000000000              -0.000826424               0.005164578               0.000132104              -0.000955479               0.002040002               0.001084523               0.000000000               0.000000000               0.000000000               0.000000000              -0.000441068               0.004881637               0.000092475              -0.000775603               0.001885730               0.001110127               0.000000000               0.000000000               0.000000000               0.000000000              -0.000137477               0.004679004               0.000054319              -0.000636428               0.001771795               0.001135367               0.000000000               0.000000000               0.000000000               0.000000000               0.000075386               0.004561385               0.000029386              -0.000541902               0.001701081               0.001159178               0.000000000               0.000000000               0.000000000               0.000000000               0.000196342               0.004531188               0.000016013              -0.000492769               0.001674637               0.001181868               0.000000000               0.000000000               0.000000000               0.000000000               0.000235327               0.004581084               0.000009882              -0.000484387               0.001688475               0.001204088               0.000000000               0.000000000               0.000000000               0.000000000               0.000214591               0.004685115               0.000007319              -0.000505167               0.001730078               0.001224912               0.000000000               0.000000000               0.000000000               0.000000000               0.000185142               0.004755160               0.000006255              -0.000524965               0.001760026               0.001235060               0.000000000               0.000000000               0.000000000               0.000000000              -0.002343850               0.003694891               0.000915038              -0.001340802               0.001678552               0.000337749               0.000000000               0.000000000               0.000000000               0.000000000              -0.003327079               0.005317457               0.001247460              -0.001912332               0.002409912               0.000497580               0.000000000               0.000000000               0.000000000               0.000000000              -0.004204291               0.006853709               0.001408456              -0.002433317               0.003095652               0.000662335               0.000000000               0.000000000               0.000000000               0.000000000              -0.003982502               0.007073160               0.001228056              -0.002377577               0.003150222               0.000772645               0.000000000               0.000000000               0.000000000               0.000000000              -0.003488007               0.006892417               0.001033309              -0.002169550               0.003020632               0.000851083               0.000000000               0.000000000               0.000000000               0.000000000              -0.002934743               0.006600731               0.000866274              -0.001925615               0.002842093               0.000916478               0.000000000               0.000000000               0.000000000               0.000000000              -0.002381711               0.006281655               0.000719407              -0.001678345               0.002653312               0.000974968               0.000000000               0.000000000               0.000000000               0.000000000              -0.001841212               0.005947797               0.000591713              -0.001433925               0.002460554               0.001026629               0.000000000               0.000000000               0.000000000               0.000000000              -0.001324396               0.005624870               0.000489875              -0.001199754               0.002274856               0.001075102               0.000000000               0.000000000               0.000000000               0.000000000              -0.000852345               0.005332397               0.000399318              -0.000986177               0.002106174               0.001119997               0.000000000               0.000000000               0.000000000               0.000000000              -0.000434567               0.005087461               0.000308099              -0.000798893               0.001962101               0.001163208               0.000000000               0.000000000               0.000000000               0.000000000              -0.000089825               0.004897690               0.000221694              -0.000645894               0.001847845               0.001201951               0.000000000               0.000000000               0.000000000               0.000000000               0.000169017               0.004775404               0.000145266              -0.000533543               0.001769633               0.001236090               0.000000000               0.000000000               0.000000000               0.000000000               0.000340094               0.004730403               0.000079286              -0.000463764               0.001731373               0.001267609               0.000000000               0.000000000               0.000000000               0.000000000               0.000434119               0.004763552               0.000033959              -0.000432648               0.001732051               0.001299403               0.000000000               0.000000000               0.000000000               0.000000000               0.000469030               0.004863625               0.000011071              -0.000432066               0.001765214               0.001333148               0.000000000               0.000000000               0.000000000               0.000000000               0.000462627               0.004924829               0.000001514              -0.000442117               0.001788966               0.001346848               0.000000000               0.000000000               0.000000000               0.000000000              -0.004037543               0.002072367               0.000101855              -0.001773121               0.001281821              -0.000491301               0.000000000               0.000000000               0.000000000               0.000000000              -0.004175395               0.003921577               0.001058271              -0.002055966               0.001992500              -0.000063466               0.000000000               0.000000000               0.000000000               0.000000000              -0.004546663               0.005652989               0.001782103              -0.002411617               0.002688182               0.000276566               0.000000000               0.000000000               0.000000000               0.000000000              -0.004191065               0.006205935               0.001750121              -0.002347386               0.002851086               0.000503700               0.000000000               0.000000000               0.000000000               0.000000000              -0.003656048               0.006309055               0.001559617              -0.002159645               0.002822879               0.000663234               0.000000000               0.000000000               0.000000000               0.000000000              -0.003082709               0.006235845               0.001361772              -0.001935492               0.002723758               0.000788266               0.000000000               0.000000000               0.000000000               0.000000000              -0.002513002               0.006081871               0.001180035              -0.001702606               0.002594805               0.000892199               0.000000000               0.000000000               0.000000000               0.000000000              -0.001958875               0.005883808               0.001014603              -0.001470051               0.002451267               0.000981216               0.000000000               0.000000000               0.000000000               0.000000000              -0.001426662               0.005672628               0.000866751              -0.001244074               0.002305548               0.001061474               0.000000000               0.000000000               0.000000000               0.000000000              -0.000932754               0.005460734               0.000730081              -0.001032372               0.002164350               0.001131978               0.000000000               0.000000000               0.000000000               0.000000000              -0.000477739               0.005259403               0.000599566              -0.000836576               0.002031975               0.001195400               0.000000000               0.000000000               0.000000000               0.000000000              -0.000072553               0.005078883               0.000471746              -0.000662066               0.001913633               0.001251567               0.000000000               0.000000000               0.000000000               0.000000000               0.000264462               0.004942383               0.000345236              -0.000518624               0.001820319               0.001301696               0.000000000               0.000000000               0.000000000               0.000000000               0.000518215               0.004863573               0.000223873              -0.000413615               0.001759047               0.001345431               0.000000000               0.000000000               0.000000000               0.000000000               0.000686435               0.004853032               0.000121480              -0.000349215               0.001734066               0.001384851               0.000000000               0.000000000               0.000000000               0.000000000               0.000775032               0.004906793               0.000046841              -0.000322711               0.001743152               0.001420441               0.000000000               0.000000000               0.000000000               0.000000000               0.000792121               0.004943036               0.000015883              -0.000320833               0.001754606               0.001433773               0.000000000               0.000000000               0.000000000               0.000000000              -0.005964084               0.000756393              -0.000604060              -0.002331078               0.001029150              -0.001301928               0.000000000               0.000000000               0.000000000               0.000000000              -0.005147873               0.002599038               0.000805384              -0.002255328               0.001618111              -0.000637217               0.000000000               0.000000000               0.000000000               0.000000000              -0.004831802               0.004272471               0.001968730              -0.002345980               0.002206135              -0.000139845               0.000000000               0.000000000               0.000000000               0.000000000              -0.004271598               0.005059817               0.002114366              -0.002234321               0.002431362               0.000197041               0.000000000               0.000000000               0.000000000               0.000000000              -0.003676129               0.005427201               0.001978230              -0.002056944               0.002494696               0.000437752               0.000000000               0.000000000               0.000000000               0.000000000              -0.003085091               0.005580139               0.001787387              -0.001854422               0.002478168               0.000623745               0.000000000               0.000000000               0.000000000               0.000000000              -0.002509438               0.005609138               0.001595683              -0.001642178               0.002417086               0.000774908               0.000000000               0.000000000               0.000000000               0.000000000              -0.001954464               0.005575629               0.001411112              -0.001429874               0.002335149               0.000905274               0.000000000               0.000000000               0.000000000               0.000000000              -0.001423170               0.005505129               0.001237116              -0.001221827               0.002242300               0.001020473               0.000000000               0.000000000               0.000000000               0.000000000              -0.000914740               0.005402159               0.001075679              -0.001018295               0.002140133               0.001121838               0.000000000               0.000000000               0.000000000               0.000000000              -0.000436239               0.005277442               0.000922759              -0.000823268               0.002033552               0.001210284               0.000000000               0.000000000               0.000000000               0.000000000               0.000011531               0.005148090               0.000772089              -0.000639186               0.001929075               0.001289889               0.000000000               0.000000000               0.000000000               0.000000000               0.000415133               0.005034407               0.000615723              -0.000473625               0.001835994               0.001362369               0.000000000               0.000000000               0.000000000               0.000000000               0.000749365               0.004949994               0.000447950              -0.000337737               0.001762560               0.001424824               0.000000000               0.000000000               0.000000000               0.000000000               0.000992190               0.004914761               0.000280988              -0.000242273               0.001718995               0.001476722               0.000000000               0.000000000               0.000000000               0.000000000               0.001133798               0.004937968               0.000129069              -0.000192071               0.001709997               0.001517925               0.000000000               0.000000000               0.000000000               0.000000000               0.001169124               0.004958388               0.000056571              -0.000181377               0.001713238               0.001531862               0.000000000               0.000000000               0.000000000               0.000000000              -0.008003451              -0.000186397              -0.001094302              -0.002977992               0.000930525              -0.002047467               0.000000000               0.000000000               0.000000000               0.000000000              -0.006195483               0.001424384               0.000528930              -0.002501351               0.001308569              -0.001192782               0.000000000               0.000000000               0.000000000               0.000000000              -0.005083115               0.002838619               0.001936838              -0.002260992               0.001699858              -0.000561134               0.000000000               0.000000000               0.000000000               0.000000000              -0.004246448               0.003735806               0.002234728              -0.002059390               0.001931718              -0.000127672               0.000000000               0.000000000               0.000000000               0.000000000              -0.003549096               0.004301838               0.002182345              -0.001868637               0.002056810               0.000188173               0.000000000               0.000000000               0.000000000               0.000000000              -0.002929536               0.004655791               0.002031575              -0.001680546               0.002112096               0.000431550               0.000000000               0.000000000               0.000000000               0.000000000              -0.002358626               0.004873936               0.001853368              -0.001493724               0.002122536               0.000628813               0.000000000               0.000000000               0.000000000               0.000000000              -0.001811920               0.005015491               0.001671298              -0.001306404               0.002107281               0.000800877               0.000000000               0.000000000               0.000000000               0.000000000              -0.001285547               0.005094412               0.001500364              -0.001118880               0.002071080               0.000952200               0.000000000               0.000000000               0.000000000               0.000000000              -0.000772078               0.005117722               0.001339839              -0.000929243               0.002015638               0.001086395               0.000000000               0.000000000               0.000000000               0.000000000              -0.000274519               0.005105733               0.001186544              -0.000741160               0.001948947               0.001207787               0.000000000               0.000000000               0.000000000               0.000000000               0.000209720               0.005074252               0.001036220              -0.000555636               0.001876612               0.001320977               0.000000000               0.000000000               0.000000000               0.000000000               0.000664968               0.005026492               0.000868762              -0.000378948               0.001801796               0.001422849               0.000000000               0.000000000               0.000000000               0.000000000               0.001070191               0.004976134               0.000673978              -0.000220695               0.001732260               0.001511565               0.000000000               0.000000000               0.000000000               0.000000000               0.001403713               0.004950648               0.000458651              -0.000092439               0.001681012               0.001588574               0.000000000               0.000000000               0.000000000               0.000000000               0.001639930               0.004963583               0.000233328              -0.000005474               0.001656336               0.001650861               0.000000000               0.000000000               0.000000000               0.000000000               0.001733887               0.004979797               0.000121068               0.000027732               0.001650672               0.001678404               0.000000000               0.000000000               0.000000000               0.000000000              -0.009971151              -0.000778645              -0.001275329              -0.003641848               0.000954394              -0.002687454               0.000000000               0.000000000               0.000000000               0.000000000              -0.007236685               0.000465363               0.000283083              -0.002771925               0.001079088              -0.001692836               0.000000000               0.000000000               0.000000000               0.000000000              -0.005309498               0.001492038               0.001682797              -0.002177564               0.001223191              -0.000954372               0.000000000               0.000000000               0.000000000               0.000000000              -0.004149670               0.002383541               0.002061564              -0.001854066               0.001412525              -0.000441541               0.000000000               0.000000000               0.000000000               0.000000000              -0.003315310               0.003069116               0.002085882              -0.001626878               0.001565320              -0.000061558               0.000000000               0.000000000               0.000000000               0.000000000              -0.002646317               0.003584040               0.001986304              -0.001440371               0.001674791               0.000234420               0.000000000               0.000000000               0.000000000               0.000000000              -0.002070625               0.003973559               0.001842514              -0.001273177               0.001748898               0.000475721               0.000000000               0.000000000               0.000000000               0.000000000              -0.001532031               0.004275231               0.001688583              -0.001108914               0.001794700               0.000685786               0.000000000               0.000000000               0.000000000               0.000000000              -0.001013740               0.004498436               0.001541781              -0.000942455               0.001813615               0.000871159               0.000000000               0.000000000               0.000000000               0.000000000              -0.000507122               0.004653011               0.001404070              -0.000771796               0.001808253               0.001036457               0.000000000               0.000000000               0.000000000               0.000000000               0.000000494               0.004764558               0.001274688              -0.000595384               0.001786631               0.001191247               0.000000000               0.000000000               0.000000000               0.000000000               0.000509552               0.004843520               0.001144582              -0.000414358               0.001752609               0.001338252               0.000000000               0.000000000               0.000000000               0.000000000               0.001011104               0.004893537               0.000989457              -0.000232528               0.001708672               0.001476144               0.000000000               0.000000000               0.000000000               0.000000000               0.001493607               0.004921043               0.000797905              -0.000055028               0.001658674               0.001603646               0.000000000               0.000000000               0.000000000               0.000000000               0.001944526               0.004942604               0.000570570               0.000111370               0.001610395               0.001721765               0.000000000               0.000000000               0.000000000               0.000000000               0.002337682               0.004971042               0.000305450               0.000255248               0.001571915               0.001827163               0.000000000               0.000000000               0.000000000               0.000000000               0.002559172               0.005003505               0.000172060               0.000334248               0.001556402               0.001890650               0.000000000               0.000000000               0.000000000               0.000000000              -0.011617553              -0.001086878              -0.001113697              -0.004220720               0.001044607              -0.003176113               0.000000000               0.000000000               0.000000000               0.000000000              -0.008133389              -0.000230375               0.000110557              -0.003021222               0.000930276              -0.002090946               0.000000000               0.000000000               0.000000000               0.000000000              -0.005497682               0.000389191               0.001235789              -0.002110278               0.000833150              -0.001277128               0.000000000               0.000000000               0.000000000               0.000000000              -0.004022595               0.001201010               0.001586209              -0.001658597               0.000953195              -0.000705402               0.000000000               0.000000000               0.000000000               0.000000000              -0.003048078               0.001937127               0.001649756              -0.001385168               0.001107423              -0.000277745               0.000000000               0.000000000               0.000000000               0.000000000              -0.002322222               0.002560039               0.001597120              -0.001190836               0.001250282               0.000059446               0.000000000               0.000000000               0.000000000               0.000000000              -0.001725163               0.003075902               0.001499861              -0.001031422               0.001369097               0.000337675               0.000000000               0.000000000               0.000000000               0.000000000              -0.001187985               0.003500370               0.001389735              -0.000883039               0.001461124               0.000578085               0.000000000               0.000000000               0.000000000               0.000000000              -0.000677703               0.003847562               0.001280970              -0.000735083               0.001527535               0.000792452               0.000000000               0.000000000               0.000000000               0.000000000              -0.000177993               0.004124626               0.001181042              -0.000582325               0.001568970               0.000986645               0.000000000               0.000000000               0.000000000               0.000000000               0.000329866               0.004349963               0.001090528              -0.000420045               0.001589988               0.001169943               0.000000000               0.000000000               0.000000000               0.000000000               0.000850527               0.004538292               0.000997847              -0.000248339               0.001595528               0.001347189               0.000000000               0.000000000               0.000000000               0.000000000               0.001390309               0.004694096               0.000880517              -0.000065397               0.001586482               0.001521085               0.000000000               0.000000000               0.000000000               0.000000000               0.001949237               0.004810707               0.000729227               0.000129624               0.001560345               0.001689969               0.000000000               0.000000000               0.000000000               0.000000000               0.002528658               0.004896715               0.000537933               0.000336154               0.001520170               0.001856325               0.000000000               0.000000000               0.000000000               0.000000000               0.003118272               0.004957931               0.000295063               0.000549605               0.001469425               0.002019031               0.000000000               0.000000000               0.000000000               0.000000000               0.003518225               0.005019923               0.000174345               0.000691837               0.001442679               0.002134516               0.000000000               0.000000000               0.000000000               0.000000000              -0.012712540              -0.001203533              -0.000645630              -0.004616758               0.001137734              -0.003479024               0.000000000               0.000000000               0.000000000               0.000000000              -0.008741487              -0.000639892               0.000026899              -0.003198069               0.000852720              -0.002345349               0.000000000               0.000000000               0.000000000               0.000000000              -0.005625550              -0.000336269               0.000653523              -0.002067546               0.000577088              -0.001490458               0.000000000               0.000000000               0.000000000               0.000000000              -0.003913980               0.000386906               0.000864717              -0.001516104               0.000634332              -0.000881772               0.000000000               0.000000000               0.000000000               0.000000000              -0.002835738               0.001139248               0.000914417              -0.001205806               0.000781679              -0.000424127               0.000000000               0.000000000               0.000000000               0.000000000              -0.002067635               0.001816023               0.000892445              -0.001002364               0.000939456              -0.000062909               0.000000000               0.000000000               0.000000000               0.000000000              -0.001451596               0.002400236               0.000843829              -0.000844376               0.001081529               0.000237153               0.000000000               0.000000000               0.000000000               0.000000000              -0.000910316               0.002903220               0.000786495              -0.000704269               0.001202487               0.000498217               0.000000000               0.000000000               0.000000000               0.000000000              -0.000400071               0.003334948               0.000727400              -0.000566894               0.001300603               0.000733709               0.000000000               0.000000000               0.000000000               0.000000000               0.000098758               0.003698371               0.000675364              -0.000425261               0.001374532               0.000949270               0.000000000               0.000000000               0.000000000               0.000000000               0.000603659               0.004010924               0.000629224              -0.000274993               0.001428625               0.001153633               0.000000000               0.000000000               0.000000000               0.000000000               0.001127443               0.004288403               0.000582498              -0.000113259               0.001467206               0.001353947               0.000000000               0.000000000               0.000000000               0.000000000               0.001686559               0.004525840               0.000522729               0.000066729               0.001486355               0.001553084               0.000000000               0.000000000               0.000000000               0.000000000               0.002298462               0.004712189               0.000441259               0.000272897               0.001479748               0.001752645               0.000000000               0.000000000               0.000000000               0.000000000               0.002979573               0.004850746               0.000332911               0.000510991               0.001446569               0.001957560               0.000000000               0.000000000               0.000000000               0.000000000               0.003744933               0.004940849               0.000186083               0.000786736               0.001384688               0.002171424               0.000000000               0.000000000               0.000000000               0.000000000               0.004315208               0.005030873               0.000112913               0.000989334               0.001347163               0.002336497               0.000000000               0.000000000               0.000000000               0.000000000              -0.013097897              -0.001229924               0.000000000              -0.004757968               0.001176007              -0.003581961               0.000000000               0.000000000               0.000000000               0.000000000              -0.008957093              -0.000774965              -0.000000000              -0.003262037               0.000829018              -0.002433019               0.000000000               0.000000000               0.000000000               0.000000000              -0.005670742              -0.000588206              -0.000000000              -0.002053001               0.000488262              -0.001564740               0.000000000               0.000000000               0.000000000               0.000000000              -0.003871326               0.000098940               0.000000000              -0.001464113               0.000521014              -0.000943099               0.000000000               0.000000000               0.000000000               0.000000000              -0.002758881               0.000847249               0.000000000              -0.001140485               0.000662573              -0.000477912               0.000000000               0.000000000               0.000000000               0.000000000              -0.001975348               0.001537165               0.000000000              -0.000932899               0.000823349              -0.000109550               0.000000000               0.000000000               0.000000000               0.000000000              -0.001349727               0.002146980              -0.000000000              -0.000774518               0.000973825               0.000199307               0.000000000               0.000000000               0.000000000               0.000000000              -0.000805728               0.002676219               0.000000000              -0.000636674               0.001104288               0.000467615               0.000000000               0.000000000               0.000000000               0.000000000              -0.000293609               0.003135707              -0.000000000              -0.000502066               0.001212580               0.000710515               0.000000000               0.000000000               0.000000000               0.000000000               0.000208290               0.003534051               0.000000000              -0.000363647               0.001299221               0.000935574               0.000000000               0.000000000               0.000000000               0.000000000               0.000712086               0.003884370              -0.000000000              -0.000218514               0.001367615               0.001149101               0.000000000               0.000000000               0.000000000               0.000000000               0.001237947               0.004199798              -0.000000000              -0.000060745               0.001420167               0.001359422               0.000000000               0.000000000               0.000000000               0.000000000               0.001801624               0.004470243               0.000000000               0.000116827               0.001451124               0.001567951               0.000000000               0.000000000               0.000000000               0.000000000               0.002430480               0.004685441               0.000000000               0.000325747               0.001453216               0.001778962               0.000000000               0.000000000               0.000000000               0.000000000               0.003150988               0.004845583              -0.000000000               0.000575917               0.001423206               0.001999123               0.000000000               0.000000000               0.000000000               0.000000000               0.003987843               0.004941778              -0.000000000               0.000877710               0.001354673               0.002232383               0.000000000               0.000000000               0.000000000               0.000000000               0.004631382               0.005039055              -0.000000000               0.001106875               0.001310710               0.002417585               0.000000000               0.000000000               0.000000000               0.000000000               0.001960064               0.020869216               0.000000000              -0.001873623               0.007580877               0.005707254               0.000000000               0.000000000               0.000000000               0.000000000               0.001858560               0.015980893               0.000000000              -0.001300648               0.005760460               0.004459812               0.000000000               0.000000000               0.000000000               0.000000000               0.002364607               0.011995749               0.000000000              -0.000612740               0.004202790               0.003590050               0.000000000               0.000000000               0.000000000               0.000000000               0.002160094               0.009732456              -0.000000000              -0.000406521               0.003379626               0.002973106               0.000000000               0.000000000               0.000000000               0.000000000               0.001773687               0.008291785              -0.000000000              -0.000371340               0.002887681               0.002516341               0.000000000               0.000000000               0.000000000               0.000000000               0.001385147               0.007285920               0.000000000              -0.000391309               0.002559052               0.002167743               0.000000000               0.000000000               0.000000000               0.000000000               0.001041150               0.006508485               0.000000000              -0.000423129               0.002310516               0.001887388               0.000000000               0.000000000               0.000000000               0.000000000               0.000763162               0.005857952              -0.000000000              -0.000446057               0.002101317               0.001655260               0.000000000               0.000000000               0.000000000               0.000000000               0.000541159               0.005273546              -0.000000000              -0.000456257               0.001909917               0.001453660               0.000000000               0.000000000               0.000000000               0.000000000               0.000348506               0.004720761              -0.000000000              -0.000459404               0.001726706               0.001267302               0.000000000               0.000000000               0.000000000               0.000000000               0.000188082               0.004182529              -0.000000000              -0.000452284               0.001544924               0.001092639               0.000000000               0.000000000               0.000000000               0.000000000               0.000068327               0.003642032               0.000000000              -0.000429630               0.001357209               0.000927578               0.000000000               0.000000000               0.000000000               0.000000000              -0.000014954               0.003081997               0.000000000              -0.000390856               0.001157607               0.000766751               0.000000000               0.000000000               0.000000000               0.000000000              -0.000064392               0.002488098               0.000000000              -0.000335159               0.000941077               0.000605919               0.000000000               0.000000000               0.000000000               0.000000000              -0.000081348               0.001841539              -0.000000000              -0.000260697               0.000700739               0.000440042               0.000000000               0.000000000               0.000000000               0.000000000              -0.000056789               0.001120633              -0.000000000              -0.000161375               0.000427332               0.000265957               0.000000000               0.000000000               0.000000000               0.000000000              -0.000090798               0.000569885              -0.000000000              -0.000105285               0.000225055               0.000119770               0.000000000               0.000000000               0.000000000               0.000000000               0.002010143               0.020417348              -0.001371630              -0.001798361               0.007405168               0.005606808               0.000000000               0.000000000               0.000000000               0.000000000               0.001794108               0.015697134              -0.000610665              -0.001289348               0.005662108               0.004372760               0.000000000               0.000000000               0.000000000               0.000000000               0.002179493               0.011884357               0.000137847              -0.000668233               0.004184157               0.003515924               0.000000000               0.000000000               0.000000000               0.000000000               0.001930713               0.009706762               0.000444047              -0.000489327               0.003398664               0.002909337               0.000000000               0.000000000               0.000000000               0.000000000               0.001535449               0.008314128               0.000562311              -0.000463472               0.002925839               0.002462367               0.000000000               0.000000000               0.000000000               0.000000000               0.001153571               0.007328197               0.000594076              -0.000483435               0.002603853               0.002120418               0.000000000               0.000000000               0.000000000               0.000000000               0.000829129               0.006561255               0.000584374              -0.000509232               0.002356807               0.001847575               0.000000000               0.000000000               0.000000000               0.000000000               0.000569243               0.005913185               0.000557177              -0.000525681               0.002146269               0.001620588               0.000000000               0.000000000               0.000000000               0.000000000               0.000365186               0.005329953               0.000523912              -0.000529298               0.001953066               0.001423768               0.000000000               0.000000000               0.000000000               0.000000000               0.000201013               0.004780644               0.000491144              -0.000522199               0.001767598               0.001245399               0.000000000               0.000000000               0.000000000               0.000000000               0.000068967               0.004242728               0.000457690              -0.000504477               0.001582387               0.001077910               0.000000000               0.000000000               0.000000000               0.000000000              -0.000026311               0.003704883               0.000420599              -0.000472976               0.001392607               0.000919631               0.000000000               0.000000000               0.000000000               0.000000000              -0.000086600               0.003155835               0.000377469              -0.000426954               0.001194252               0.000767299               0.000000000               0.000000000               0.000000000               0.000000000              -0.000115522               0.002580658               0.000322419              -0.000365902               0.000982178               0.000616276               0.000000000               0.000000000               0.000000000               0.000000000              -0.000112488               0.001963366               0.000247921              -0.000287603               0.000750317               0.000462713               0.000000000               0.000000000               0.000000000               0.000000000              -0.000070550               0.001289562               0.000141709              -0.000187651               0.000492400               0.000304749               0.000000000               0.000000000               0.000000000               0.000000000              -0.000091455               0.000788196               0.000089679              -0.000132820               0.000307002               0.000174183               0.000000000               0.000000000               0.000000000               0.000000000               0.002130692               0.019130387              -0.002541085              -0.001592286               0.006907494               0.005315208               0.000000000               0.000000000               0.000000000               0.000000000               0.001601193               0.014891486              -0.001127691              -0.001260985               0.005384107               0.004123122               0.000000000               0.000000000               0.000000000               0.000000000               0.001652129               0.011571150               0.000247093              -0.000826843               0.004132626               0.003305783               0.000000000               0.000000000               0.000000000               0.000000000               0.001287935               0.009638350               0.000786991              -0.000721816               0.003453357               0.002731540               0.000000000               0.000000000               0.000000000               0.000000000               0.000880095               0.008365266               0.000985713              -0.000715621               0.003026935               0.002311313               0.000000000               0.000000000               0.000000000               0.000000000               0.000530503               0.007432080               0.001034658              -0.000730070               0.002720692               0.001990622               0.000000000               0.000000000               0.000000000               0.000000000               0.000258973               0.006688523               0.001013607              -0.000738949               0.002475802               0.001736853               0.000000000               0.000000000               0.000000000               0.000000000               0.000059826               0.006048226               0.000960669              -0.000733592               0.002260586               0.001526994               0.000000000               0.000000000               0.000000000               0.000000000              -0.000082782               0.005466124               0.000901129              -0.000714307               0.002060125               0.001345818               0.000000000               0.000000000               0.000000000               0.000000000              -0.000181264               0.004920458               0.000840272              -0.000683030               0.001867813               0.001184783               0.000000000               0.000000000               0.000000000               0.000000000              -0.000244141               0.004390964               0.000775321              -0.000640422               0.001677114               0.001036692               0.000000000               0.000000000               0.000000000               0.000000000              -0.000274701               0.003867582               0.000707038              -0.000586459               0.001484667               0.000898208               0.000000000               0.000000000               0.000000000               0.000000000              -0.000273852               0.003346028               0.000627912              -0.000520947               0.001288980               0.000768034               0.000000000               0.000000000               0.000000000               0.000000000              -0.000243011               0.002816526               0.000526701              -0.000443194               0.001086564               0.000643370               0.000000000               0.000000000               0.000000000               0.000000000              -0.000182455               0.002274089               0.000394203              -0.000352681               0.000875582               0.000522901               0.000000000               0.000000000               0.000000000               0.000000000              -0.000096643               0.001724568               0.000219832              -0.000251812               0.000658788               0.000406976               0.000000000               0.000000000               0.000000000               0.000000000              -0.000089434               0.001343043               0.000136725              -0.000201418               0.000514816               0.000313398               0.000000000               0.000000000               0.000000000               0.000000000               0.002222280               0.017183761              -0.003346012              -0.001314614               0.006166067               0.004851453               0.000000000               0.000000000               0.000000000               0.000000000               0.001257652               0.013687290              -0.001484442              -0.001239289               0.004975481               0.003736191               0.000000000               0.000000000               0.000000000               0.000000000               0.000845172               0.011101171               0.000296557              -0.001070704               0.004057255               0.002986550               0.000000000               0.000000000               0.000000000               0.000000000               0.000353069               0.009518846               0.000953710              -0.001057452               0.003525401               0.002467948               0.000000000               0.000000000               0.000000000               0.000000000              -0.000037785               0.008404284               0.001180463              -0.001064703               0.003156301               0.002091598               0.000000000               0.000000000               0.000000000               0.000000000              -0.000312276               0.007542068               0.001227274              -0.001059860               0.002867284               0.001807424               0.000000000               0.000000000               0.000000000               0.000000000              -0.000496435               0.006822831               0.001192764              -0.001039015               0.002620592               0.001581578               0.000000000               0.000000000               0.000000000               0.000000000              -0.000604612               0.006189530               0.001120630              -0.001000419               0.002396629               0.001396210               0.000000000               0.000000000               0.000000000               0.000000000              -0.000649090               0.005615730               0.001043322              -0.000945373               0.002187015               0.001241643               0.000000000               0.000000000               0.000000000               0.000000000              -0.000649932               0.005080840               0.000966870              -0.000878828               0.001986539               0.001107711               0.000000000               0.000000000               0.000000000               0.000000000              -0.000619111               0.004569055               0.000883877              -0.000803297               0.001790768               0.000987472               0.000000000               0.000000000               0.000000000               0.000000000              -0.000559292               0.004074309               0.000796675              -0.000719022               0.001597763               0.000878742               0.000000000               0.000000000               0.000000000               0.000000000              -0.000472907               0.003593595               0.000697947              -0.000626538               0.001406699               0.000780161               0.000000000               0.000000000               0.000000000               0.000000000              -0.000361332               0.003131290               0.000572384              -0.000526910               0.001219389               0.000692480               0.000000000               0.000000000               0.000000000               0.000000000              -0.000234459               0.002697557               0.000415866              -0.000425116               0.001040882               0.000615766               0.000000000               0.000000000               0.000000000               0.000000000              -0.000113264               0.002310145               0.000225331              -0.000331241               0.000880454               0.000549213               0.000000000               0.000000000               0.000000000               0.000000000              -0.000080972               0.002074600               0.000133272              -0.000289689               0.000788089               0.000498400               0.000000000               0.000000000               0.000000000               0.000000000               0.002153559               0.014807698              -0.003712016              -0.001043378               0.005283642               0.004240264               0.000000000               0.000000000               0.000000000               0.000000000               0.000739585               0.012245298              -0.001665561              -0.001253316               0.004499497               0.003246181               0.000000000               0.000000000               0.000000000               0.000000000              -0.000146022               0.010528258               0.000260490              -0.001370787               0.003966313               0.002595526               0.000000000               0.000000000               0.000000000               0.000000000              -0.000710185               0.009322263               0.000918875              -0.001431599               0.003584589               0.002152990               0.000000000               0.000000000               0.000000000               0.000000000              -0.001030906               0.008372862               0.001124746              -0.001433194               0.003268657               0.001835463               0.000000000               0.000000000               0.000000000               0.000000000              -0.001190204               0.007580014               0.001158077              -0.001393825               0.002991254               0.001597429               0.000000000               0.000000000               0.000000000               0.000000000              -0.001246559               0.006892494               0.001114478              -0.001329018               0.002740481               0.001411463               0.000000000               0.000000000               0.000000000               0.000000000              -0.001229892               0.006279114               0.001038363              -0.001246096               0.002508382               0.001262287               0.000000000               0.000000000               0.000000000               0.000000000              -0.001154392               0.005724103               0.000960274              -0.001148407               0.002290818               0.001142410               0.000000000               0.000000000               0.000000000               0.000000000              -0.001040871               0.005207723               0.000882220              -0.001041290               0.002082987               0.001041697               0.000000000               0.000000000               0.000000000               0.000000000              -0.000902509               0.004720736               0.000798363              -0.000928531               0.001883073               0.000954542               0.000000000               0.000000000               0.000000000               0.000000000              -0.000742178               0.004263387               0.000709399              -0.000811238               0.001691527               0.000880289               0.000000000               0.000000000               0.000000000               0.000000000              -0.000565760               0.003839527               0.000606930              -0.000692099               0.001510529               0.000818430               0.000000000               0.000000000               0.000000000               0.000000000              -0.000386095               0.003460434               0.000481544              -0.000577339               0.001345913               0.000768574               0.000000000               0.000000000               0.000000000               0.000000000              -0.000221223               0.003146569               0.000331658              -0.000476279               0.001207605               0.000731327               0.000000000               0.000000000               0.000000000               0.000000000              -0.000096491               0.002915155               0.000168692              -0.000400578               0.001105234               0.000704657               0.000000000               0.000000000               0.000000000               0.000000000              -0.000054046               0.002808726               0.000091095              -0.000371357               0.001060018               0.000688661               0.000000000               0.000000000               0.000000000               0.000000000               0.001811982               0.012257296              -0.003647032              -0.000852670               0.004369947               0.003517277               0.000000000               0.000000000               0.000000000               0.000000000               0.000053303               0.010726818              -0.001694676              -0.001320861               0.004015857               0.002694996               0.000000000               0.000000000               0.000000000               0.000000000              -0.001207423               0.009898481               0.000117505              -0.001690089               0.003862824               0.002172734               0.000000000               0.000000000               0.000000000               0.000000000              -0.001749950               0.009034822               0.000689101              -0.001785580               0.003606771               0.001821191               0.000000000               0.000000000               0.000000000               0.000000000              -0.001932219               0.008231094               0.000852515              -0.001753465               0.003328159               0.001574694               0.000000000               0.000000000               0.000000000               0.000000000              -0.001934451               0.007503414               0.000880050              -0.001663342               0.003055560               0.001392218               0.000000000               0.000000000               0.000000000               0.000000000              -0.001838923               0.006859968               0.000845447              -0.001547088               0.002802329               0.001255241               0.000000000               0.000000000               0.000000000               0.000000000              -0.001677767               0.006283423               0.000781523              -0.001414587               0.002565982               0.001151395               0.000000000               0.000000000               0.000000000               0.000000000              -0.001475536               0.005754285               0.000716958              -0.001272609               0.002342279               0.001069670               0.000000000               0.000000000               0.000000000               0.000000000              -0.001250289               0.005262579               0.000653480              -0.001126678               0.002129735               0.001003057               0.000000000               0.000000000               0.000000000               0.000000000              -0.001007857               0.004809082               0.000583310              -0.000979079               0.001929371               0.000950292               0.000000000               0.000000000               0.000000000               0.000000000              -0.000762607               0.004400016               0.000505144              -0.000835978               0.001745317               0.000909339               0.000000000               0.000000000               0.000000000               0.000000000              -0.000528031               0.004044548               0.000412163              -0.000703578               0.001582695               0.000879117               0.000000000               0.000000000               0.000000000               0.000000000              -0.000318565               0.003754324               0.000303835              -0.000588751               0.001447679               0.000858928               0.000000000               0.000000000               0.000000000               0.000000000              -0.000154515               0.003543812               0.000188133              -0.000500918               0.001348232               0.000847313               0.000000000               0.000000000               0.000000000               0.000000000              -0.000054470               0.003424091               0.000083647              -0.000448436               0.001290831               0.000842395               0.000000000               0.000000000               0.000000000               0.000000000              -0.000022181               0.003390562               0.000038267              -0.000432137               0.001274222               0.000842085               0.000000000               0.000000000               0.000000000               0.000000000               0.001135525               0.009750566              -0.003228988              -0.000793000               0.003514489               0.002721489               0.000000000               0.000000000               0.000000000               0.000000000              -0.000768998               0.009251542              -0.001625050              -0.001444814               0.003565421               0.002120606               0.000000000               0.000000000               0.000000000               0.000000000              -0.002225722               0.009237785              -0.000142146              -0.001989364               0.003742352               0.001752988               0.000000000               0.000000000               0.000000000               0.000000000              -0.002630246               0.008658629               0.000304125              -0.002068666               0.003575736               0.001507070               0.000000000               0.000000000               0.000000000               0.000000000              -0.002623489               0.007975720               0.000437816              -0.001980768               0.003318803               0.001338034               0.000000000               0.000000000               0.000000000               0.000000000              -0.002447457               0.007318370               0.000477901              -0.001832588               0.003050295               0.001217707               0.000000000               0.000000000               0.000000000               0.000000000              -0.002191292               0.006728358               0.000475013              -0.001662775               0.002797022               0.001134247               0.000000000               0.000000000               0.000000000               0.000000000              -0.001888322               0.006191357               0.000441603              -0.001482037               0.002557777               0.001075740               0.000000000               0.000000000               0.000000000               0.000000000              -0.001569330               0.005694176               0.000405041              -0.001300268               0.002331462               0.001031195               0.000000000               0.000000000               0.000000000               0.000000000              -0.001248684               0.005239240               0.000367568              -0.001123159               0.002120782               0.000997623               0.000000000               0.000000000               0.000000000               0.000000000              -0.000934683               0.004832604               0.000323442              -0.000954579               0.001929045               0.000974466               0.000000000               0.000000000               0.000000000               0.000000000              -0.000639786               0.004491997               0.000270341              -0.000801417               0.001764456               0.000963039               0.000000000               0.000000000               0.000000000               0.000000000              -0.000385443               0.004220684               0.000204461              -0.000672125               0.001630922               0.000958797               0.000000000               0.000000000               0.000000000               0.000000000              -0.000190419               0.004025523               0.000129668              -0.000574596               0.001533360               0.000958763               0.000000000               0.000000000               0.000000000               0.000000000              -0.000062805               0.003909762               0.000061702              -0.000512271               0.001473998               0.000961727               0.000000000               0.000000000               0.000000000               0.000000000              -0.000006271               0.003868674               0.000017264              -0.000485935               0.001451523               0.000965589               0.000000000               0.000000000               0.000000000               0.000000000               0.000005382               0.003874779               0.000000725              -0.000482328               0.001452356               0.000970028               0.000000000               0.000000000               0.000000000               0.000000000               0.000156686               0.007440938              -0.002563926              -0.000871360               0.002770740               0.001899380               0.000000000               0.000000000               0.000000000               0.000000000              -0.001677115               0.007906267              -0.001508256              -0.001617198               0.003174462               0.001557263               0.000000000               0.000000000               0.000000000               0.000000000              -0.003098655               0.008553711              -0.000506636              -0.002231204               0.003594943               0.001363739               0.000000000               0.000000000               0.000000000               0.000000000              -0.003266222               0.008192490              -0.000173209              -0.002248889               0.003480432               0.001231543               0.000000000               0.000000000               0.000000000               0.000000000              -0.003041250               0.007623226              -0.000037262              -0.002093367               0.003238839               0.001145472               0.000000000               0.000000000               0.000000000               0.000000000              -0.002690282               0.007051994               0.000036229              -0.001890350               0.002980758               0.001090408               0.000000000               0.000000000               0.000000000               0.000000000              -0.002287436               0.006516896               0.000081357              -0.001672396               0.002729742               0.001057346               0.000000000               0.000000000               0.000000000               0.000000000              -0.001862309               0.006019172               0.000094774              -0.001450759               0.002489957               0.001039198               0.000000000               0.000000000               0.000000000               0.000000000              -0.001448214               0.005565406               0.000099928              -0.001238753               0.002268035               0.001029282               0.000000000               0.000000000               0.000000000               0.000000000              -0.001059097               0.005164166               0.000099228              -0.001042679               0.002068931               0.001026252               0.000000000               0.000000000               0.000000000               0.000000000              -0.000702840               0.004827103               0.000092404              -0.000866951               0.001898002               0.001031051               0.000000000               0.000000000               0.000000000               0.000000000              -0.000396509               0.004567706               0.000080539              -0.000719652               0.001762438               0.001042785               0.000000000               0.000000000               0.000000000               0.000000000              -0.000161840               0.004391898               0.000054821              -0.000609676               0.001667177               0.001057501               0.000000000               0.000000000               0.000000000               0.000000000              -0.000011108               0.004298979               0.000022804              -0.000541537               0.001613491               0.001071954               0.000000000               0.000000000               0.000000000               0.000000000               0.000058742               0.004282769              -0.000003130              -0.000513316               0.001598681               0.001085365               0.000000000               0.000000000               0.000000000               0.000000000               0.000055044               0.004321082              -0.000010756              -0.000519492               0.001613511               0.001094018               0.000000000               0.000000000               0.000000000               0.000000000               0.000039608               0.004367537              -0.000012953              -0.000531088               0.001632860               0.001101773               0.000000000               0.000000000               0.000000000               0.000000000              -0.001002163               0.005495335              -0.001758752              -0.001062726               0.002186002               0.001123275               0.000000000               0.000000000               0.000000000               0.000000000              -0.002569926               0.006706055              -0.001383313              -0.001801975               0.002835987               0.001034012               0.000000000               0.000000000               0.000000000               0.000000000              -0.003784400               0.007867189              -0.000946971              -0.002402543               0.003423218               0.001020675               0.000000000               0.000000000               0.000000000               0.000000000              -0.003702978               0.007735601              -0.000684065              -0.002355561               0.003363695               0.001008134               0.000000000               0.000000000               0.000000000               0.000000000              -0.003286582               0.007309648              -0.000517422              -0.002146169               0.003151915               0.001005746               0.000000000               0.000000000               0.000000000               0.000000000              -0.002789159               0.006838933              -0.000398694              -0.001900797               0.002913220               0.001012424               0.000000000               0.000000000               0.000000000               0.000000000              -0.002272348               0.006372100              -0.000301910              -0.001648639               0.002673558               0.001024919               0.000000000               0.000000000               0.000000000               0.000000000              -0.001756337               0.005923259              -0.000228533              -0.001399030               0.002440743               0.001041713               0.000000000               0.000000000               0.000000000               0.000000000              -0.001269103               0.005517502              -0.000175058              -0.001165598               0.002227682               0.001062083               0.000000000               0.000000000               0.000000000               0.000000000              -0.000826424               0.005164578              -0.000132104              -0.000955479               0.002040002               0.001084523               0.000000000               0.000000000               0.000000000               0.000000000              -0.000441068               0.004881637              -0.000092475              -0.000775603               0.001885730               0.001110127               0.000000000               0.000000000               0.000000000               0.000000000              -0.000137477               0.004679004              -0.000054319              -0.000636428               0.001771795               0.001135367               0.000000000               0.000000000               0.000000000               0.000000000               0.000075386               0.004561385              -0.000029386              -0.000541902               0.001701081               0.001159178               0.000000000               0.000000000               0.000000000               0.000000000               0.000196342               0.004531188              -0.000016013              -0.000492769               0.001674637               0.001181868               0.000000000               0.000000000               0.000000000               0.000000000               0.000235327               0.004581084              -0.000009882              -0.000484387               0.001688475               0.001204088               0.000000000               0.000000000               0.000000000               0.000000000               0.000214591               0.004685115              -0.000007319              -0.000505167               0.001730078               0.001224912               0.000000000               0.000000000               0.000000000               0.000000000               0.000185142               0.004755160              -0.000006255              -0.000524965               0.001760026               0.001235060               0.000000000               0.000000000               0.000000000               0.000000000              -0.002343850               0.003694891              -0.000915038              -0.001340802               0.001678552               0.000337749               0.000000000               0.000000000               0.000000000               0.000000000              -0.003327079               0.005317457              -0.001247460              -0.001912332               0.002409912               0.000497580               0.000000000               0.000000000               0.000000000               0.000000000              -0.004204291               0.006853709              -0.001408456              -0.002433317               0.003095652               0.000662335               0.000000000               0.000000000               0.000000000               0.000000000              -0.003982502               0.007073160              -0.001228056              -0.002377577               0.003150222               0.000772645               0.000000000               0.000000000               0.000000000               0.000000000              -0.003488007               0.006892417              -0.001033309              -0.002169550               0.003020632               0.000851083               0.000000000               0.000000000               0.000000000               0.000000000              -0.002934743               0.006600731              -0.000866274              -0.001925615               0.002842093               0.000916478               0.000000000               0.000000000               0.000000000               0.000000000              -0.002381711               0.006281655              -0.000719407              -0.001678345               0.002653312               0.000974968               0.000000000               0.000000000               0.000000000               0.000000000              -0.001841212               0.005947797              -0.000591713              -0.001433925               0.002460554               0.001026629               0.000000000               0.000000000               0.000000000               0.000000000              -0.001324396               0.005624870              -0.000489875              -0.001199754               0.002274856               0.001075102               0.000000000               0.000000000               0.000000000               0.000000000              -0.000852345               0.005332397              -0.000399318              -0.000986177               0.002106174               0.001119997               0.000000000               0.000000000               0.000000000               0.000000000              -0.000434567               0.005087461              -0.000308099              -0.000798893               0.001962101               0.001163208               0.000000000               0.000000000               0.000000000               0.000000000              -0.000089825               0.004897690              -0.000221694              -0.000645894               0.001847845               0.001201951               0.000000000               0.000000000               0.000000000               0.000000000               0.000169017               0.004775404              -0.000145266              -0.000533543               0.001769633               0.001236090               0.000000000               0.000000000               0.000000000               0.000000000               0.000340094               0.004730403              -0.000079286              -0.000463764               0.001731373               0.001267609               0.000000000               0.000000000               0.000000000               0.000000000               0.000434119               0.004763552              -0.000033959              -0.000432648               0.001732051               0.001299403               0.000000000               0.000000000               0.000000000               0.000000000               0.000469030               0.004863625              -0.000011071              -0.000432066               0.001765214               0.001333148               0.000000000               0.000000000               0.000000000               0.000000000               0.000462627               0.004924829              -0.000001514              -0.000442117               0.001788966               0.001346848               0.000000000               0.000000000               0.000000000               0.000000000              -0.004037543               0.002072367              -0.000101855              -0.001773121               0.001281821              -0.000491301               0.000000000               0.000000000               0.000000000               0.000000000              -0.004175395               0.003921577              -0.001058271              -0.002055966               0.001992500              -0.000063466               0.000000000               0.000000000               0.000000000               0.000000000              -0.004546663               0.005652989              -0.001782103              -0.002411617               0.002688182               0.000276566               0.000000000               0.000000000               0.000000000               0.000000000              -0.004191065               0.006205935              -0.001750121              -0.002347386               0.002851086               0.000503700               0.000000000               0.000000000               0.000000000               0.000000000              -0.003656048               0.006309055              -0.001559617              -0.002159645               0.002822879               0.000663234               0.000000000               0.000000000               0.000000000               0.000000000              -0.003082709               0.006235845              -0.001361772              -0.001935492               0.002723758               0.000788266               0.000000000               0.000000000               0.000000000               0.000000000              -0.002513002               0.006081871              -0.001180035              -0.001702606               0.002594805               0.000892199               0.000000000               0.000000000               0.000000000               0.000000000              -0.001958875               0.005883808              -0.001014603              -0.001470051               0.002451267               0.000981216               0.000000000               0.000000000               0.000000000               0.000000000              -0.001426662               0.005672628              -0.000866751              -0.001244074               0.002305548               0.001061474               0.000000000               0.000000000               0.000000000               0.000000000              -0.000932754               0.005460734              -0.000730081              -0.001032372               0.002164350               0.001131978               0.000000000               0.000000000               0.000000000               0.000000000              -0.000477739               0.005259403              -0.000599566              -0.000836576               0.002031975               0.001195400               0.000000000               0.000000000               0.000000000               0.000000000              -0.000072553               0.005078883              -0.000471746              -0.000662066               0.001913633               0.001251567               0.000000000               0.000000000               0.000000000               0.000000000               0.000264462               0.004942383              -0.000345236              -0.000518624               0.001820319               0.001301696               0.000000000               0.000000000               0.000000000               0.000000000               0.000518215               0.004863573              -0.000223873              -0.000413615               0.001759047               0.001345431               0.000000000               0.000000000               0.000000000               0.000000000               0.000686435               0.004853032              -0.000121480              -0.000349215               0.001734066               0.001384851               0.000000000               0.000000000               0.000000000               0.000000000               0.000775032               0.004906793              -0.000046841              -0.000322711               0.001743152               0.001420441               0.000000000               0.000000000               0.000000000               0.000000000               0.000792121               0.004943036              -0.000015883              -0.000320833               0.001754606               0.001433773               0.000000000               0.000000000               0.000000000               0.000000000              -0.005964084               0.000756393               0.000604060              -0.002331078               0.001029150              -0.001301928               0.000000000               0.000000000               0.000000000               0.000000000              -0.005147873               0.002599038              -0.000805384              -0.002255328               0.001618111              -0.000637217               0.000000000               0.000000000               0.000000000               0.000000000              -0.004831802               0.004272471              -0.001968730              -0.002345980               0.002206135              -0.000139845               0.000000000               0.000000000               0.000000000               0.000000000              -0.004271598               0.005059817              -0.002114366              -0.002234321               0.002431362               0.000197041               0.000000000               0.000000000               0.000000000               0.000000000              -0.003676129               0.005427201              -0.001978230              -0.002056944               0.002494696               0.000437752               0.000000000               0.000000000               0.000000000               0.000000000              -0.003085091               0.005580139              -0.001787387              -0.001854422               0.002478168               0.000623745               0.000000000               0.000000000               0.000000000               0.000000000              -0.002509438               0.005609138              -0.001595683              -0.001642178               0.002417086               0.000774908               0.000000000               0.000000000               0.000000000               0.000000000              -0.001954464               0.005575629              -0.001411112              -0.001429874               0.002335149               0.000905274               0.000000000               0.000000000               0.000000000               0.000000000              -0.001423170               0.005505129              -0.001237116              -0.001221827               0.002242300               0.001020473               0.000000000               0.000000000               0.000000000               0.000000000              -0.000914740               0.005402159              -0.001075679              -0.001018295               0.002140133               0.001121838               0.000000000               0.000000000               0.000000000               0.000000000              -0.000436239               0.005277442              -0.000922759              -0.000823268               0.002033552               0.001210284               0.000000000               0.000000000               0.000000000               0.000000000               0.000011531               0.005148090              -0.000772089              -0.000639186               0.001929075               0.001289889               0.000000000               0.000000000               0.000000000               0.000000000               0.000415133               0.005034407              -0.000615723              -0.000473625               0.001835994               0.001362369               0.000000000               0.000000000               0.000000000               0.000000000               0.000749365               0.004949994              -0.000447950              -0.000337737               0.001762560               0.001424824               0.000000000               0.000000000               0.000000000               0.000000000               0.000992190               0.004914761              -0.000280988              -0.000242273               0.001718995               0.001476722               0.000000000               0.000000000               0.000000000               0.000000000               0.001133798               0.004937968              -0.000129069              -0.000192071               0.001709997               0.001517925               0.000000000               0.000000000               0.000000000               0.000000000               0.001169124               0.004958388              -0.000056571              -0.000181377               0.001713238               0.001531862               0.000000000               0.000000000               0.000000000               0.000000000              -0.008003451              -0.000186397               0.001094302              -0.002977992               0.000930525              -0.002047467               0.000000000               0.000000000               0.000000000               0.000000000              -0.006195483               0.001424384              -0.000528930              -0.002501351               0.001308569              -0.001192782               0.000000000               0.000000000               0.000000000               0.000000000              -0.005083115               0.002838619              -0.001936838              -0.002260992               0.001699858              -0.000561134               0.000000000               0.000000000               0.000000000               0.000000000              -0.004246448               0.003735806              -0.002234728              -0.002059390               0.001931718              -0.000127672               0.000000000               0.000000000               0.000000000               0.000000000              -0.003549096               0.004301838              -0.002182345              -0.001868637               0.002056810               0.000188173               0.000000000               0.000000000               0.000000000               0.000000000              -0.002929536               0.004655791              -0.002031575              -0.001680546               0.002112096               0.000431550               0.000000000               0.000000000               0.000000000               0.000000000              -0.002358626               0.004873936              -0.001853368              -0.001493724               0.002122536               0.000628813               0.000000000               0.000000000               0.000000000               0.000000000              -0.001811920               0.005015491              -0.001671298              -0.001306404               0.002107281               0.000800877               0.000000000               0.000000000               0.000000000               0.000000000              -0.001285547               0.005094412              -0.001500364              -0.001118880               0.002071080               0.000952200               0.000000000               0.000000000               0.000000000               0.000000000              -0.000772078               0.005117722              -0.001339839              -0.000929243               0.002015638               0.001086395               0.000000000               0.000000000               0.000000000               0.000000000              -0.000274519               0.005105733              -0.001186544              -0.000741160               0.001948947               0.001207787               0.000000000               0.000000000               0.000000000               0.000000000               0.000209720               0.005074252              -0.001036220              -0.000555636               0.001876612               0.001320977               0.000000000               0.000000000               0.000000000               0.000000000               0.000664968               0.005026492              -0.000868762              -0.000378948               0.001801796               0.001422849               0.000000000               0.000000000               0.000000000               0.000000000               0.001070191               0.004976134              -0.000673978              -0.000220695               0.001732260               0.001511565               0.000000000               0.000000000               0.000000000               0.000000000               0.001403713               0.004950648              -0.000458651              -0.000092439               0.001681012               0.001588574               0.000000000               0.000000000               0.000000000               0.000000000               0.001639930               0.004963583              -0.000233328              -0.000005474               0.001656336               0.001650861               0.000000000               0.000000000               0.000000000               0.000000000               0.001733887               0.004979797              -0.000121068               0.000027732               0.001650672               0.001678404               0.000000000               0.000000000               0.000000000               0.000000000              -0.009971151              -0.000778645               0.001275329              -0.003641848               0.000954394              -0.002687454               0.000000000               0.000000000               0.000000000               0.000000000              -0.007236685               0.000465363              -0.000283083              -0.002771925               0.001079088              -0.001692836               0.000000000               0.000000000               0.000000000               0.000000000              -0.005309498               0.001492038              -0.001682797              -0.002177564               0.001223191              -0.000954372               0.000000000               0.000000000               0.000000000               0.000000000              -0.004149670               0.002383541              -0.002061564              -0.001854066               0.001412525              -0.000441541               0.000000000               0.000000000               0.000000000               0.000000000              -0.003315310               0.003069116              -0.002085882              -0.001626878               0.001565320              -0.000061558               0.000000000               0.000000000               0.000000000               0.000000000              -0.002646317               0.003584040              -0.001986304              -0.001440371               0.001674791               0.000234420               0.000000000               0.000000000               0.000000000               0.000000000              -0.002070625               0.003973559              -0.001842514              -0.001273177               0.001748898               0.000475721               0.000000000               0.000000000               0.000000000               0.000000000              -0.001532031               0.004275231              -0.001688583              -0.001108914               0.001794700               0.000685786               0.000000000               0.000000000               0.000000000               0.000000000              -0.001013740               0.004498436              -0.001541781              -0.000942455               0.001813615               0.000871159               0.000000000               0.000000000               0.000000000               0.000000000              -0.000507122               0.004653011              -0.001404070              -0.000771796               0.001808253               0.001036457               0.000000000               0.000000000               0.000000000               0.000000000               0.000000494               0.004764558              -0.001274688              -0.000595384               0.001786631               0.001191247               0.000000000               0.000000000               0.000000000               0.000000000               0.000509552               0.004843520              -0.001144582              -0.000414358               0.001752609               0.001338252               0.000000000               0.000000000               0.000000000               0.000000000               0.001011104               0.004893537              -0.000989457              -0.000232528               0.001708672               0.001476144               0.000000000               0.000000000               0.000000000               0.000000000               0.001493607               0.004921043              -0.000797905              -0.000055028               0.001658674               0.001603646               0.000000000               0.000000000               0.000000000               0.000000000               0.001944526               0.004942604              -0.000570570               0.000111370               0.001610395               0.001721765               0.000000000               0.000000000               0.000000000               0.000000000               0.002337682               0.004971042              -0.000305450               0.000255248               0.001571915               0.001827163               0.000000000               0.000000000               0.000000000               0.000000000               0.002559172               0.005003505              -0.000172060               0.000334248               0.001556402               0.001890650               0.000000000               0.000000000               0.000000000               0.000000000              -0.011617553              -0.001086878               0.001113697              -0.004220720               0.001044607              -0.003176113               0.000000000               0.000000000               0.000000000               0.000000000              -0.008133389              -0.000230375              -0.000110557              -0.003021222               0.000930276              -0.002090946               0.000000000               0.000000000               0.000000000               0.000000000              -0.005497682               0.000389191              -0.001235789              -0.002110278               0.000833150              -0.001277128               0.000000000               0.000000000               0.000000000               0.000000000              -0.004022595               0.001201010              -0.001586209              -0.001658597               0.000953195              -0.000705402               0.000000000               0.000000000               0.000000000               0.000000000              -0.003048078               0.001937127              -0.001649756              -0.001385168               0.001107423              -0.000277745               0.000000000               0.000000000               0.000000000               0.000000000              -0.002322222               0.002560039              -0.001597120              -0.001190836               0.001250282               0.000059446               0.000000000               0.000000000               0.000000000               0.000000000              -0.001725163               0.003075902              -0.001499861              -0.001031422               0.001369097               0.000337675               0.000000000               0.000000000               0.000000000               0.000000000              -0.001187985               0.003500370              -0.001389735              -0.000883039               0.001461124               0.000578085               0.000000000               0.000000000               0.000000000               0.000000000              -0.000677703               0.003847562              -0.001280970              -0.000735083               0.001527535               0.000792452               0.000000000               0.000000000               0.000000000               0.000000000              -0.000177993               0.004124626              -0.001181042              -0.000582325               0.001568970               0.000986645               0.000000000               0.000000000               0.000000000               0.000000000               0.000329866               0.004349963              -0.001090528              -0.000420045               0.001589988               0.001169943               0.000000000               0.000000000               0.000000000               0.000000000               0.000850527               0.004538292              -0.000997847              -0.000248339               0.001595528               0.001347189               0.000000000               0.000000000               0.000000000               0.000000000               0.001390309               0.004694096              -0.000880517              -0.000065397               0.001586482               0.001521085               0.000000000               0.000000000               0.000000000               0.000000000               0.001949237               0.004810707              -0.000729227               0.000129624               0.001560345               0.001689969               0.000000000               0.000000000               0.000000000               0.000000000               0.002528658               0.004896715              -0.000537933               0.000336154               0.001520170               0.001856325               0.000000000               0.000000000               0.000000000               0.000000000               0.003118272               0.004957931              -0.000295063               0.000549605               0.001469425               0.002019031               0.000000000               0.000000000               0.000000000               0.000000000               0.003518225               0.005019923              -0.000174345               0.000691837               0.001442679               0.002134516               0.000000000               0.000000000               0.000000000               0.000000000              -0.012712540              -0.001203533               0.000645630              -0.004616758               0.001137734              -0.003479024               0.000000000               0.000000000               0.000000000               0.000000000              -0.008741487              -0.000639892              -0.000026899              -0.003198069               0.000852720              -0.002345349               0.000000000               0.000000000               0.000000000               0.000000000              -0.005625550              -0.000336269              -0.000653523              -0.002067546               0.000577088              -0.001490458               0.000000000               0.000000000               0.000000000               0.000000000              -0.003913980               0.000386906              -0.000864717              -0.001516104               0.000634332              -0.000881772               0.000000000               0.000000000               0.000000000               0.000000000              -0.002835738               0.001139248              -0.000914417              -0.001205806               0.000781679              -0.000424127               0.000000000               0.000000000               0.000000000               0.000000000              -0.002067635               0.001816023              -0.000892445              -0.001002364               0.000939456              -0.000062909               0.000000000               0.000000000               0.000000000               0.000000000              -0.001451596               0.002400236              -0.000843829              -0.000844376               0.001081529               0.000237153               0.000000000               0.000000000               0.000000000               0.000000000              -0.000910316               0.002903220              -0.000786495              -0.000704269               0.001202487               0.000498217               0.000000000               0.000000000               0.000000000               0.000000000              -0.000400071               0.003334948              -0.000727400              -0.000566894               0.001300603               0.000733709               0.000000000               0.000000000               0.000000000               0.000000000               0.000098758               0.003698371              -0.000675364              -0.000425261               0.001374532               0.000949270               0.000000000               0.000000000               0.000000000               0.000000000               0.000603659               0.004010924              -0.000629224              -0.000274993               0.001428625               0.001153633               0.000000000               0.000000000               0.000000000               0.000000000               0.001127443               0.004288403              -0.000582498              -0.000113259               0.001467206               0.001353947               0.000000000               0.000000000               0.000000000               0.000000000               0.001686559               0.004525840              -0.000522729               0.000066729               0.001486355               0.001553084               0.000000000               0.000000000               0.000000000               0.000000000               0.002298462               0.004712189              -0.000441259               0.000272897               0.001479748               0.001752645               0.000000000               0.000000000               0.000000000               0.000000000               0.002979573               0.004850746              -0.000332911               0.000510991               0.001446569               0.001957560               0.000000000               0.000000000               0.000000000               0.000000000               0.003744933               0.004940849              -0.000186083               0.000786736               0.001384688               0.002171424               0.000000000               0.000000000               0.000000000               0.000000000               0.004315208               0.005030873              -0.000112913               0.000989334               0.001347163               0.002336497               0.000000000               0.000000000               0.000000000               0.000000000               0.000000000               0.000000000               0.000000000               0.000000000               0.000000000               0.000000000               0.000000000               0.000000000               0.000000000               0.000000000               0.000000000               0.000000000               0.000000000               0.000000000               0.000000000               0.000000000               0.000000000               0.000000000               0.000000000               0.000000000               0.000000000               0.000000000               0.000000000               0.000000000               0.000000000               0.000000000               0.000000000               0.000000000               0.000000000               0.000000000               0.000000000               0.000000000               0.000000000               0.000000000               0.000000000               0.000000000               0.000000000               0.000000000               0.000000000               0.000000000               0.000000000               0.000000000               0.000000000               0.000000000               0.000000000               0.000000000               0.000000000               0.000000000               0.000000000               0.000000000               0.000000000               0.000000000               0.000000000               0.000000000               0.000000000               0.000000000               0.000000000               0.000000000               0.000000000               0.000000000               0.000000000               0.000000000               0.000000000               0.000000000               0.000000000               0.000000000               0.000000000               0.000000000               0.000000000               0.000000000               0.000000000               0.000000000               0.000000000               0.000000000               0.000000000               0.000000000               0.000000000               0.000000000               0.000000000               0.000000000               0.000000000               0.000000000               0.000000000               0.000000000               0.000000000               0.000000000               0.000000000               0.000000000               0.000000000               0.000000000               0.000000000               0.000000000               0.000000000               0.000000000               0.000000000               0.000000000               0.000000000               0.000000000               0.000000000               0.000000000               0.000000000               0.000000000               0.000000000               0.000000000               0.000000000               0.000000000               0.000000000               0.000000000               0.000000000               0.000000000               0.000000000               0.000000000               0.000000000               0.000000000               0.000000000               0.000000000               0.000000000               0.000000000               0.000000000               0.000000000               0.000000000               0.000000000               0.000000000               0.000000000               0.000000000               0.000000000               0.000000000               0.000000000               0.000000000               0.000000000               0.000000000               0.000000000               0.000000000               0.000000000               0.000000000               0.000000000               0.000000000               0.000000000               0.000000000               0.000000000               0.000000000               0.000000000               0.000000000               0.000000000               0.000000000               0.000000000               0.000000000               0.000000000               0.000000000               0.000000000               0.000000000               0.000000000               0.000000000               0.000000000               0.000000000               0.000000000               0.000000000               0.000000000               0.000000000               0.000000000               0.000000000               0.000000000               0.000000000               0.000000000               0.000000000               0.000000000               0.000000000               0.000000000               0.000000000               0.000000000               0.000000000               0.000000000               0.000000000               0.000000000               0.000000000               0.000000000               0.000000000               0.000000000               0.000000000               0.000000000               0.000000000               0.000000000               0.000000000               0.000000000               0.000000000               0.000000000               0.000000000               0.000000000               0.000000000               0.000000000               0.000000000               0.000000000               0.000000000               0.000000000               0.000000000               0.000000000               0.000000000               0.000000000               0.000000000               0.000000000               0.000000000               0.000000000               0.000000000               0.000000000               0.000000000               0.000000000               0.000000000               0.000000000               0.000000000               0.000000000               0.000000000               0.000000000               0.000000000               0.000000000               0.000000000               0.000000000               0.000000000               0.000000000               0.000000000               0.000000000               0.000000000               0.000000000               0.000000000               0.000000000               0.000000000               0.000000000               0.000000000               0.000000000               0.000000000               0.000000000               0.000000000               0.000000000               0.000000000               0.000000000               0.000000000               0.000000000               0.000000000               0.000000000               0.000000000               0.000000000               0.000000000               0.000000000               0.000000000               0.000000000               0.000000000               0.000000000               0.000000000               0.000000000               0.000000000               0.000000000               0.000000000               0.000000000               0.000000000               0.000000000               0.000000000               0.000000000               0.000000000               0.000000000               0.000000000               0.000000000               0.000000000               0.000000000               0.000000000               0.000000000               0.000000000               0.000000000               0.000000000               0.000000000               0.000000000               0.000000000               0.000000000               0.000000000               0.000000000               0.000000000               0.000000000               0.000000000               0.000000000               0.000000000               0.000000000               0.000000000               0.000000000               0.000000000               0.000000000               0.000000000               0.000000000               0.000000000               0.000000000               0.000000000               0.000000000               0.000000000               0.000000000               0.000000000               0.000000000               0.000000000               0.000000000               0.000000000               0.000000000               0.000000000               0.000000000               0.000000000               0.000000000               0.000000000               0.000000000               0.000000000               0.000000000               0.000000000               0.000000000               0.000000000               0.000000000               0.000000000               0.000000000               0.000000000               0.000000000               0.000000000               0.000000000               0.000000000               0.000000000               0.000000000               0.000000000               0.000000000               0.000000000               0.000000000               0.000000000               0.000000000               0.000000000               0.000000000               0.000000000               0.000000000               0.000000000               0.000000000               0.000000000               0.000000000               0.000000000               0.000000000               0.000000000               0.000000000               0.000000000               0.000000000               0.000000000               0.000000000               0.002010143               0.020417348               0.001371630              -0.001798361               0.007405168               0.005606808               0.000000000               0.000000000               0.000000000               0.000000000               0.001794108               0.015697134               0.000610665              -0.001289348               0.005662108               0.004372760               0.000000000               0.000000000               0.000000000               0.000000000               0.002179493               0.011884357              -0.000137847              -0.000668233               0.004184157               0.003515924               0.000000000               0.000000000               0.000000000               0.000000000               0.001930713               0.009706762              -0.000444047              -0.000489327               0.003398664               0.002909337               0.000000000               0.000000000               0.000000000               0.000000000               0.001535449               0.008314128              -0.000562311              -0.000463472               0.002925839               0.002462367               0.000000000               0.000000000               0.000000000               0.000000000               0.001153571               0.007328197              -0.000594076              -0.000483435               0.002603853               0.002120418               0.000000000               0.000000000               0.000000000               0.000000000               0.000829129               0.006561255              -0.000584374              -0.000509232               0.002356807               0.001847575               0.000000000               0.000000000               0.000000000               0.000000000               0.000569243               0.005913185              -0.000557177              -0.000525681               0.002146269               0.001620588               0.000000000               0.000000000               0.000000000               0.000000000               0.000365186               0.005329953              -0.000523912              -0.000529298               0.001953066               0.001423768               0.000000000               0.000000000               0.000000000               0.000000000               0.000201013               0.004780644              -0.000491144              -0.000522199               0.001767598               0.001245399               0.000000000               0.000000000               0.000000000               0.000000000               0.000068967               0.004242728              -0.000457690              -0.000504477               0.001582387               0.001077910               0.000000000               0.000000000               0.000000000               0.000000000              -0.000026311               0.003704883              -0.000420599              -0.000472976               0.001392607               0.000919631               0.000000000               0.000000000               0.000000000               0.000000000              -0.000086600               0.003155835              -0.000377469              -0.000426954               0.001194252               0.000767299               0.000000000               0.000000000               0.000000000               0.000000000              -0.000115522               0.002580658              -0.000322419              -0.000365902               0.000982178               0.000616276               0.000000000               0.000000000               0.000000000               0.000000000              -0.000112488               0.001963366              -0.000247921              -0.000287603               0.000750317               0.000462713               0.000000000               0.000000000               0.000000000               0.000000000              -0.000070550               0.001289562              -0.000141709              -0.000187651               0.000492400               0.000304749               0.000000000               0.000000000               0.000000000               0.000000000              -0.000091455               0.000788196              -0.000089679              -0.000132820               0.000307002               0.000174183               0.000000000               0.000000000               0.000000000               0.000000000               0.002130692               0.019130387               0.002541085              -0.001592286               0.006907494               0.005315208               0.000000000               0.000000000               0.000000000               0.000000000               0.001601193               0.014891486               0.001127691              -0.001260985               0.005384107               0.004123122               0.000000000               0.000000000               0.000000000               0.000000000               0.001652129               0.011571150              -0.000247093              -0.000826843               0.004132626               0.003305783               0.000000000               0.000000000               0.000000000               0.000000000               0.001287935               0.009638350              -0.000786991              -0.000721816               0.003453357               0.002731540               0.000000000               0.000000000               0.000000000               0.000000000               0.000880095               0.008365266              -0.000985713              -0.000715621               0.003026935               0.002311313               0.000000000               0.000000000               0.000000000               0.000000000               0.000530503               0.007432080              -0.001034658              -0.000730070               0.002720692               0.001990622               0.000000000               0.000000000               0.000000000               0.000000000               0.000258973               0.006688523              -0.001013607              -0.000738949               0.002475802               0.001736853               0.000000000               0.000000000               0.000000000               0.000000000               0.000059826               0.006048226              -0.000960669              -0.000733592               0.002260586               0.001526994               0.000000000               0.000000000               0.000000000               0.000000000              -0.000082782               0.005466124              -0.000901129              -0.000714307               0.002060125               0.001345818               0.000000000               0.000000000               0.000000000               0.000000000              -0.000181264               0.004920458              -0.000840272              -0.000683030               0.001867813               0.001184783               0.000000000               0.000000000               0.000000000               0.000000000              -0.000244141               0.004390964              -0.000775321              -0.000640422               0.001677114               0.001036692               0.000000000               0.000000000               0.000000000               0.000000000              -0.000274701               0.003867582              -0.000707038              -0.000586459               0.001484667               0.000898208               0.000000000               0.000000000               0.000000000               0.000000000              -0.000273852               0.003346028              -0.000627912              -0.000520947               0.001288980               0.000768034               0.000000000               0.000000000               0.000000000               0.000000000              -0.000243011               0.002816526              -0.000526701              -0.000443194               0.001086564               0.000643370               0.000000000               0.000000000               0.000000000               0.000000000              -0.000182455               0.002274089              -0.000394203              -0.000352681               0.000875582               0.000522901               0.000000000               0.000000000               0.000000000               0.000000000              -0.000096643               0.001724568              -0.000219832              -0.000251812               0.000658788               0.000406976               0.000000000               0.000000000               0.000000000               0.000000000              -0.000089434               0.001343043              -0.000136725              -0.000201418               0.000514816               0.000313398               0.000000000               0.000000000               0.000000000               0.000000000               0.002222280               0.017183761               0.003346012              -0.001314614               0.006166067               0.004851453               0.000000000               0.000000000               0.000000000               0.000000000               0.001257652               0.013687290               0.001484442              -0.001239289               0.004975481               0.003736191               0.000000000               0.000000000               0.000000000               0.000000000               0.000845172               0.011101171              -0.000296557              -0.001070704               0.004057255               0.002986550               0.000000000               0.000000000               0.000000000               0.000000000               0.000353069               0.009518846              -0.000953710              -0.001057452               0.003525401               0.002467948               0.000000000               0.000000000               0.000000000               0.000000000              -0.000037785               0.008404284              -0.001180463              -0.001064703               0.003156301               0.002091598               0.000000000               0.000000000               0.000000000               0.000000000              -0.000312276               0.007542068              -0.001227274              -0.001059860               0.002867284               0.001807424               0.000000000               0.000000000               0.000000000               0.000000000              -0.000496435               0.006822831              -0.001192764              -0.001039015               0.002620592               0.001581578               0.000000000               0.000000000               0.000000000               0.000000000              -0.000604612               0.006189530              -0.001120630              -0.001000419               0.002396629               0.001396210               0.000000000               0.000000000               0.000000000               0.000000000              -0.000649090               0.005615730              -0.001043322              -0.000945373               0.002187015               0.001241643               0.000000000               0.000000000               0.000000000               0.000000000              -0.000649932               0.005080840              -0.000966870              -0.000878828               0.001986539               0.001107711               0.000000000               0.000000000               0.000000000               0.000000000              -0.000619111               0.004569055              -0.000883877              -0.000803297               0.001790768               0.000987472               0.000000000               0.000000000               0.000000000               0.000000000              -0.000559292               0.004074309              -0.000796675              -0.000719022               0.001597763               0.000878742               0.000000000               0.000000000               0.000000000               0.000000000              -0.000472907               0.003593595              -0.000697947              -0.000626538               0.001406699               0.000780161               0.000000000               0.000000000               0.000000000               0.000000000              -0.000361332               0.003131290              -0.000572384              -0.000526910               0.001219389               0.000692480               0.000000000               0.000000000               0.000000000               0.000000000              -0.000234459               0.002697557              -0.000415866              -0.000425116               0.001040882               0.000615766               0.000000000               0.000000000               0.000000000               0.000000000              -0.000113264               0.002310145              -0.000225331              -0.000331241               0.000880454               0.000549213               0.000000000               0.000000000               0.000000000               0.000000000              -0.000080972               0.002074600              -0.000133272              -0.000289689               0.000788089               0.000498400               0.000000000               0.000000000               0.000000000               0.000000000               0.002153559               0.014807698               0.003712016              -0.001043378               0.005283642               0.004240264               0.000000000               0.000000000               0.000000000               0.000000000               0.000739585               0.012245298               0.001665561              -0.001253316               0.004499497               0.003246181               0.000000000               0.000000000               0.000000000               0.000000000              -0.000146022               0.010528258              -0.000260490              -0.001370787               0.003966313               0.002595526               0.000000000               0.000000000               0.000000000               0.000000000              -0.000710185               0.009322263              -0.000918875              -0.001431599               0.003584589               0.002152990               0.000000000               0.000000000               0.000000000               0.000000000              -0.001030906               0.008372862              -0.001124746              -0.001433194               0.003268657               0.001835463               0.000000000               0.000000000               0.000000000               0.000000000              -0.001190204               0.007580014              -0.001158077              -0.001393825               0.002991254               0.001597429               0.000000000               0.000000000               0.000000000               0.000000000              -0.001246559               0.006892494              -0.001114478              -0.001329018               0.002740481               0.001411463               0.000000000               0.000000000               0.000000000               0.000000000              -0.001229892               0.006279114              -0.001038363              -0.001246096               0.002508382               0.001262287               0.000000000               0.000000000               0.000000000               0.000000000              -0.001154392               0.005724103              -0.000960274              -0.001148407               0.002290818               0.001142410               0.000000000               0.000000000               0.000000000               0.000000000              -0.001040871               0.005207723              -0.000882220              -0.001041290               0.002082987               0.001041697               0.000000000               0.000000000               0.000000000               0.000000000              -0.000902509               0.004720736              -0.000798363              -0.000928531               0.001883073               0.000954542               0.000000000               0.000000000               0.000000000               0.000000000              -0.000742178               0.004263387              -0.000709399              -0.000811238               0.001691527               0.000880289               0.000000000               0.000000000               0.000000000               0.000000000              -0.000565760               0.003839527              -0.000606930              -0.000692099               0.001510529               0.000818430               0.000000000               0.000000000               0.000000000               0.000000000              -0.000386095               0.003460434              -0.000481544              -0.000577339               0.001345913               0.000768574               0.000000000               0.000000000               0.000000000               0.000000000              -0.000221223               0.003146569              -0.000331658              -0.000476279               0.001207605               0.000731327               0.000000000               0.000000000               0.000000000               0.000000000              -0.000096491               0.002915155              -0.000168692              -0.000400578               0.001105234               0.000704657               0.000000000               0.000000000               0.000000000               0.000000000              -0.000054046               0.002808726              -0.000091095              -0.000371357               0.001060018               0.000688661               0.000000000               0.000000000               0.000000000               0.000000000               0.001811982               0.012257296               0.003647032              -0.000852670               0.004369947               0.003517277               0.000000000               0.000000000               0.000000000               0.000000000               0.000053303               0.010726818               0.001694676              -0.001320861               0.004015857               0.002694996               0.000000000               0.000000000               0.000000000               0.000000000              -0.001207423               0.009898481              -0.000117505              -0.001690089               0.003862824               0.002172734               0.000000000               0.000000000               0.000000000               0.000000000              -0.001749950               0.009034822              -0.000689101              -0.001785580               0.003606771               0.001821191               0.000000000               0.000000000               0.000000000               0.000000000              -0.001932219               0.008231094              -0.000852515              -0.001753465               0.003328159               0.001574694               0.000000000               0.000000000               0.000000000               0.000000000              -0.001934451               0.007503414              -0.000880050              -0.001663342               0.003055560               0.001392218               0.000000000               0.000000000               0.000000000               0.000000000              -0.001838923               0.006859968              -0.000845447              -0.001547088               0.002802329               0.001255241               0.000000000               0.000000000               0.000000000               0.000000000              -0.001677767               0.006283423              -0.000781523              -0.001414587               0.002565982               0.001151395               0.000000000               0.000000000               0.000000000               0.000000000              -0.001475536               0.005754285              -0.000716958              -0.001272609               0.002342279               0.001069670               0.000000000               0.000000000               0.000000000               0.000000000              -0.001250289               0.005262579              -0.000653480              -0.001126678               0.002129735               0.001003057               0.000000000               0.000000000               0.000000000               0.000000000              -0.001007857               0.004809082              -0.000583310              -0.000979079               0.001929371               0.000950292               0.000000000               0.000000000               0.000000000               0.000000000              -0.000762607               0.004400016              -0.000505144              -0.000835978               0.001745317               0.000909339               0.000000000               0.000000000               0.000000000               0.000000000              -0.000528031               0.004044548              -0.000412163              -0.000703578               0.001582695               0.000879117               0.000000000               0.000000000               0.000000000               0.000000000              -0.000318565               0.003754324              -0.000303835              -0.000588751               0.001447679               0.000858928               0.000000000               0.000000000               0.000000000               0.000000000              -0.000154515               0.003543812              -0.000188133              -0.000500918               0.001348232               0.000847313               0.000000000               0.000000000               0.000000000               0.000000000              -0.000054470               0.003424091              -0.000083647              -0.000448436               0.001290831               0.000842395               0.000000000               0.000000000               0.000000000               0.000000000              -0.000022181               0.003390562              -0.000038267              -0.000432137               0.001274222               0.000842085               0.000000000               0.000000000               0.000000000               0.000000000               0.001135525               0.009750566               0.003228988              -0.000793000               0.003514489               0.002721489               0.000000000               0.000000000               0.000000000               0.000000000              -0.000768998               0.009251542               0.001625050              -0.001444814               0.003565421               0.002120606               0.000000000               0.000000000               0.000000000               0.000000000              -0.002225722               0.009237785               0.000142146              -0.001989364               0.003742352               0.001752988               0.000000000               0.000000000               0.000000000               0.000000000              -0.002630246               0.008658629              -0.000304125              -0.002068666               0.003575736               0.001507070               0.000000000               0.000000000               0.000000000               0.000000000              -0.002623489               0.007975720              -0.000437816              -0.001980768               0.003318803               0.001338034               0.000000000               0.000000000               0.000000000               0.000000000              -0.002447457               0.007318370              -0.000477901              -0.001832588               0.003050295               0.001217707               0.000000000               0.000000000               0.000000000               0.000000000              -0.002191292               0.006728358              -0.000475013              -0.001662775               0.002797022               0.001134247               0.000000000               0.000000000               0.000000000               0.000000000              -0.001888322               0.006191357              -0.000441603              -0.001482037               0.002557777               0.001075740               0.000000000               0.000000000               0.000000000               0.000000000              -0.001569330               0.005694176              -0.000405041              -0.001300268               0.002331462               0.001031195               0.000000000               0.000000000               0.000000000               0.000000000              -0.001248684               0.005239240              -0.000367568              -0.001123159               0.002120782               0.000997623               0.000000000               0.000000000               0.000000000               0.000000000              -0.000934683               0.004832604              -0.000323442              -0.000954579               0.001929045               0.000974466               0.000000000               0.000000000               0.000000000               0.000000000              -0.000639786               0.004491997              -0.000270341              -0.000801417               0.001764456               0.000963039               0.000000000               0.000000000               0.000000000               0.000000000              -0.000385443               0.004220684              -0.000204461              -0.000672125               0.001630922               0.000958797               0.000000000               0.000000000               0.000000000               0.000000000              -0.000190419               0.004025523              -0.000129668              -0.000574596               0.001533360               0.000958763               0.000000000               0.000000000               0.000000000               0.000000000              -0.000062805               0.003909762              -0.000061702              -0.000512271               0.001473998               0.000961727               0.000000000               0.000000000               0.000000000               0.000000000              -0.000006271               0.003868674              -0.000017264              -0.000485935               0.001451523               0.000965589               0.000000000               0.000000000               0.000000000               0.000000000               0.000005382               0.003874779              -0.000000725              -0.000482328               0.001452356               0.000970028               0.000000000               0.000000000               0.000000000               0.000000000               0.000156686               0.007440938               0.002563926              -0.000871360               0.002770740               0.001899380               0.000000000               0.000000000               0.000000000               0.000000000              -0.001677115               0.007906267               0.001508256              -0.001617198               0.003174462               0.001557263               0.000000000               0.000000000               0.000000000               0.000000000              -0.003098655               0.008553711               0.000506636              -0.002231204               0.003594943               0.001363739               0.000000000               0.000000000               0.000000000               0.000000000              -0.003266222               0.008192490               0.000173209              -0.002248889               0.003480432               0.001231543               0.000000000               0.000000000               0.000000000               0.000000000              -0.003041250               0.007623226               0.000037262              -0.002093367               0.003238839               0.001145472               0.000000000               0.000000000               0.000000000               0.000000000              -0.002690282               0.007051994              -0.000036229              -0.001890350               0.002980758               0.001090408               0.000000000               0.000000000               0.000000000               0.000000000              -0.002287436               0.006516896              -0.000081357              -0.001672396               0.002729742               0.001057346               0.000000000               0.000000000               0.000000000               0.000000000              -0.001862309               0.006019172              -0.000094774              -0.001450759               0.002489957               0.001039198               0.000000000               0.000000000               0.000000000               0.000000000              -0.001448214               0.005565406              -0.000099928              -0.001238753               0.002268035               0.001029282               0.000000000               0.000000000               0.000000000               0.000000000              -0.001059097               0.005164166              -0.000099228              -0.001042679               0.002068931               0.001026252               0.000000000               0.000000000               0.000000000               0.000000000              -0.000702840               0.004827103              -0.000092404              -0.000866951               0.001898002               0.001031051               0.000000000               0.000000000               0.000000000               0.000000000              -0.000396509               0.004567706              -0.000080539              -0.000719652               0.001762438               0.001042785               0.000000000               0.000000000               0.000000000               0.000000000              -0.000161840               0.004391898              -0.000054821              -0.000609676               0.001667177               0.001057501               0.000000000               0.000000000               0.000000000               0.000000000              -0.000011108               0.004298979              -0.000022804              -0.000541537               0.001613491               0.001071954               0.000000000               0.000000000               0.000000000               0.000000000               0.000058742               0.004282769               0.000003130              -0.000513316               0.001598681               0.001085365               0.000000000               0.000000000               0.000000000               0.000000000               0.000055044               0.004321082               0.000010756              -0.000519492               0.001613511               0.001094018               0.000000000               0.000000000               0.000000000               0.000000000               0.000039608               0.004367537               0.000012953              -0.000531088               0.001632860               0.001101773               0.000000000               0.000000000               0.000000000               0.000000000              -0.001002163               0.005495335               0.001758752              -0.001062726               0.002186002               0.001123275               0.000000000               0.000000000               0.000000000               0.000000000              -0.002569926               0.006706055               0.001383313              -0.001801975               0.002835987               0.001034012               0.000000000               0.000000000               0.000000000               0.000000000              -0.003784400               0.007867189               0.000946971              -0.002402543               0.003423218               0.001020675               0.000000000               0.000000000               0.000000000               0.000000000              -0.003702978               0.007735601               0.000684065              -0.002355561               0.003363695               0.001008134               0.000000000               0.000000000               0.000000000               0.000000000              -0.003286582               0.007309648               0.000517422              -0.002146169               0.003151915               0.001005746               0.000000000               0.000000000               0.000000000               0.000000000              -0.002789159               0.006838933               0.000398694              -0.001900797               0.002913220               0.001012424               0.000000000               0.000000000               0.000000000               0.000000000              -0.002272348               0.006372100               0.000301910              -0.001648639               0.002673558               0.001024919               0.000000000               0.000000000               0.000000000               0.000000000              -0.001756337               0.005923259               0.000228533              -0.001399030               0.002440743               0.001041713               0.000000000               0.000000000               0.000000000               0.000000000              -0.001269103               0.005517502               0.000175058              -0.001165598               0.002227682               0.001062083               0.000000000               0.000000000               0.000000000               0.000000000              -0.000826424               0.005164578               0.000132104              -0.000955479               0.002040002               0.001084523               0.000000000               0.000000000               0.000000000               0.000000000              -0.000441068               0.004881637               0.000092475              -0.000775603               0.001885730               0.001110127               0.000000000               0.000000000               0.000000000               0.000000000              -0.000137477               0.004679004               0.000054319              -0.000636428               0.001771795               0.001135367               0.000000000               0.000000000               0.000000000               0.000000000               0.000075386               0.004561385               0.000029386              -0.000541902               0.001701081               0.001159178               0.000000000               0.000000000               0.000000000               0.000000000               0.000196342               0.004531188               0.000016013              -0.000492769               0.001674637               0.001181868               0.000000000               0.000000000               0.000000000               0.000000000               0.000235327               0.004581084               0.000009882              -0.000484387               0.001688475               0.001204088               0.000000000               0.000000000               0.000000000               0.000000000               0.000214591               0.004685115               0.000007319              -0.000505167               0.001730078               0.001224912               0.000000000               0.000000000               0.000000000               0.000000000               0.000185142               0.004755160               0.000006255              -0.000524965               0.001760026               0.001235060               0.000000000               0.000000000               0.000000000               0.000000000              -0.002343850               0.003694891               0.000915038              -0.001340802               0.001678552               0.000337749               0.000000000               0.000000000               0.000000000               0.000000000              -0.003327079               0.005317457               0.001247460              -0.001912332               0.002409912               0.000497580               0.000000000               0.000000000               0.000000000               0.000000000              -0.004204291               0.006853709               0.001408456              -0.002433317               0.003095652               0.000662335               0.000000000               0.000000000               0.000000000               0.000000000              -0.003982502               0.007073160               0.001228056              -0.002377577               0.003150222               0.000772645               0.000000000               0.000000000               0.000000000               0.000000000              -0.003488007               0.006892417               0.001033309              -0.002169550               0.003020632               0.000851083               0.000000000               0.000000000               0.000000000               0.000000000              -0.002934743               0.006600731               0.000866274              -0.001925615               0.002842093               0.000916478               0.000000000               0.000000000               0.000000000               0.000000000              -0.002381711               0.006281655               0.000719407              -0.001678345               0.002653312               0.000974968               0.000000000               0.000000000               0.000000000               0.000000000              -0.001841212               0.005947797               0.000591713              -0.001433925               0.002460554               0.001026629               0.000000000               0.000000000               0.000000000               0.000000000              -0.001324396               0.005624870               0.000489875              -0.001199754               0.002274856               0.001075102               0.000000000               0.000000000               0.000000000               0.000000000              -0.000852345               0.005332397               0.000399318              -0.000986177               0.002106174               0.001119997               0.000000000               0.000000000               0.000000000               0.000000000              -0.000434567               0.005087461               0.000308099              -0.000798893               0.001962101               0.001163208               0.000000000               0.000000000               0.000000000               0.000000000              -0.000089825               0.004897690               0.000221694              -0.000645894               0.001847845               0.001201951               0.000000000               0.000000000               0.000000000               0.000000000               0.000169017               0.004775404               0.000145266              -0.000533543               0.001769633               0.001236090               0.000000000               0.000000000               0.000000000               0.000000000               0.000340094               0.004730403               0.000079286              -0.000463764               0.001731373               0.001267609               0.000000000               0.000000000               0.000000000               0.000000000               0.000434119               0.004763552               0.000033959              -0.000432648               0.001732051               0.001299403               0.000000000               0.000000000               0.000000000               0.000000000               0.000469030               0.004863625               0.000011071              -0.000432066               0.001765214               0.001333148               0.000000000               0.000000000               0.000000000               0.000000000               0.000462627               0.004924829               0.000001514              -0.000442117               0.001788966               0.001346848               0.000000000               0.000000000               0.000000000               0.000000000              -0.004037543               0.002072367               0.000101855              -0.001773121               0.001281821              -0.000491301               0.000000000               0.000000000               0.000000000               0.000000000              -0.004175395               0.003921577               0.001058271              -0.002055966               0.001992500              -0.000063466               0.000000000               0.000000000               0.000000000               0.000000000              -0.004546663               0.005652989               0.001782103              -0.002411617               0.002688182               0.000276566               0.000000000               0.000000000               0.000000000               0.000000000              -0.004191065               0.006205935               0.001750121              -0.002347386               0.002851086               0.000503700               0.000000000               0.000000000               0.000000000               0.000000000              -0.003656048               0.006309055               0.001559617              -0.002159645               0.002822879               0.000663234               0.000000000               0.000000000               0.000000000               0.000000000              -0.003082709               0.006235845               0.001361772              -0.001935492               0.002723758               0.000788266               0.000000000               0.000000000               0.000000000               0.000000000              -0.002513002               0.006081871               0.001180035              -0.001702606               0.002594805               0.000892199               0.000000000               0.000000000               0.000000000               0.000000000              -0.001958875               0.005883808               0.001014603              -0.001470051               0.002451267               0.000981216               0.000000000               0.000000000               0.000000000               0.000000000              -0.001426662               0.005672628               0.000866751              -0.001244074               0.002305548               0.001061474               0.000000000               0.000000000               0.000000000               0.000000000              -0.000932754               0.005460734               0.000730081              -0.001032372               0.002164350               0.001131978               0.000000000               0.000000000               0.000000000               0.000000000              -0.000477739               0.005259403               0.000599566              -0.000836576               0.002031975               0.001195400               0.000000000               0.000000000               0.000000000               0.000000000              -0.000072553               0.005078883               0.000471746              -0.000662066               0.001913633               0.001251567               0.000000000               0.000000000               0.000000000               0.000000000               0.000264462               0.004942383               0.000345236              -0.000518624               0.001820319               0.001301696               0.000000000               0.000000000               0.000000000               0.000000000               0.000518215               0.004863573               0.000223873              -0.000413615               0.001759047               0.001345431               0.000000000               0.000000000               0.000000000               0.000000000               0.000686435               0.004853032               0.000121480              -0.000349215               0.001734066               0.001384851               0.000000000               0.000000000               0.000000000               0.000000000               0.000775032               0.004906793               0.000046841              -0.000322711               0.001743152               0.001420441               0.000000000               0.000000000               0.000000000               0.000000000               0.000792121               0.004943036               0.000015883              -0.000320833               0.001754606               0.001433773               0.000000000               0.000000000               0.000000000               0.000000000              -0.005964084               0.000756393              -0.000604060              -0.002331078               0.001029150              -0.001301928               0.000000000               0.000000000               0.000000000               0.000000000              -0.005147873               0.002599038               0.000805384              -0.002255328               0.001618111              -0.000637217               0.000000000               0.000000000               0.000000000               0.000000000              -0.004831802               0.004272471               0.001968730              -0.002345980               0.002206135              -0.000139845               0.000000000               0.000000000               0.000000000               0.000000000              -0.004271598               0.005059817               0.002114366              -0.002234321               0.002431362               0.000197041               0.000000000               0.000000000               0.000000000               0.000000000              -0.003676129               0.005427201               0.001978230              -0.002056944               0.002494696               0.000437752               0.000000000               0.000000000               0.000000000               0.000000000              -0.003085091               0.005580139               0.001787387              -0.001854422               0.002478168               0.000623745               0.000000000               0.000000000               0.000000000               0.000000000              -0.002509438               0.005609138               0.001595683              -0.001642178               0.002417086               0.000774908               0.000000000               0.000000000               0.000000000               0.000000000              -0.001954464               0.005575629               0.001411112              -0.001429874               0.002335149               0.000905274               0.000000000               0.000000000               0.000000000               0.000000000              -0.001423170               0.005505129               0.001237116              -0.001221827               0.002242300               0.001020473               0.000000000               0.000000000               0.000000000               0.000000000              -0.000914740               0.005402159               0.001075679              -0.001018295               0.002140133               0.001121838               0.000000000               0.000000000               0.000000000               0.000000000              -0.000436239               0.005277442               0.000922759              -0.000823268               0.002033552               0.001210284               0.000000000               0.000000000               0.000000000               0.000000000               0.000011531               0.005148090               0.000772089              -0.000639186               0.001929075               0.001289889               0.000000000               0.000000000               0.000000000               0.000000000               0.000415133               0.005034407               0.000615723              -0.000473625               0.001835994               0.001362369               0.000000000               0.000000000               0.000000000               0.000000000               0.000749365               0.004949994               0.000447950              -0.000337737               0.001762560               0.001424824               0.000000000               0.000000000               0.000000000               0.000000000               0.000992190               0.004914761               0.000280988              -0.000242273               0.001718995               0.001476722               0.000000000               0.000000000               0.000000000               0.000000000               0.001133798               0.004937968               0.000129069              -0.000192071               0.001709997               0.001517925               0.000000000               0.000000000               0.000000000               0.000000000               0.001169124               0.004958388               0.000056571              -0.000181377               0.001713238               0.001531862               0.000000000               0.000000000               0.000000000               0.000000000              -0.008003451              -0.000186397              -0.001094302              -0.002977992               0.000930525              -0.002047467               0.000000000               0.000000000               0.000000000               0.000000000              -0.006195483               0.001424384               0.000528930              -0.002501351               0.001308569              -0.001192782               0.000000000               0.000000000               0.000000000               0.000000000              -0.005083115               0.002838619               0.001936838              -0.002260992               0.001699858              -0.000561134               0.000000000               0.000000000               0.000000000               0.000000000              -0.004246448               0.003735806               0.002234728              -0.002059390               0.001931718              -0.000127672               0.000000000               0.000000000               0.000000000               0.000000000              -0.003549096               0.004301838               0.002182345              -0.001868637               0.002056810               0.000188173               0.000000000               0.000000000               0.000000000               0.000000000              -0.002929536               0.004655791               0.002031575              -0.001680546               0.002112096               0.000431550               0.000000000               0.000000000               0.000000000               0.000000000              -0.002358626               0.004873936               0.001853368              -0.001493724               0.002122536               0.000628813               0.000000000               0.000000000               0.000000000               0.000000000              -0.001811920               0.005015491               0.001671298              -0.001306404               0.002107281               0.000800877               0.000000000               0.000000000               0.000000000               0.000000000              -0.001285547               0.005094412               0.001500364              -0.001118880               0.002071080               0.000952200               0.000000000               0.000000000               0.000000000               0.000000000              -0.000772078               0.005117722               0.001339839              -0.000929243               0.002015638               0.001086395               0.000000000               0.000000000               0.000000000               0.000000000              -0.000274519               0.005105733               0.001186544              -0.000741160               0.001948947               0.001207787               0.000000000               0.000000000               0.000000000               0.000000000               0.000209720               0.005074252               0.001036220              -0.000555636               0.001876612               0.001320977               0.000000000               0.000000000               0.000000000               0.000000000               0.000664968               0.005026492               0.000868762              -0.000378948               0.001801796               0.001422849               0.000000000               0.000000000               0.000000000               0.000000000               0.001070191               0.004976134               0.000673978              -0.000220695               0.001732260               0.001511565               0.000000000               0.000000000               0.000000000               0.000000000               0.001403713               0.004950648               0.000458651              -0.000092439               0.001681012               0.001588574               0.000000000               0.000000000               0.000000000               0.000000000               0.001639930               0.004963583               0.000233328              -0.000005474               0.001656336               0.001650861               0.000000000               0.000000000               0.000000000               0.000000000               0.001733887               0.004979797               0.000121068               0.000027732               0.001650672               0.001678404               0.000000000               0.000000000               0.000000000               0.000000000              -0.009971151              -0.000778645              -0.001275329              -0.003641848               0.000954394              -0.002687454               0.000000000               0.000000000               0.000000000               0.000000000              -0.007236685               0.000465363               0.000283083              -0.002771925               0.001079088              -0.001692836               0.000000000               0.000000000               0.000000000               0.000000000              -0.005309498               0.001492038               0.001682797              -0.002177564               0.001223191              -0.000954372               0.000000000               0.000000000               0.000000000               0.000000000              -0.004149670               0.002383541               0.002061564              -0.001854066               0.001412525              -0.000441541               0.000000000               0.000000000               0.000000000               0.000000000              -0.003315310               0.003069116               0.002085882              -0.001626878               0.001565320              -0.000061558               0.000000000               0.000000000               0.000000000               0.000000000              -0.002646317               0.003584040               0.001986304              -0.001440371               0.001674791               0.000234420               0.000000000               0.000000000               0.000000000               0.000000000              -0.002070625               0.003973559               0.001842514              -0.001273177               0.001748898               0.000475721               0.000000000               0.000000000               0.000000000               0.000000000              -0.001532031               0.004275231               0.001688583              -0.001108914               0.001794700               0.000685786               0.000000000               0.000000000               0.000000000               0.000000000              -0.001013740               0.004498436               0.001541781              -0.000942455               0.001813615               0.000871159               0.000000000               0.000000000               0.000000000               0.000000000              -0.000507122               0.004653011               0.001404070              -0.000771796               0.001808253               0.001036457               0.000000000               0.000000000               0.000000000               0.000000000               0.000000494               0.004764558               0.001274688              -0.000595384               0.001786631               0.001191247               0.000000000               0.000000000               0.000000000               0.000000000               0.000509552               0.004843520               0.001144582              -0.000414358               0.001752609               0.001338252               0.000000000               0.000000000               0.000000000               0.000000000               0.001011104               0.004893537               0.000989457              -0.000232528               0.001708672               0.001476144               0.000000000               0.000000000               0.000000000               0.000000000               0.001493607               0.004921043               0.000797905              -0.000055028               0.001658674               0.001603646               0.000000000               0.000000000               0.000000000               0.000000000               0.001944526               0.004942604               0.000570570               0.000111370               0.001610395               0.001721765               0.000000000               0.000000000               0.000000000               0.000000000               0.002337682               0.004971042               0.000305450               0.000255248               0.001571915               0.001827163               0.000000000               0.000000000               0.000000000               0.000000000               0.002559172               0.005003505               0.000172060               0.000334248               0.001556402               0.001890650               0.000000000               0.000000000               0.000000000               0.000000000              -0.011617553              -0.001086878              -0.001113697              -0.004220720               0.001044607              -0.003176113               0.000000000               0.000000000               0.000000000               0.000000000              -0.008133389              -0.000230375               0.000110557              -0.003021222               0.000930276              -0.002090946               0.000000000               0.000000000               0.000000000               0.000000000              -0.005497682               0.000389191               0.001235789              -0.002110278               0.000833150              -0.001277128               0.000000000               0.000000000               0.000000000               0.000000000              -0.004022595               0.001201010               0.001586209              -0.001658597               0.000953195              -0.000705402               0.000000000               0.000000000               0.000000000               0.000000000              -0.003048078               0.001937127               0.001649756              -0.001385168               0.001107423              -0.000277745               0.000000000               0.000000000               0.000000000               0.000000000              -0.002322222               0.002560039               0.001597120              -0.001190836               0.001250282               0.000059446               0.000000000               0.000000000               0.000000000               0.000000000              -0.001725163               0.003075902               0.001499861              -0.001031422               0.001369097               0.000337675               0.000000000               0.000000000               0.000000000               0.000000000              -0.001187985               0.003500370               0.001389735              -0.000883039               0.001461124               0.000578085               0.000000000               0.000000000               0.000000000               0.000000000              -0.000677703               0.003847562               0.001280970              -0.000735083               0.001527535               0.000792452               0.000000000               0.000000000               0.000000000               0.000000000              -0.000177993               0.004124626               0.001181042              -0.000582325               0.001568970               0.000986645               0.000000000               0.000000000               0.000000000               0.000000000               0.000329866               0.004349963               0.001090528              -0.000420045               0.001589988               0.001169943               0.000000000               0.000000000               0.000000000               0.000000000               0.000850527               0.004538292               0.000997847              -0.000248339               0.001595528               0.001347189               0.000000000               0.000000000               0.000000000               0.000000000               0.001390309               0.004694096               0.000880517              -0.000065397               0.001586482               0.001521085               0.000000000               0.000000000               0.000000000               0.000000000               0.001949237               0.004810707               0.000729227               0.000129624               0.001560345               0.001689969               0.000000000               0.000000000               0.000000000               0.000000000               0.002528658               0.004896715               0.000537933               0.000336154               0.001520170               0.001856325               0.000000000               0.000000000               0.000000000               0.000000000               0.003118272               0.004957931               0.000295063               0.000549605               0.001469425               0.002019031               0.000000000               0.000000000               0.000000000               0.000000000               0.003518225               0.005019923               0.000174345               0.000691837               0.001442679               0.002134516               0.000000000               0.000000000               0.000000000               0.000000000              -0.012712540              -0.001203533              -0.000645630              -0.004616758               0.001137734              -0.003479024               0.000000000               0.000000000               0.000000000               0.000000000              -0.008741487              -0.000639892               0.000026899              -0.003198069               0.000852720              -0.002345349               0.000000000               0.000000000               0.000000000               0.000000000              -0.005625550              -0.000336269               0.000653523              -0.002067546               0.000577088              -0.001490458               0.000000000               0.000000000               0.000000000               0.000000000              -0.003913980               0.000386906               0.000864717              -0.001516104               0.000634332              -0.000881772               0.000000000               0.000000000               0.000000000               0.000000000              -0.002835738               0.001139248               0.000914417              -0.001205806               0.000781679              -0.000424127               0.000000000               0.000000000               0.000000000               0.000000000              -0.002067635               0.001816023               0.000892445              -0.001002364               0.000939456              -0.000062909               0.000000000               0.000000000               0.000000000               0.000000000              -0.001451596               0.002400236               0.000843829              -0.000844376               0.001081529               0.000237153               0.000000000               0.000000000               0.000000000               0.000000000              -0.000910316               0.002903220               0.000786495              -0.000704269               0.001202487               0.000498217               0.000000000               0.000000000               0.000000000               0.000000000              -0.000400071               0.003334948               0.000727400              -0.000566894               0.001300603               0.000733709               0.000000000               0.000000000               0.000000000               0.000000000               0.000098758               0.003698371               0.000675364              -0.000425261               0.001374532               0.000949270               0.000000000               0.000000000               0.000000000               0.000000000               0.000603659               0.004010924               0.000629224              -0.000274993               0.001428625               0.001153633               0.000000000               0.000000000               0.000000000               0.000000000               0.001127443               0.004288403               0.000582498              -0.000113259               0.001467206               0.001353947               0.000000000               0.000000000               0.000000000               0.000000000               0.001686559               0.004525840               0.000522729               0.000066729               0.001486355               0.001553084               0.000000000               0.000000000               0.000000000               0.000000000               0.002298462               0.004712189               0.000441259               0.000272897               0.001479748               0.001752645               0.000000000               0.000000000               0.000000000               0.000000000               0.002979573               0.004850746               0.000332911               0.000510991               0.001446569               0.001957560               0.000000000               0.000000000               0.000000000               0.000000000               0.003744933               0.004940849               0.000186083               0.000786736               0.001384688               0.002171424               0.000000000               0.000000000               0.000000000               0.000000000               0.004315208               0.005030873               0.000112913               0.000989334               0.001347163               0.002336497               0.000000000               0.000000000               0.000000000               0.000000000               0.000000000               0.000000000               0.000000000               0.000000000               0.000000000               0.000000000               0.000000000               0.000000000               0.000000000               0.000000000               0.000000000               0.000000000               0.000000000               0.000000000               0.000000000               0.000000000               0.000000000               0.000000000               0.000000000               0.000000000               0.000000000               0.000000000               0.000000000               0.000000000               0.000000000               0.000000000               0.000000000               0.000000000               0.000000000               0.000000000               0.000000000               0.000000000               0.000000000               0.000000000               0.000000000               0.000000000               0.000000000               0.000000000               0.000000000               0.000000000               0.000000000               0.000000000               0.000000000               0.000000000               0.000000000               0.000000000               0.000000000               0.000000000               0.000000000               0.000000000               0.000000000               0.000000000               0.000000000               0.000000000               0.000000000               0.000000000               0.000000000               0.000000000               0.000000000               0.000000000               0.000000000               0.000000000               0.000000000               0.000000000               0.000000000               0.000000000               0.000000000               0.000000000               0.000000000               0.000000000               0.000000000               0.000000000               0.000000000               0.000000000               0.000000000               0.000000000               0.000000000               0.000000000               0.000000000               0.000000000               0.000000000               0.000000000               0.000000000               0.000000000               0.000000000               0.000000000               0.000000000               0.000000000               0.000000000               0.000000000               0.000000000               0.000000000               0.000000000               0.000000000               0.000000000               0.000000000               0.000000000               0.000000000               0.000000000               0.000000000               0.000000000               0.000000000               0.000000000               0.000000000               0.000000000               0.000000000               0.000000000               0.000000000               0.000000000               0.000000000               0.000000000               0.000000000               0.000000000               0.000000000               0.000000000               0.000000000               0.000000000               0.000000000               0.000000000               0.000000000               0.000000000               0.000000000               0.000000000               0.000000000               0.000000000               0.000000000               0.000000000               0.000000000               0.000000000               0.000000000               0.000000000               0.000000000               0.000000000               0.000000000               0.000000000               0.000000000               0.000000000               0.000000000               0.000000000               0.000000000               0.000000000               0.000000000               0.000000000               0.000000000               0.000000000               0.000000000               0.000000000               0.000000000               0.000000000               0.000000000               0.000000000               0.000000000               0.000000000               0.000000000               0.000000000               0.000000000               0.000000000               0.000000000               0.000000000               0.000000000               0.000000000               0.000000000               0.000000000               0.000000000               0.000000000               0.000000000               0.000000000               0.000000000               0.000000000               0.000000000 </DataArray>
</PointData>
</Piece>
</UnstructuredGrid> </VTKFile>
