<?xml version="1.0"?>
<VTKFile type="UnstructuredGrid" version="0.1">
<UnstructuredGrid>
<Piece NumberOfPoints="      1156" NumberOfCells="      1024">
<Points>
<DataArray type="Float64"                                    Name="coordinates"                                                      NumberOfComponents=" 3" format="ascii">
              0.133000000               0.000000000               0.000000000               0.155937500               0.000000000               0.000000000               0.178875000               0.000000000               0.000000000               0.201812500               0.000000000               0.000000000               0.224750000               0.000000000               0.000000000               0.247687500               0.000000000               0.000000000               0.270625000               0.000000000               0.000000000               0.293562500               0.000000000               0.000000000               0.316500000               0.000000000               0.000000000               0.339437500               0.000000000               0.000000000               0.362375000               0.000000000               0.000000000               0.385312500               0.000000000               0.000000000               0.408250000               0.000000000               0.000000000               0.431187500               0.000000000               0.000000000               0.454125000               0.000000000               0.000000000               0.477062500               0.000000000               0.000000000               0.500000000               0.000000000               0.000000000               0.132359569               0.013036280               0.000000000               0.155337096               0.016127762               0.000000000               0.178314623               0.019219245               0.000000000               0.201292150               0.022310727               0.000000000               0.224269676               0.025402210               0.000000000               0.247247203               0.028493692               0.000000000               0.270224730               0.031585175               0.000000000               0.293202257               0.034676657               0.000000000               0.316179784               0.037768140               0.000000000               0.339157311               0.040859622               0.000000000               0.362134838               0.043951105               0.000000000               0.385112365               0.047042587               0.000000000               0.408089892               0.050134070               0.000000000               0.431067419               0.053225552               0.000000000               0.454044946               0.056317035               0.000000000               0.477022473               0.059408517               0.000000000               0.500000000               0.062500000               0.000000000               0.130444442               0.025947013               0.000000000               0.153541665               0.032137825               0.000000000               0.176638887               0.038328636               0.000000000               0.199736109               0.044519448               0.000000000               0.222833332               0.050710260               0.000000000               0.245930554               0.056901071               0.000000000               0.269027776               0.063091883               0.000000000               0.292124999               0.069282695               0.000000000               0.315222221               0.075473506               0.000000000               0.338319444               0.081664318               0.000000000               0.361416666               0.087855130               0.000000000               0.384513888               0.094045942               0.000000000               0.407611111               0.100236753               0.000000000               0.430708333               0.106427565               0.000000000               0.453805555               0.112618377               0.000000000               0.476902778               0.118809188               0.000000000               0.500000000               0.125000000               0.000000000               0.127273065               0.038607862               0.000000000               0.150568498               0.047913621               0.000000000               0.173863932               0.057219379               0.000000000               0.197159365               0.066525138               0.000000000               0.220454798               0.075830897               0.000000000               0.243750232               0.085136655               0.000000000               0.267045665               0.094442414               0.000000000               0.290341099               0.103748172               0.000000000               0.313636532               0.113053931               0.000000000               0.336931966               0.122359690               0.000000000               0.360227399               0.131665448               0.000000000               0.383522833               0.140971207               0.000000000               0.406818266               0.150276966               0.000000000               0.430113700               0.159582724               0.000000000               0.453409133               0.168888483               0.000000000               0.476704567               0.178194241               0.000000000               0.500000000               0.187500000               0.000000000               0.122875978               0.050896897               0.000000000               0.146446229               0.063340840               0.000000000               0.170016481               0.075784784               0.000000000               0.193586732               0.088228728               0.000000000               0.217156983               0.100672672               0.000000000               0.240727235               0.113116616               0.000000000               0.264297486               0.125560560               0.000000000               0.287867738               0.138004504               0.000000000               0.311437989               0.150448448               0.000000000               0.335008240               0.162892392               0.000000000               0.358578492               0.175336336               0.000000000               0.382148743               0.187780280               0.000000000               0.405718994               0.200224224               0.000000000               0.429289246               0.212668168               0.000000000               0.452859497               0.225112112               0.000000000               0.476429749               0.237556056               0.000000000               0.500000000               0.250000000               0.000000000               0.117295528               0.062695766               0.000000000               0.141214558               0.078308531               0.000000000               0.165133587               0.093921295               0.000000000               0.189052617               0.109534060               0.000000000               0.212971646               0.125146824               0.000000000               0.236890676               0.140759589               0.000000000               0.260809705               0.156372354               0.000000000               0.284728735               0.171985118               0.000000000               0.308647764               0.187597883               0.000000000               0.332566794               0.203210648               0.000000000               0.356485823               0.218823412               0.000000000               0.380404853               0.234436177               0.000000000               0.404323882               0.250048941               0.000000000               0.428242912               0.265661706               0.000000000               0.452161941               0.281274471               0.000000000               0.476080971               0.296887235               0.000000000               0.500000000               0.312500000               0.000000000               0.110585458               0.073890841               0.000000000               0.134923867               0.092710163               0.000000000               0.159262276               0.111529486               0.000000000               0.183600685               0.130348808               0.000000000               0.207939094               0.149168131               0.000000000               0.232277503               0.167987453               0.000000000               0.256615912               0.186806776               0.000000000               0.280954320               0.205626098               0.000000000               0.305292729               0.224445420               0.000000000               0.329631138               0.243264743               0.000000000               0.353969547               0.262084065               0.000000000               0.378307956               0.280903388               0.000000000               0.402646365               0.299722710               0.000000000               0.426984773               0.318542033               0.000000000               0.451323182               0.337361355               0.000000000               0.475661591               0.356180678               0.000000000               0.500000000               0.375000000               0.000000000               0.102810390               0.084374307               0.000000000               0.127634741               0.106444663               0.000000000               0.152459092               0.128515018               0.000000000               0.177283442               0.150585374               0.000000000               0.202107793               0.172655730               0.000000000               0.226932143               0.194726086               0.000000000               0.251756494               0.216796442               0.000000000               0.276580845               0.238866798               0.000000000               0.301405195               0.260937153               0.000000000               0.326229546               0.283007509               0.000000000               0.351053896               0.305077865               0.000000000               0.375878247               0.327148221               0.000000000               0.400702598               0.349218577               0.000000000               0.425526948               0.371288933               0.000000000               0.450351299               0.393359288               0.000000000               0.475175649               0.415429644               0.000000000               0.500000000               0.437500000               0.000000000               0.094045202               0.094045202               0.000000000               0.119417377               0.119417377               0.000000000               0.144789552               0.144789552               0.000000000               0.170161727               0.170161727               0.000000000               0.195533901               0.195533901               0.000000000               0.220906076               0.220906076               0.000000000               0.246278251               0.246278251               0.000000000               0.271650426               0.271650426               0.000000000               0.297022601               0.297022601               0.000000000               0.322394776               0.322394776               0.000000000               0.347766951               0.347766951               0.000000000               0.373139126               0.373139126               0.000000000               0.398511300               0.398511300               0.000000000               0.423883475               0.423883475               0.000000000               0.449255650               0.449255650               0.000000000               0.474627825               0.474627825               0.000000000               0.500000000               0.500000000               0.000000000               0.084374307               0.102810390               0.000000000               0.106444663               0.127634741               0.000000000               0.128515018               0.152459092               0.000000000               0.150585374               0.177283442               0.000000000               0.172655730               0.202107793               0.000000000               0.194726086               0.226932143               0.000000000               0.216796442               0.251756494               0.000000000               0.238866798               0.276580845               0.000000000               0.260937153               0.301405195               0.000000000               0.283007509               0.326229546               0.000000000               0.305077865               0.351053896               0.000000000               0.327148221               0.375878247               0.000000000               0.349218577               0.400702598               0.000000000               0.371288933               0.425526948               0.000000000               0.393359288               0.450351299               0.000000000               0.415429644               0.475175649               0.000000000               0.437500000               0.500000000               0.000000000               0.073890841               0.110585458               0.000000000               0.092710163               0.134923867               0.000000000               0.111529486               0.159262276               0.000000000               0.130348808               0.183600685               0.000000000               0.149168131               0.207939094               0.000000000               0.167987453               0.232277503               0.000000000               0.186806776               0.256615912               0.000000000               0.205626098               0.280954320               0.000000000               0.224445420               0.305292729               0.000000000               0.243264743               0.329631138               0.000000000               0.262084065               0.353969547               0.000000000               0.280903388               0.378307956               0.000000000               0.299722710               0.402646365               0.000000000               0.318542033               0.426984773               0.000000000               0.337361355               0.451323182               0.000000000               0.356180678               0.475661591               0.000000000               0.375000000               0.500000000               0.000000000               0.062695766               0.117295528               0.000000000               0.078308531               0.141214558               0.000000000               0.093921295               0.165133587               0.000000000               0.109534060               0.189052617               0.000000000               0.125146824               0.212971646               0.000000000               0.140759589               0.236890676               0.000000000               0.156372354               0.260809705               0.000000000               0.171985118               0.284728735               0.000000000               0.187597883               0.308647764               0.000000000               0.203210648               0.332566794               0.000000000               0.218823412               0.356485823               0.000000000               0.234436177               0.380404853               0.000000000               0.250048941               0.404323882               0.000000000               0.265661706               0.428242912               0.000000000               0.281274471               0.452161941               0.000000000               0.296887235               0.476080971               0.000000000               0.312500000               0.500000000               0.000000000               0.050896897               0.122875978               0.000000000               0.063340840               0.146446229               0.000000000               0.075784784               0.170016481               0.000000000               0.088228728               0.193586732               0.000000000               0.100672672               0.217156983               0.000000000               0.113116616               0.240727235               0.000000000               0.125560560               0.264297486               0.000000000               0.138004504               0.287867738               0.000000000               0.150448448               0.311437989               0.000000000               0.162892392               0.335008240               0.000000000               0.175336336               0.358578492               0.000000000               0.187780280               0.382148743               0.000000000               0.200224224               0.405718994               0.000000000               0.212668168               0.429289246               0.000000000               0.225112112               0.452859497               0.000000000               0.237556056               0.476429749               0.000000000               0.250000000               0.500000000               0.000000000               0.038607862               0.127273065               0.000000000               0.047913621               0.150568498               0.000000000               0.057219379               0.173863932               0.000000000               0.066525138               0.197159365               0.000000000               0.075830897               0.220454798               0.000000000               0.085136655               0.243750232               0.000000000               0.094442414               0.267045665               0.000000000               0.103748172               0.290341099               0.000000000               0.113053931               0.313636532               0.000000000               0.122359690               0.336931966               0.000000000               0.131665448               0.360227399               0.000000000               0.140971207               0.383522833               0.000000000               0.150276966               0.406818266               0.000000000               0.159582724               0.430113700               0.000000000               0.168888483               0.453409133               0.000000000               0.178194241               0.476704567               0.000000000               0.187500000               0.500000000               0.000000000               0.025947013               0.130444442               0.000000000               0.032137825               0.153541665               0.000000000               0.038328636               0.176638887               0.000000000               0.044519448               0.199736109               0.000000000               0.050710260               0.222833332               0.000000000               0.056901071               0.245930554               0.000000000               0.063091883               0.269027776               0.000000000               0.069282695               0.292124999               0.000000000               0.075473506               0.315222221               0.000000000               0.081664318               0.338319444               0.000000000               0.087855130               0.361416666               0.000000000               0.094045942               0.384513888               0.000000000               0.100236753               0.407611111               0.000000000               0.106427565               0.430708333               0.000000000               0.112618377               0.453805555               0.000000000               0.118809188               0.476902778               0.000000000               0.125000000               0.500000000               0.000000000               0.013036280               0.132359569               0.000000000               0.016127762               0.155337096               0.000000000               0.019219245               0.178314623               0.000000000               0.022310727               0.201292150               0.000000000               0.025402210               0.224269676               0.000000000               0.028493692               0.247247203               0.000000000               0.031585175               0.270224730               0.000000000               0.034676657               0.293202257               0.000000000               0.037768140               0.316179784               0.000000000               0.040859622               0.339157311               0.000000000               0.043951105               0.362134838               0.000000000               0.047042587               0.385112365               0.000000000               0.050134070               0.408089892               0.000000000               0.053225552               0.431067419               0.000000000               0.056317035               0.454044946               0.000000000               0.059408517               0.477022473               0.000000000               0.062500000               0.500000000               0.000000000               0.000000000               0.133000000               0.000000000               0.000000000               0.155937500               0.000000000               0.000000000               0.178875000               0.000000000               0.000000000               0.201812500               0.000000000               0.000000000               0.224750000               0.000000000               0.000000000               0.247687500               0.000000000               0.000000000               0.270625000               0.000000000               0.000000000               0.293562500               0.000000000               0.000000000               0.316500000               0.000000000               0.000000000               0.339437500               0.000000000               0.000000000               0.362375000               0.000000000               0.000000000               0.385312500               0.000000000               0.000000000               0.408250000               0.000000000               0.000000000               0.431187500               0.000000000               0.000000000               0.454125000               0.000000000               0.000000000               0.477062500               0.000000000               0.000000000               0.500000000               0.000000000               0.133000000               0.000000000               0.000000000               0.155937500               0.000000000               0.000000000               0.178875000               0.000000000               0.000000000               0.201812500               0.000000000               0.000000000               0.224750000               0.000000000               0.000000000               0.247687500               0.000000000               0.000000000               0.270625000               0.000000000               0.000000000               0.293562500               0.000000000               0.000000000               0.316500000               0.000000000               0.000000000               0.339437500               0.000000000               0.000000000               0.362375000               0.000000000               0.000000000               0.385312500               0.000000000               0.000000000               0.408250000               0.000000000               0.000000000               0.431187500               0.000000000               0.000000000               0.454125000               0.000000000               0.000000000               0.477062500               0.000000000               0.000000000               0.500000000               0.000000000               0.000000000               0.132359569              -0.013036280               0.000000000               0.155337096              -0.016127762               0.000000000               0.178314623              -0.019219245               0.000000000               0.201292150              -0.022310727               0.000000000               0.224269676              -0.025402210               0.000000000               0.247247203              -0.028493692               0.000000000               0.270224730              -0.031585175               0.000000000               0.293202257              -0.034676657               0.000000000               0.316179784              -0.037768140               0.000000000               0.339157311              -0.040859622               0.000000000               0.362134838              -0.043951105               0.000000000               0.385112365              -0.047042587               0.000000000               0.408089892              -0.050134070               0.000000000               0.431067419              -0.053225552               0.000000000               0.454044946              -0.056317035               0.000000000               0.477022473              -0.059408517               0.000000000               0.500000000              -0.062500000               0.000000000               0.130444442              -0.025947013               0.000000000               0.153541665              -0.032137825               0.000000000               0.176638887              -0.038328636               0.000000000               0.199736109              -0.044519448               0.000000000               0.222833332              -0.050710260               0.000000000               0.245930554              -0.056901071               0.000000000               0.269027776              -0.063091883               0.000000000               0.292124999              -0.069282695               0.000000000               0.315222221              -0.075473506               0.000000000               0.338319444              -0.081664318               0.000000000               0.361416666              -0.087855130               0.000000000               0.384513888              -0.094045942               0.000000000               0.407611111              -0.100236753               0.000000000               0.430708333              -0.106427565               0.000000000               0.453805555              -0.112618377               0.000000000               0.476902778              -0.118809188               0.000000000               0.500000000              -0.125000000               0.000000000               0.127273065              -0.038607862               0.000000000               0.150568498              -0.047913621               0.000000000               0.173863932              -0.057219379               0.000000000               0.197159365              -0.066525138               0.000000000               0.220454798              -0.075830897               0.000000000               0.243750232              -0.085136655               0.000000000               0.267045665              -0.094442414               0.000000000               0.290341099              -0.103748172               0.000000000               0.313636532              -0.113053931               0.000000000               0.336931966              -0.122359690               0.000000000               0.360227399              -0.131665448               0.000000000               0.383522833              -0.140971207               0.000000000               0.406818266              -0.150276966               0.000000000               0.430113700              -0.159582724               0.000000000               0.453409133              -0.168888483               0.000000000               0.476704567              -0.178194241               0.000000000               0.500000000              -0.187500000               0.000000000               0.122875978              -0.050896897               0.000000000               0.146446229              -0.063340840               0.000000000               0.170016481              -0.075784784               0.000000000               0.193586732              -0.088228728               0.000000000               0.217156983              -0.100672672               0.000000000               0.240727235              -0.113116616               0.000000000               0.264297486              -0.125560560               0.000000000               0.287867738              -0.138004504               0.000000000               0.311437989              -0.150448448               0.000000000               0.335008240              -0.162892392               0.000000000               0.358578492              -0.175336336               0.000000000               0.382148743              -0.187780280               0.000000000               0.405718994              -0.200224224               0.000000000               0.429289246              -0.212668168               0.000000000               0.452859497              -0.225112112               0.000000000               0.476429749              -0.237556056               0.000000000               0.500000000              -0.250000000               0.000000000               0.117295528              -0.062695766               0.000000000               0.141214558              -0.078308531               0.000000000               0.165133587              -0.093921295               0.000000000               0.189052617              -0.109534060               0.000000000               0.212971646              -0.125146824               0.000000000               0.236890676              -0.140759589               0.000000000               0.260809705              -0.156372354               0.000000000               0.284728735              -0.171985118               0.000000000               0.308647764              -0.187597883               0.000000000               0.332566794              -0.203210648               0.000000000               0.356485823              -0.218823412               0.000000000               0.380404853              -0.234436177               0.000000000               0.404323882              -0.250048941               0.000000000               0.428242912              -0.265661706               0.000000000               0.452161941              -0.281274471               0.000000000               0.476080971              -0.296887235               0.000000000               0.500000000              -0.312500000               0.000000000               0.110585458              -0.073890841               0.000000000               0.134923867              -0.092710163               0.000000000               0.159262276              -0.111529486               0.000000000               0.183600685              -0.130348808               0.000000000               0.207939094              -0.149168131               0.000000000               0.232277503              -0.167987453               0.000000000               0.256615912              -0.186806776               0.000000000               0.280954320              -0.205626098               0.000000000               0.305292729              -0.224445420               0.000000000               0.329631138              -0.243264743               0.000000000               0.353969547              -0.262084065               0.000000000               0.378307956              -0.280903388               0.000000000               0.402646365              -0.299722710               0.000000000               0.426984773              -0.318542033               0.000000000               0.451323182              -0.337361355               0.000000000               0.475661591              -0.356180678               0.000000000               0.500000000              -0.375000000               0.000000000               0.102810390              -0.084374307               0.000000000               0.127634741              -0.106444663               0.000000000               0.152459092              -0.128515018               0.000000000               0.177283442              -0.150585374               0.000000000               0.202107793              -0.172655730               0.000000000               0.226932143              -0.194726086               0.000000000               0.251756494              -0.216796442               0.000000000               0.276580845              -0.238866798               0.000000000               0.301405195              -0.260937153               0.000000000               0.326229546              -0.283007509               0.000000000               0.351053896              -0.305077865               0.000000000               0.375878247              -0.327148221               0.000000000               0.400702598              -0.349218577               0.000000000               0.425526948              -0.371288933               0.000000000               0.450351299              -0.393359288               0.000000000               0.475175649              -0.415429644               0.000000000               0.500000000              -0.437500000               0.000000000               0.094045202              -0.094045202               0.000000000               0.119417377              -0.119417377               0.000000000               0.144789552              -0.144789552               0.000000000               0.170161727              -0.170161727               0.000000000               0.195533901              -0.195533901               0.000000000               0.220906076              -0.220906076               0.000000000               0.246278251              -0.246278251               0.000000000               0.271650426              -0.271650426               0.000000000               0.297022601              -0.297022601               0.000000000               0.322394776              -0.322394776               0.000000000               0.347766951              -0.347766951               0.000000000               0.373139126              -0.373139126               0.000000000               0.398511300              -0.398511300               0.000000000               0.423883475              -0.423883475               0.000000000               0.449255650              -0.449255650               0.000000000               0.474627825              -0.474627825               0.000000000               0.500000000              -0.500000000               0.000000000               0.084374307              -0.102810390               0.000000000               0.106444663              -0.127634741               0.000000000               0.128515018              -0.152459092               0.000000000               0.150585374              -0.177283442               0.000000000               0.172655730              -0.202107793               0.000000000               0.194726086              -0.226932143               0.000000000               0.216796442              -0.251756494               0.000000000               0.238866798              -0.276580845               0.000000000               0.260937153              -0.301405195               0.000000000               0.283007509              -0.326229546               0.000000000               0.305077865              -0.351053896               0.000000000               0.327148221              -0.375878247               0.000000000               0.349218577              -0.400702598               0.000000000               0.371288933              -0.425526948               0.000000000               0.393359288              -0.450351299               0.000000000               0.415429644              -0.475175649               0.000000000               0.437500000              -0.500000000               0.000000000               0.073890841              -0.110585458               0.000000000               0.092710163              -0.134923867               0.000000000               0.111529486              -0.159262276               0.000000000               0.130348808              -0.183600685               0.000000000               0.149168131              -0.207939094               0.000000000               0.167987453              -0.232277503               0.000000000               0.186806776              -0.256615912               0.000000000               0.205626098              -0.280954320               0.000000000               0.224445420              -0.305292729               0.000000000               0.243264743              -0.329631138               0.000000000               0.262084065              -0.353969547               0.000000000               0.280903388              -0.378307956               0.000000000               0.299722710              -0.402646365               0.000000000               0.318542033              -0.426984773               0.000000000               0.337361355              -0.451323182               0.000000000               0.356180678              -0.475661591               0.000000000               0.375000000              -0.500000000               0.000000000               0.062695766              -0.117295528               0.000000000               0.078308531              -0.141214558               0.000000000               0.093921295              -0.165133587               0.000000000               0.109534060              -0.189052617               0.000000000               0.125146824              -0.212971646               0.000000000               0.140759589              -0.236890676               0.000000000               0.156372354              -0.260809705               0.000000000               0.171985118              -0.284728735               0.000000000               0.187597883              -0.308647764               0.000000000               0.203210648              -0.332566794               0.000000000               0.218823412              -0.356485823               0.000000000               0.234436177              -0.380404853               0.000000000               0.250048941              -0.404323882               0.000000000               0.265661706              -0.428242912               0.000000000               0.281274471              -0.452161941               0.000000000               0.296887235              -0.476080971               0.000000000               0.312500000              -0.500000000               0.000000000               0.050896897              -0.122875978               0.000000000               0.063340840              -0.146446229               0.000000000               0.075784784              -0.170016481               0.000000000               0.088228728              -0.193586732               0.000000000               0.100672672              -0.217156983               0.000000000               0.113116616              -0.240727235               0.000000000               0.125560560              -0.264297486               0.000000000               0.138004504              -0.287867738               0.000000000               0.150448448              -0.311437989               0.000000000               0.162892392              -0.335008240               0.000000000               0.175336336              -0.358578492               0.000000000               0.187780280              -0.382148743               0.000000000               0.200224224              -0.405718994               0.000000000               0.212668168              -0.429289246               0.000000000               0.225112112              -0.452859497               0.000000000               0.237556056              -0.476429749               0.000000000               0.250000000              -0.500000000               0.000000000               0.038607862              -0.127273065               0.000000000               0.047913621              -0.150568498               0.000000000               0.057219379              -0.173863932               0.000000000               0.066525138              -0.197159365               0.000000000               0.075830897              -0.220454798               0.000000000               0.085136655              -0.243750232               0.000000000               0.094442414              -0.267045665               0.000000000               0.103748172              -0.290341099               0.000000000               0.113053931              -0.313636532               0.000000000               0.122359690              -0.336931966               0.000000000               0.131665448              -0.360227399               0.000000000               0.140971207              -0.383522833               0.000000000               0.150276966              -0.406818266               0.000000000               0.159582724              -0.430113700               0.000000000               0.168888483              -0.453409133               0.000000000               0.178194241              -0.476704567               0.000000000               0.187500000              -0.500000000               0.000000000               0.025947013              -0.130444442               0.000000000               0.032137825              -0.153541665               0.000000000               0.038328636              -0.176638887               0.000000000               0.044519448              -0.199736109               0.000000000               0.050710260              -0.222833332               0.000000000               0.056901071              -0.245930554               0.000000000               0.063091883              -0.269027776               0.000000000               0.069282695              -0.292124999               0.000000000               0.075473506              -0.315222221               0.000000000               0.081664318              -0.338319444               0.000000000               0.087855130              -0.361416666               0.000000000               0.094045942              -0.384513888               0.000000000               0.100236753              -0.407611111               0.000000000               0.106427565              -0.430708333               0.000000000               0.112618377              -0.453805555               0.000000000               0.118809188              -0.476902778               0.000000000               0.125000000              -0.500000000               0.000000000               0.013036280              -0.132359569               0.000000000               0.016127762              -0.155337096               0.000000000               0.019219245              -0.178314623               0.000000000               0.022310727              -0.201292150               0.000000000               0.025402210              -0.224269676               0.000000000               0.028493692              -0.247247203               0.000000000               0.031585175              -0.270224730               0.000000000               0.034676657              -0.293202257               0.000000000               0.037768140              -0.316179784               0.000000000               0.040859622              -0.339157311               0.000000000               0.043951105              -0.362134838               0.000000000               0.047042587              -0.385112365               0.000000000               0.050134070              -0.408089892               0.000000000               0.053225552              -0.431067419               0.000000000               0.056317035              -0.454044946               0.000000000               0.059408517              -0.477022473               0.000000000               0.062500000              -0.500000000               0.000000000               0.000000000              -0.133000000               0.000000000               0.000000000              -0.155937500               0.000000000               0.000000000              -0.178875000               0.000000000               0.000000000              -0.201812500               0.000000000               0.000000000              -0.224750000               0.000000000               0.000000000              -0.247687500               0.000000000               0.000000000              -0.270625000               0.000000000               0.000000000              -0.293562500               0.000000000               0.000000000              -0.316500000               0.000000000               0.000000000              -0.339437500               0.000000000               0.000000000              -0.362375000               0.000000000               0.000000000              -0.385312500               0.000000000               0.000000000              -0.408250000               0.000000000               0.000000000              -0.431187500               0.000000000               0.000000000              -0.454125000               0.000000000               0.000000000              -0.477062500               0.000000000               0.000000000              -0.500000000               0.000000000              -0.133000000               0.000000000               0.000000000              -0.155937500               0.000000000               0.000000000              -0.178875000               0.000000000               0.000000000              -0.201812500               0.000000000               0.000000000              -0.224750000               0.000000000               0.000000000              -0.247687500               0.000000000               0.000000000              -0.270625000               0.000000000               0.000000000              -0.293562500               0.000000000               0.000000000              -0.316500000               0.000000000               0.000000000              -0.339437500               0.000000000               0.000000000              -0.362375000               0.000000000               0.000000000              -0.385312500               0.000000000               0.000000000              -0.408250000               0.000000000               0.000000000              -0.431187500               0.000000000               0.000000000              -0.454125000               0.000000000               0.000000000              -0.477062500               0.000000000               0.000000000              -0.500000000               0.000000000               0.000000000              -0.132359569              -0.013036280               0.000000000              -0.155337096              -0.016127762               0.000000000              -0.178314623              -0.019219245               0.000000000              -0.201292150              -0.022310727               0.000000000              -0.224269676              -0.025402210               0.000000000              -0.247247203              -0.028493692               0.000000000              -0.270224730              -0.031585175               0.000000000              -0.293202257              -0.034676657               0.000000000              -0.316179784              -0.037768140               0.000000000              -0.339157311              -0.040859622               0.000000000              -0.362134838              -0.043951105               0.000000000              -0.385112365              -0.047042587               0.000000000              -0.408089892              -0.050134070               0.000000000              -0.431067419              -0.053225552               0.000000000              -0.454044946              -0.056317035               0.000000000              -0.477022473              -0.059408517               0.000000000              -0.500000000              -0.062500000               0.000000000              -0.130444442              -0.025947013               0.000000000              -0.153541665              -0.032137825               0.000000000              -0.176638887              -0.038328636               0.000000000              -0.199736109              -0.044519448               0.000000000              -0.222833332              -0.050710260               0.000000000              -0.245930554              -0.056901071               0.000000000              -0.269027776              -0.063091883               0.000000000              -0.292124999              -0.069282695               0.000000000              -0.315222221              -0.075473506               0.000000000              -0.338319444              -0.081664318               0.000000000              -0.361416666              -0.087855130               0.000000000              -0.384513888              -0.094045942               0.000000000              -0.407611111              -0.100236753               0.000000000              -0.430708333              -0.106427565               0.000000000              -0.453805555              -0.112618377               0.000000000              -0.476902778              -0.118809188               0.000000000              -0.500000000              -0.125000000               0.000000000              -0.127273065              -0.038607862               0.000000000              -0.150568498              -0.047913621               0.000000000              -0.173863932              -0.057219379               0.000000000              -0.197159365              -0.066525138               0.000000000              -0.220454798              -0.075830897               0.000000000              -0.243750232              -0.085136655               0.000000000              -0.267045665              -0.094442414               0.000000000              -0.290341099              -0.103748172               0.000000000              -0.313636532              -0.113053931               0.000000000              -0.336931966              -0.122359690               0.000000000              -0.360227399              -0.131665448               0.000000000              -0.383522833              -0.140971207               0.000000000              -0.406818266              -0.150276966               0.000000000              -0.430113700              -0.159582724               0.000000000              -0.453409133              -0.168888483               0.000000000              -0.476704567              -0.178194241               0.000000000              -0.500000000              -0.187500000               0.000000000              -0.122875978              -0.050896897               0.000000000              -0.146446229              -0.063340840               0.000000000              -0.170016481              -0.075784784               0.000000000              -0.193586732              -0.088228728               0.000000000              -0.217156983              -0.100672672               0.000000000              -0.240727235              -0.113116616               0.000000000              -0.264297486              -0.125560560               0.000000000              -0.287867738              -0.138004504               0.000000000              -0.311437989              -0.150448448               0.000000000              -0.335008240              -0.162892392               0.000000000              -0.358578492              -0.175336336               0.000000000              -0.382148743              -0.187780280               0.000000000              -0.405718994              -0.200224224               0.000000000              -0.429289246              -0.212668168               0.000000000              -0.452859497              -0.225112112               0.000000000              -0.476429749              -0.237556056               0.000000000              -0.500000000              -0.250000000               0.000000000              -0.117295528              -0.062695766               0.000000000              -0.141214558              -0.078308531               0.000000000              -0.165133587              -0.093921295               0.000000000              -0.189052617              -0.109534060               0.000000000              -0.212971646              -0.125146824               0.000000000              -0.236890676              -0.140759589               0.000000000              -0.260809705              -0.156372354               0.000000000              -0.284728735              -0.171985118               0.000000000              -0.308647764              -0.187597883               0.000000000              -0.332566794              -0.203210648               0.000000000              -0.356485823              -0.218823412               0.000000000              -0.380404853              -0.234436177               0.000000000              -0.404323882              -0.250048941               0.000000000              -0.428242912              -0.265661706               0.000000000              -0.452161941              -0.281274471               0.000000000              -0.476080971              -0.296887235               0.000000000              -0.500000000              -0.312500000               0.000000000              -0.110585458              -0.073890841               0.000000000              -0.134923867              -0.092710163               0.000000000              -0.159262276              -0.111529486               0.000000000              -0.183600685              -0.130348808               0.000000000              -0.207939094              -0.149168131               0.000000000              -0.232277503              -0.167987453               0.000000000              -0.256615912              -0.186806776               0.000000000              -0.280954320              -0.205626098               0.000000000              -0.305292729              -0.224445420               0.000000000              -0.329631138              -0.243264743               0.000000000              -0.353969547              -0.262084065               0.000000000              -0.378307956              -0.280903388               0.000000000              -0.402646365              -0.299722710               0.000000000              -0.426984773              -0.318542033               0.000000000              -0.451323182              -0.337361355               0.000000000              -0.475661591              -0.356180678               0.000000000              -0.500000000              -0.375000000               0.000000000              -0.102810390              -0.084374307               0.000000000              -0.127634741              -0.106444663               0.000000000              -0.152459092              -0.128515018               0.000000000              -0.177283442              -0.150585374               0.000000000              -0.202107793              -0.172655730               0.000000000              -0.226932143              -0.194726086               0.000000000              -0.251756494              -0.216796442               0.000000000              -0.276580845              -0.238866798               0.000000000              -0.301405195              -0.260937153               0.000000000              -0.326229546              -0.283007509               0.000000000              -0.351053896              -0.305077865               0.000000000              -0.375878247              -0.327148221               0.000000000              -0.400702598              -0.349218577               0.000000000              -0.425526948              -0.371288933               0.000000000              -0.450351299              -0.393359288               0.000000000              -0.475175649              -0.415429644               0.000000000              -0.500000000              -0.437500000               0.000000000              -0.094045202              -0.094045202               0.000000000              -0.119417377              -0.119417377               0.000000000              -0.144789552              -0.144789552               0.000000000              -0.170161727              -0.170161727               0.000000000              -0.195533901              -0.195533901               0.000000000              -0.220906076              -0.220906076               0.000000000              -0.246278251              -0.246278251               0.000000000              -0.271650426              -0.271650426               0.000000000              -0.297022601              -0.297022601               0.000000000              -0.322394776              -0.322394776               0.000000000              -0.347766951              -0.347766951               0.000000000              -0.373139126              -0.373139126               0.000000000              -0.398511300              -0.398511300               0.000000000              -0.423883475              -0.423883475               0.000000000              -0.449255650              -0.449255650               0.000000000              -0.474627825              -0.474627825               0.000000000              -0.500000000              -0.500000000               0.000000000              -0.084374307              -0.102810390               0.000000000              -0.106444663              -0.127634741               0.000000000              -0.128515018              -0.152459092               0.000000000              -0.150585374              -0.177283442               0.000000000              -0.172655730              -0.202107793               0.000000000              -0.194726086              -0.226932143               0.000000000              -0.216796442              -0.251756494               0.000000000              -0.238866798              -0.276580845               0.000000000              -0.260937153              -0.301405195               0.000000000              -0.283007509              -0.326229546               0.000000000              -0.305077865              -0.351053896               0.000000000              -0.327148221              -0.375878247               0.000000000              -0.349218577              -0.400702598               0.000000000              -0.371288933              -0.425526948               0.000000000              -0.393359288              -0.450351299               0.000000000              -0.415429644              -0.475175649               0.000000000              -0.437500000              -0.500000000               0.000000000              -0.073890841              -0.110585458               0.000000000              -0.092710163              -0.134923867               0.000000000              -0.111529486              -0.159262276               0.000000000              -0.130348808              -0.183600685               0.000000000              -0.149168131              -0.207939094               0.000000000              -0.167987453              -0.232277503               0.000000000              -0.186806776              -0.256615912               0.000000000              -0.205626098              -0.280954320               0.000000000              -0.224445420              -0.305292729               0.000000000              -0.243264743              -0.329631138               0.000000000              -0.262084065              -0.353969547               0.000000000              -0.280903388              -0.378307956               0.000000000              -0.299722710              -0.402646365               0.000000000              -0.318542033              -0.426984773               0.000000000              -0.337361355              -0.451323182               0.000000000              -0.356180678              -0.475661591               0.000000000              -0.375000000              -0.500000000               0.000000000              -0.062695766              -0.117295528               0.000000000              -0.078308531              -0.141214558               0.000000000              -0.093921295              -0.165133587               0.000000000              -0.109534060              -0.189052617               0.000000000              -0.125146824              -0.212971646               0.000000000              -0.140759589              -0.236890676               0.000000000              -0.156372354              -0.260809705               0.000000000              -0.171985118              -0.284728735               0.000000000              -0.187597883              -0.308647764               0.000000000              -0.203210648              -0.332566794               0.000000000              -0.218823412              -0.356485823               0.000000000              -0.234436177              -0.380404853               0.000000000              -0.250048941              -0.404323882               0.000000000              -0.265661706              -0.428242912               0.000000000              -0.281274471              -0.452161941               0.000000000              -0.296887235              -0.476080971               0.000000000              -0.312500000              -0.500000000               0.000000000              -0.050896897              -0.122875978               0.000000000              -0.063340840              -0.146446229               0.000000000              -0.075784784              -0.170016481               0.000000000              -0.088228728              -0.193586732               0.000000000              -0.100672672              -0.217156983               0.000000000              -0.113116616              -0.240727235               0.000000000              -0.125560560              -0.264297486               0.000000000              -0.138004504              -0.287867738               0.000000000              -0.150448448              -0.311437989               0.000000000              -0.162892392              -0.335008240               0.000000000              -0.175336336              -0.358578492               0.000000000              -0.187780280              -0.382148743               0.000000000              -0.200224224              -0.405718994               0.000000000              -0.212668168              -0.429289246               0.000000000              -0.225112112              -0.452859497               0.000000000              -0.237556056              -0.476429749               0.000000000              -0.250000000              -0.500000000               0.000000000              -0.038607862              -0.127273065               0.000000000              -0.047913621              -0.150568498               0.000000000              -0.057219379              -0.173863932               0.000000000              -0.066525138              -0.197159365               0.000000000              -0.075830897              -0.220454798               0.000000000              -0.085136655              -0.243750232               0.000000000              -0.094442414              -0.267045665               0.000000000              -0.103748172              -0.290341099               0.000000000              -0.113053931              -0.313636532               0.000000000              -0.122359690              -0.336931966               0.000000000              -0.131665448              -0.360227399               0.000000000              -0.140971207              -0.383522833               0.000000000              -0.150276966              -0.406818266               0.000000000              -0.159582724              -0.430113700               0.000000000              -0.168888483              -0.453409133               0.000000000              -0.178194241              -0.476704567               0.000000000              -0.187500000              -0.500000000               0.000000000              -0.025947013              -0.130444442               0.000000000              -0.032137825              -0.153541665               0.000000000              -0.038328636              -0.176638887               0.000000000              -0.044519448              -0.199736109               0.000000000              -0.050710260              -0.222833332               0.000000000              -0.056901071              -0.245930554               0.000000000              -0.063091883              -0.269027776               0.000000000              -0.069282695              -0.292124999               0.000000000              -0.075473506              -0.315222221               0.000000000              -0.081664318              -0.338319444               0.000000000              -0.087855130              -0.361416666               0.000000000              -0.094045942              -0.384513888               0.000000000              -0.100236753              -0.407611111               0.000000000              -0.106427565              -0.430708333               0.000000000              -0.112618377              -0.453805555               0.000000000              -0.118809188              -0.476902778               0.000000000              -0.125000000              -0.500000000               0.000000000              -0.013036280              -0.132359569               0.000000000              -0.016127762              -0.155337096               0.000000000              -0.019219245              -0.178314623               0.000000000              -0.022310727              -0.201292150               0.000000000              -0.025402210              -0.224269676               0.000000000              -0.028493692              -0.247247203               0.000000000              -0.031585175              -0.270224730               0.000000000              -0.034676657              -0.293202257               0.000000000              -0.037768140              -0.316179784               0.000000000              -0.040859622              -0.339157311               0.000000000              -0.043951105              -0.362134838               0.000000000              -0.047042587              -0.385112365               0.000000000              -0.050134070              -0.408089892               0.000000000              -0.053225552              -0.431067419               0.000000000              -0.056317035              -0.454044946               0.000000000              -0.059408517              -0.477022473               0.000000000              -0.062500000              -0.500000000               0.000000000               0.000000000              -0.133000000               0.000000000               0.000000000              -0.155937500               0.000000000               0.000000000              -0.178875000               0.000000000               0.000000000              -0.201812500               0.000000000               0.000000000              -0.224750000               0.000000000               0.000000000              -0.247687500               0.000000000               0.000000000              -0.270625000               0.000000000               0.000000000              -0.293562500               0.000000000               0.000000000              -0.316500000               0.000000000               0.000000000              -0.339437500               0.000000000               0.000000000              -0.362375000               0.000000000               0.000000000              -0.385312500               0.000000000               0.000000000              -0.408250000               0.000000000               0.000000000              -0.431187500               0.000000000               0.000000000              -0.454125000               0.000000000               0.000000000              -0.477062500               0.000000000               0.000000000              -0.500000000               0.000000000              -0.133000000               0.000000000               0.000000000              -0.155937500               0.000000000               0.000000000              -0.178875000               0.000000000               0.000000000              -0.201812500               0.000000000               0.000000000              -0.224750000               0.000000000               0.000000000              -0.247687500               0.000000000               0.000000000              -0.270625000               0.000000000               0.000000000              -0.293562500               0.000000000               0.000000000              -0.316500000               0.000000000               0.000000000              -0.339437500               0.000000000               0.000000000              -0.362375000               0.000000000               0.000000000              -0.385312500               0.000000000               0.000000000              -0.408250000               0.000000000               0.000000000              -0.431187500               0.000000000               0.000000000              -0.454125000               0.000000000               0.000000000              -0.477062500               0.000000000               0.000000000              -0.500000000               0.000000000               0.000000000              -0.132359569               0.013036280               0.000000000              -0.155337096               0.016127762               0.000000000              -0.178314623               0.019219245               0.000000000              -0.201292150               0.022310727               0.000000000              -0.224269676               0.025402210               0.000000000              -0.247247203               0.028493692               0.000000000              -0.270224730               0.031585175               0.000000000              -0.293202257               0.034676657               0.000000000              -0.316179784               0.037768140               0.000000000              -0.339157311               0.040859622               0.000000000              -0.362134838               0.043951105               0.000000000              -0.385112365               0.047042587               0.000000000              -0.408089892               0.050134070               0.000000000              -0.431067419               0.053225552               0.000000000              -0.454044946               0.056317035               0.000000000              -0.477022473               0.059408517               0.000000000              -0.500000000               0.062500000               0.000000000              -0.130444442               0.025947013               0.000000000              -0.153541665               0.032137825               0.000000000              -0.176638887               0.038328636               0.000000000              -0.199736109               0.044519448               0.000000000              -0.222833332               0.050710260               0.000000000              -0.245930554               0.056901071               0.000000000              -0.269027776               0.063091883               0.000000000              -0.292124999               0.069282695               0.000000000              -0.315222221               0.075473506               0.000000000              -0.338319444               0.081664318               0.000000000              -0.361416666               0.087855130               0.000000000              -0.384513888               0.094045942               0.000000000              -0.407611111               0.100236753               0.000000000              -0.430708333               0.106427565               0.000000000              -0.453805555               0.112618377               0.000000000              -0.476902778               0.118809188               0.000000000              -0.500000000               0.125000000               0.000000000              -0.127273065               0.038607862               0.000000000              -0.150568498               0.047913621               0.000000000              -0.173863932               0.057219379               0.000000000              -0.197159365               0.066525138               0.000000000              -0.220454798               0.075830897               0.000000000              -0.243750232               0.085136655               0.000000000              -0.267045665               0.094442414               0.000000000              -0.290341099               0.103748172               0.000000000              -0.313636532               0.113053931               0.000000000              -0.336931966               0.122359690               0.000000000              -0.360227399               0.131665448               0.000000000              -0.383522833               0.140971207               0.000000000              -0.406818266               0.150276966               0.000000000              -0.430113700               0.159582724               0.000000000              -0.453409133               0.168888483               0.000000000              -0.476704567               0.178194241               0.000000000              -0.500000000               0.187500000               0.000000000              -0.122875978               0.050896897               0.000000000              -0.146446229               0.063340840               0.000000000              -0.170016481               0.075784784               0.000000000              -0.193586732               0.088228728               0.000000000              -0.217156983               0.100672672               0.000000000              -0.240727235               0.113116616               0.000000000              -0.264297486               0.125560560               0.000000000              -0.287867738               0.138004504               0.000000000              -0.311437989               0.150448448               0.000000000              -0.335008240               0.162892392               0.000000000              -0.358578492               0.175336336               0.000000000              -0.382148743               0.187780280               0.000000000              -0.405718994               0.200224224               0.000000000              -0.429289246               0.212668168               0.000000000              -0.452859497               0.225112112               0.000000000              -0.476429749               0.237556056               0.000000000              -0.500000000               0.250000000               0.000000000              -0.117295528               0.062695766               0.000000000              -0.141214558               0.078308531               0.000000000              -0.165133587               0.093921295               0.000000000              -0.189052617               0.109534060               0.000000000              -0.212971646               0.125146824               0.000000000              -0.236890676               0.140759589               0.000000000              -0.260809705               0.156372354               0.000000000              -0.284728735               0.171985118               0.000000000              -0.308647764               0.187597883               0.000000000              -0.332566794               0.203210648               0.000000000              -0.356485823               0.218823412               0.000000000              -0.380404853               0.234436177               0.000000000              -0.404323882               0.250048941               0.000000000              -0.428242912               0.265661706               0.000000000              -0.452161941               0.281274471               0.000000000              -0.476080971               0.296887235               0.000000000              -0.500000000               0.312500000               0.000000000              -0.110585458               0.073890841               0.000000000              -0.134923867               0.092710163               0.000000000              -0.159262276               0.111529486               0.000000000              -0.183600685               0.130348808               0.000000000              -0.207939094               0.149168131               0.000000000              -0.232277503               0.167987453               0.000000000              -0.256615912               0.186806776               0.000000000              -0.280954320               0.205626098               0.000000000              -0.305292729               0.224445420               0.000000000              -0.329631138               0.243264743               0.000000000              -0.353969547               0.262084065               0.000000000              -0.378307956               0.280903388               0.000000000              -0.402646365               0.299722710               0.000000000              -0.426984773               0.318542033               0.000000000              -0.451323182               0.337361355               0.000000000              -0.475661591               0.356180678               0.000000000              -0.500000000               0.375000000               0.000000000              -0.102810390               0.084374307               0.000000000              -0.127634741               0.106444663               0.000000000              -0.152459092               0.128515018               0.000000000              -0.177283442               0.150585374               0.000000000              -0.202107793               0.172655730               0.000000000              -0.226932143               0.194726086               0.000000000              -0.251756494               0.216796442               0.000000000              -0.276580845               0.238866798               0.000000000              -0.301405195               0.260937153               0.000000000              -0.326229546               0.283007509               0.000000000              -0.351053896               0.305077865               0.000000000              -0.375878247               0.327148221               0.000000000              -0.400702598               0.349218577               0.000000000              -0.425526948               0.371288933               0.000000000              -0.450351299               0.393359288               0.000000000              -0.475175649               0.415429644               0.000000000              -0.500000000               0.437500000               0.000000000              -0.094045202               0.094045202               0.000000000              -0.119417377               0.119417377               0.000000000              -0.144789552               0.144789552               0.000000000              -0.170161727               0.170161727               0.000000000              -0.195533901               0.195533901               0.000000000              -0.220906076               0.220906076               0.000000000              -0.246278251               0.246278251               0.000000000              -0.271650426               0.271650426               0.000000000              -0.297022601               0.297022601               0.000000000              -0.322394776               0.322394776               0.000000000              -0.347766951               0.347766951               0.000000000              -0.373139126               0.373139126               0.000000000              -0.398511300               0.398511300               0.000000000              -0.423883475               0.423883475               0.000000000              -0.449255650               0.449255650               0.000000000              -0.474627825               0.474627825               0.000000000              -0.500000000               0.500000000               0.000000000              -0.084374307               0.102810390               0.000000000              -0.106444663               0.127634741               0.000000000              -0.128515018               0.152459092               0.000000000              -0.150585374               0.177283442               0.000000000              -0.172655730               0.202107793               0.000000000              -0.194726086               0.226932143               0.000000000              -0.216796442               0.251756494               0.000000000              -0.238866798               0.276580845               0.000000000              -0.260937153               0.301405195               0.000000000              -0.283007509               0.326229546               0.000000000              -0.305077865               0.351053896               0.000000000              -0.327148221               0.375878247               0.000000000              -0.349218577               0.400702598               0.000000000              -0.371288933               0.425526948               0.000000000              -0.393359288               0.450351299               0.000000000              -0.415429644               0.475175649               0.000000000              -0.437500000               0.500000000               0.000000000              -0.073890841               0.110585458               0.000000000              -0.092710163               0.134923867               0.000000000              -0.111529486               0.159262276               0.000000000              -0.130348808               0.183600685               0.000000000              -0.149168131               0.207939094               0.000000000              -0.167987453               0.232277503               0.000000000              -0.186806776               0.256615912               0.000000000              -0.205626098               0.280954320               0.000000000              -0.224445420               0.305292729               0.000000000              -0.243264743               0.329631138               0.000000000              -0.262084065               0.353969547               0.000000000              -0.280903388               0.378307956               0.000000000              -0.299722710               0.402646365               0.000000000              -0.318542033               0.426984773               0.000000000              -0.337361355               0.451323182               0.000000000              -0.356180678               0.475661591               0.000000000              -0.375000000               0.500000000               0.000000000              -0.062695766               0.117295528               0.000000000              -0.078308531               0.141214558               0.000000000              -0.093921295               0.165133587               0.000000000              -0.109534060               0.189052617               0.000000000              -0.125146824               0.212971646               0.000000000              -0.140759589               0.236890676               0.000000000              -0.156372354               0.260809705               0.000000000              -0.171985118               0.284728735               0.000000000              -0.187597883               0.308647764               0.000000000              -0.203210648               0.332566794               0.000000000              -0.218823412               0.356485823               0.000000000              -0.234436177               0.380404853               0.000000000              -0.250048941               0.404323882               0.000000000              -0.265661706               0.428242912               0.000000000              -0.281274471               0.452161941               0.000000000              -0.296887235               0.476080971               0.000000000              -0.312500000               0.500000000               0.000000000              -0.050896897               0.122875978               0.000000000              -0.063340840               0.146446229               0.000000000              -0.075784784               0.170016481               0.000000000              -0.088228728               0.193586732               0.000000000              -0.100672672               0.217156983               0.000000000              -0.113116616               0.240727235               0.000000000              -0.125560560               0.264297486               0.000000000              -0.138004504               0.287867738               0.000000000              -0.150448448               0.311437989               0.000000000              -0.162892392               0.335008240               0.000000000              -0.175336336               0.358578492               0.000000000              -0.187780280               0.382148743               0.000000000              -0.200224224               0.405718994               0.000000000              -0.212668168               0.429289246               0.000000000              -0.225112112               0.452859497               0.000000000              -0.237556056               0.476429749               0.000000000              -0.250000000               0.500000000               0.000000000              -0.038607862               0.127273065               0.000000000              -0.047913621               0.150568498               0.000000000              -0.057219379               0.173863932               0.000000000              -0.066525138               0.197159365               0.000000000              -0.075830897               0.220454798               0.000000000              -0.085136655               0.243750232               0.000000000              -0.094442414               0.267045665               0.000000000              -0.103748172               0.290341099               0.000000000              -0.113053931               0.313636532               0.000000000              -0.122359690               0.336931966               0.000000000              -0.131665448               0.360227399               0.000000000              -0.140971207               0.383522833               0.000000000              -0.150276966               0.406818266               0.000000000              -0.159582724               0.430113700               0.000000000              -0.168888483               0.453409133               0.000000000              -0.178194241               0.476704567               0.000000000              -0.187500000               0.500000000               0.000000000              -0.025947013               0.130444442               0.000000000              -0.032137825               0.153541665               0.000000000              -0.038328636               0.176638887               0.000000000              -0.044519448               0.199736109               0.000000000              -0.050710260               0.222833332               0.000000000              -0.056901071               0.245930554               0.000000000              -0.063091883               0.269027776               0.000000000              -0.069282695               0.292124999               0.000000000              -0.075473506               0.315222221               0.000000000              -0.081664318               0.338319444               0.000000000              -0.087855130               0.361416666               0.000000000              -0.094045942               0.384513888               0.000000000              -0.100236753               0.407611111               0.000000000              -0.106427565               0.430708333               0.000000000              -0.112618377               0.453805555               0.000000000              -0.118809188               0.476902778               0.000000000              -0.125000000               0.500000000               0.000000000              -0.013036280               0.132359569               0.000000000              -0.016127762               0.155337096               0.000000000              -0.019219245               0.178314623               0.000000000              -0.022310727               0.201292150               0.000000000              -0.025402210               0.224269676               0.000000000              -0.028493692               0.247247203               0.000000000              -0.031585175               0.270224730               0.000000000              -0.034676657               0.293202257               0.000000000              -0.037768140               0.316179784               0.000000000              -0.040859622               0.339157311               0.000000000              -0.043951105               0.362134838               0.000000000              -0.047042587               0.385112365               0.000000000              -0.050134070               0.408089892               0.000000000              -0.053225552               0.431067419               0.000000000              -0.056317035               0.454044946               0.000000000              -0.059408517               0.477022473               0.000000000              -0.062500000               0.500000000               0.000000000               0.000000000               0.133000000               0.000000000               0.000000000               0.155937500               0.000000000               0.000000000               0.178875000               0.000000000               0.000000000               0.201812500               0.000000000               0.000000000               0.224750000               0.000000000               0.000000000               0.247687500               0.000000000               0.000000000               0.270625000               0.000000000               0.000000000               0.293562500               0.000000000               0.000000000               0.316500000               0.000000000               0.000000000               0.339437500               0.000000000               0.000000000               0.362375000               0.000000000               0.000000000               0.385312500               0.000000000               0.000000000               0.408250000               0.000000000               0.000000000               0.431187500               0.000000000               0.000000000               0.454125000               0.000000000               0.000000000               0.477062500               0.000000000               0.000000000               0.500000000               0.000000000 </DataArray>
</Points>
<Cells>
<DataArray type="Int32"                                    Name="connectivity"                                                      NumberOfComponents=" 1" format="ascii">
         0          1         18         17          1          2         19         18          2          3         20         19          3          4         21         20          4          5         22         21          5          6         23         22          6          7         24         23          7          8         25         24          8          9         26         25          9         10         27         26         10         11         28         27         11         12         29         28         12         13         30         29         13         14         31         30         14         15         32         31         15         16         33         32         17         18         35         34         18         19         36         35         19         20         37         36         20         21         38         37         21         22         39         38         22         23         40         39         23         24         41         40         24         25         42         41         25         26         43         42         26         27         44         43         27         28         45         44         28         29         46         45         29         30         47         46         30         31         48         47         31         32         49         48         32         33         50         49         34         35         52         51         35         36         53         52         36         37         54         53         37         38         55         54         38         39         56         55         39         40         57         56         40         41         58         57         41         42         59         58         42         43         60         59         43         44         61         60         44         45         62         61         45         46         63         62         46         47         64         63         47         48         65         64         48         49         66         65         49         50         67         66         51         52         69         68         52         53         70         69         53         54         71         70         54         55         72         71         55         56         73         72         56         57         74         73         57         58         75         74         58         59         76         75         59         60         77         76         60         61         78         77         61         62         79         78         62         63         80         79         63         64         81         80         64         65         82         81         65         66         83         82         66         67         84         83         68         69         86         85         69         70         87         86         70         71         88         87         71         72         89         88         72         73         90         89         73         74         91         90         74         75         92         91         75         76         93         92         76         77         94         93         77         78         95         94         78         79         96         95         79         80         97         96         80         81         98         97         81         82         99         98         82         83        100         99         83         84        101        100         85         86        103        102         86         87        104        103         87         88        105        104         88         89        106        105         89         90        107        106         90         91        108        107         91         92        109        108         92         93        110        109         93         94        111        110         94         95        112        111         95         96        113        112         96         97        114        113         97         98        115        114         98         99        116        115         99        100        117        116        100        101        118        117        102        103        120        119        103        104        121        120        104        105        122        121        105        106        123        122        106        107        124        123        107        108        125        124        108        109        126        125        109        110        127        126        110        111        128        127        111        112        129        128        112        113        130        129        113        114        131        130        114        115        132        131        115        116        133        132        116        117        134        133        117        118        135        134        119        120        137        136        120        121        138        137        121        122        139        138        122        123        140        139        123        124        141        140        124        125        142        141        125        126        143        142        126        127        144        143        127        128        145        144        128        129        146        145        129        130        147        146        130        131        148        147        131        132        149        148        132        133        150        149        133        134        151        150        134        135        152        151        136        137        154        153        137        138        155        154        138        139        156        155        139        140        157        156        140        141        158        157        141        142        159        158        142        143        160        159        143        144        161        160        144        145        162        161        145        146        163        162        146        147        164        163        147        148        165        164        148        149        166        165        149        150        167        166        150        151        168        167        151        152        169        168        153        154        171        170        154        155        172        171        155        156        173        172        156        157        174        173        157        158        175        174        158        159        176        175        159        160        177        176        160        161        178        177        161        162        179        178        162        163        180        179        163        164        181        180        164        165        182        181        165        166        183        182        166        167        184        183        167        168        185        184        168        169        186        185        170        171        188        187        171        172        189        188        172        173        190        189        173        174        191        190        174        175        192        191        175        176        193        192        176        177        194        193        177        178        195        194        178        179        196        195        179        180        197        196        180        181        198        197        181        182        199        198        182        183        200        199        183        184        201        200        184        185        202        201        185        186        203        202        187        188        205        204        188        189        206        205        189        190        207        206        190        191        208        207        191        192        209        208        192        193        210        209        193        194        211        210        194        195        212        211        195        196        213        212        196        197        214        213        197        198        215        214        198        199        216        215        199        200        217        216        200        201        218        217        201        202        219        218        202        203        220        219        204        205        222        221        205        206        223        222        206        207        224        223        207        208        225        224        208        209        226        225        209        210        227        226        210        211        228        227        211        212        229        228        212        213        230        229        213        214        231        230        214        215        232        231        215        216        233        232        216        217        234        233        217        218        235        234        218        219        236        235        219        220        237        236        221        222        239        238        222        223        240        239        223        224        241        240        224        225        242        241        225        226        243        242        226        227        244        243        227        228        245        244        228        229        246        245        229        230        247        246        230        231        248        247        231        232        249        248        232        233        250        249        233        234        251        250        234        235        252        251        235        236        253        252        236        237        254        253        238        239        256        255        239        240        257        256        240        241        258        257        241        242        259        258        242        243        260        259        243        244        261        260        244        245        262        261        245        246        263        262        246        247        264        263        247        248        265        264        248        249        266        265        249        250        267        266        250        251        268        267        251        252        269        268        252        253        270        269        253        254        271        270        255        256        273        272        256        257        274        273        257        258        275        274        258        259        276        275        259        260        277        276        260        261        278        277        261        262        279        278        262        263        280        279        263        264        281        280        264        265        282        281        265        266        283        282        266        267        284        283        267        268        285        284        268        269        286        285        269        270        287        286        270        271        288        287        306        307          1          0        307        308          2          1        308        309          3          2        309        310          4          3        310        311          5          4        311        312          6          5        312        313          7          6        313        314          8          7        314        315          9          8        315        316         10          9        316        317         11         10        317        318         12         11        318        319         13         12        319        320         14         13        320        321         15         14        321        322         16         15        323        324        307        306        324        325        308        307        325        326        309        308        326        327        310        309        327        328        311        310        328        329        312        311        329        330        313        312        330        331        314        313        331        332        315        314        332        333        316        315        333        334        317        316        334        335        318        317        335        336        319        318        336        337        320        319        337        338        321        320        338        339        322        321        340        341        324        323        341        342        325        324        342        343        326        325        343        344        327        326        344        345        328        327        345        346        329        328        346        347        330        329        347        348        331        330        348        349        332        331        349        350        333        332        350        351        334        333        351        352        335        334        352        353        336        335        353        354        337        336        354        355        338        337        355        356        339        338        357        358        341        340        358        359        342        341        359        360        343        342        360        361        344        343        361        362        345        344        362        363        346        345        363        364        347        346        364        365        348        347        365        366        349        348        366        367        350        349        367        368        351        350        368        369        352        351        369        370        353        352        370        371        354        353        371        372        355        354        372        373        356        355        374        375        358        357        375        376        359        358        376        377        360        359        377        378        361        360        378        379        362        361        379        380        363        362        380        381        364        363        381        382        365        364        382        383        366        365        383        384        367        366        384        385        368        367        385        386        369        368        386        387        370        369        387        388        371        370        388        389        372        371        389        390        373        372        391        392        375        374        392        393        376        375        393        394        377        376        394        395        378        377        395        396        379        378        396        397        380        379        397        398        381        380        398        399        382        381        399        400        383        382        400        401        384        383        401        402        385        384        402        403        386        385        403        404        387        386        404        405        388        387        405        406        389        388        406        407        390        389        408        409        392        391        409        410        393        392        410        411        394        393        411        412        395        394        412        413        396        395        413        414        397        396        414        415        398        397        415        416        399        398        416        417        400        399        417        418        401        400        418        419        402        401        419        420        403        402        420        421        404        403        421        422        405        404        422        423        406        405        423        424        407        406        425        426        409        408        426        427        410        409        427        428        411        410        428        429        412        411        429        430        413        412        430        431        414        413        431        432        415        414        432        433        416        415        433        434        417        416        434        435        418        417        435        436        419        418        436        437        420        419        437        438        421        420        438        439        422        421        439        440        423        422        440        441        424        423        442        443        426        425        443        444        427        426        444        445        428        427        445        446        429        428        446        447        430        429        447        448        431        430        448        449        432        431        449        450        433        432        450        451        434        433        451        452        435        434        452        453        436        435        453        454        437        436        454        455        438        437        455        456        439        438        456        457        440        439        457        458        441        440        459        460        443        442        460        461        444        443        461        462        445        444        462        463        446        445        463        464        447        446        464        465        448        447        465        466        449        448        466        467        450        449        467        468        451        450        468        469        452        451        469        470        453        452        470        471        454        453        471        472        455        454        472        473        456        455        473        474        457        456        474        475        458        457        476        477        460        459        477        478        461        460        478        479        462        461        479        480        463        462        480        481        464        463        481        482        465        464        482        483        466        465        483        484        467        466        484        485        468        467        485        486        469        468        486        487        470        469        487        488        471        470        488        489        472        471        489        490        473        472        490        491        474        473        491        492        475        474        493        494        477        476        494        495        478        477        495        496        479        478        496        497        480        479        497        498        481        480        498        499        482        481        499        500        483        482        500        501        484        483        501        502        485        484        502        503        486        485        503        504        487        486        504        505        488        487        505        506        489        488        506        507        490        489        507        508        491        490        508        509        492        491        510        511        494        493        511        512        495        494        512        513        496        495        513        514        497        496        514        515        498        497        515        516        499        498        516        517        500        499        517        518        501        500        518        519        502        501        519        520        503        502        520        521        504        503        521        522        505        504        522        523        506        505        523        524        507        506        524        525        508        507        525        526        509        508        527        528        511        510        528        529        512        511        529        530        513        512        530        531        514        513        531        532        515        514        532        533        516        515        533        534        517        516        534        535        518        517        535        536        519        518        536        537        520        519        537        538        521        520        538        539        522        521        539        540        523        522        540        541        524        523        541        542        525        524        542        543        526        525        544        545        528        527        545        546        529        528        546        547        530        529        547        548        531        530        548        549        532        531        549        550        533        532        550        551        534        533        551        552        535        534        552        553        536        535        553        554        537        536        554        555        538        537        555        556        539        538        556        557        540        539        557        558        541        540        558        559        542        541        559        560        543        542        561        562        545        544        562        563        546        545        563        564        547        546        564        565        548        547        565        566        549        548        566        567        550        549        567        568        551        550        568        569        552        551        569        570        553        552        570        571        554        553        571        572        555        554        572        573        556        555        573        574        557        556        574        575        558        557        575        576        559        558        576        577        560        559        578        579        596        595        579        580        597        596        580        581        598        597        581        582        599        598        582        583        600        599        583        584        601        600        584        585        602        601        585        586        603        602        586        587        604        603        587        588        605        604        588        589        606        605        589        590        607        606        590        591        608        607        591        592        609        608        592        593        610        609        593        594        611        610        595        596        613        612        596        597        614        613        597        598        615        614        598        599        616        615        599        600        617        616        600        601        618        617        601        602        619        618        602        603        620        619        603        604        621        620        604        605        622        621        605        606        623        622        606        607        624        623        607        608        625        624        608        609        626        625        609        610        627        626        610        611        628        627        612        613        630        629        613        614        631        630        614        615        632        631        615        616        633        632        616        617        634        633        617        618        635        634        618        619        636        635        619        620        637        636        620        621        638        637        621        622        639        638        622        623        640        639        623        624        641        640        624        625        642        641        625        626        643        642        626        627        644        643        627        628        645        644        629        630        647        646        630        631        648        647        631        632        649        648        632        633        650        649        633        634        651        650        634        635        652        651        635        636        653        652        636        637        654        653        637        638        655        654        638        639        656        655        639        640        657        656        640        641        658        657        641        642        659        658        642        643        660        659        643        644        661        660        644        645        662        661        646        647        664        663        647        648        665        664        648        649        666        665        649        650        667        666        650        651        668        667        651        652        669        668        652        653        670        669        653        654        671        670        654        655        672        671        655        656        673        672        656        657        674        673        657        658        675        674        658        659        676        675        659        660        677        676        660        661        678        677        661        662        679        678        663        664        681        680        664        665        682        681        665        666        683        682        666        667        684        683        667        668        685        684        668        669        686        685        669        670        687        686        670        671        688        687        671        672        689        688        672        673        690        689        673        674        691        690        674        675        692        691        675        676        693        692        676        677        694        693        677        678        695        694        678        679        696        695        680        681        698        697        681        682        699        698        682        683        700        699        683        684        701        700        684        685        702        701        685        686        703        702        686        687        704        703        687        688        705        704        688        689        706        705        689        690        707        706        690        691        708        707        691        692        709        708        692        693        710        709        693        694        711        710        694        695        712        711        695        696        713        712        697        698        715        714        698        699        716        715        699        700        717        716        700        701        718        717        701        702        719        718        702        703        720        719        703        704        721        720        704        705        722        721        705        706        723        722        706        707        724        723        707        708        725        724        708        709        726        725        709        710        727        726        710        711        728        727        711        712        729        728        712        713        730        729        714        715        732        731        715        716        733        732        716        717        734        733        717        718        735        734        718        719        736        735        719        720        737        736        720        721        738        737        721        722        739        738        722        723        740        739        723        724        741        740        724        725        742        741        725        726        743        742        726        727        744        743        727        728        745        744        728        729        746        745        729        730        747        746        731        732        749        748        732        733        750        749        733        734        751        750        734        735        752        751        735        736        753        752        736        737        754        753        737        738        755        754        738        739        756        755        739        740        757        756        740        741        758        757        741        742        759        758        742        743        760        759        743        744        761        760        744        745        762        761        745        746        763        762        746        747        764        763        748        749        766        765        749        750        767        766        750        751        768        767        751        752        769        768        752        753        770        769        753        754        771        770        754        755        772        771        755        756        773        772        756        757        774        773        757        758        775        774        758        759        776        775        759        760        777        776        760        761        778        777        761        762        779        778        762        763        780        779        763        764        781        780        765        766        783        782        766        767        784        783        767        768        785        784        768        769        786        785        769        770        787        786        770        771        788        787        771        772        789        788        772        773        790        789        773        774        791        790        774        775        792        791        775        776        793        792        776        777        794        793        777        778        795        794        778        779        796        795        779        780        797        796        780        781        798        797        782        783        800        799        783        784        801        800        784        785        802        801        785        786        803        802        786        787        804        803        787        788        805        804        788        789        806        805        789        790        807        806        790        791        808        807        791        792        809        808        792        793        810        809        793        794        811        810        794        795        812        811        795        796        813        812        796        797        814        813        797        798        815        814        799        800        817        816        800        801        818        817        801        802        819        818        802        803        820        819        803        804        821        820        804        805        822        821        805        806        823        822        806        807        824        823        807        808        825        824        808        809        826        825        809        810        827        826        810        811        828        827        811        812        829        828        812        813        830        829        813        814        831        830        814        815        832        831        816        817        834        833        817        818        835        834        818        819        836        835        819        820        837        836        820        821        838        837        821        822        839        838        822        823        840        839        823        824        841        840        824        825        842        841        825        826        843        842        826        827        844        843        827        828        845        844        828        829        846        845        829        830        847        846        830        831        848        847        831        832        849        848        833        834        562        561        834        835        563        562        835        836        564        563        836        837        565        564        837        838        566        565        838        839        567        566        839        840        568        567        840        841        569        568        841        842        570        569        842        843        571        570        843        844        572        571        844        845        573        572        845        846        574        573        846        847        575        574        847        848        576        575        848        849        577        576        884        885        579        578        885        886        580        579        886        887        581        580        887        888        582        581        888        889        583        582        889        890        584        583        890        891        585        584        891        892        586        585        892        893        587        586        893        894        588        587        894        895        589        588        895        896        590        589        896        897        591        590        897        898        592        591        898        899        593        592        899        900        594        593        901        902        885        884        902        903        886        885        903        904        887        886        904        905        888        887        905        906        889        888        906        907        890        889        907        908        891        890        908        909        892        891        909        910        893        892        910        911        894        893        911        912        895        894        912        913        896        895        913        914        897        896        914        915        898        897        915        916        899        898        916        917        900        899        918        919        902        901        919        920        903        902        920        921        904        903        921        922        905        904        922        923        906        905        923        924        907        906        924        925        908        907        925        926        909        908        926        927        910        909        927        928        911        910        928        929        912        911        929        930        913        912        930        931        914        913        931        932        915        914        932        933        916        915        933        934        917        916        935        936        919        918        936        937        920        919        937        938        921        920        938        939        922        921        939        940        923        922        940        941        924        923        941        942        925        924        942        943        926        925        943        944        927        926        944        945        928        927        945        946        929        928        946        947        930        929        947        948        931        930        948        949        932        931        949        950        933        932        950        951        934        933        952        953        936        935        953        954        937        936        954        955        938        937        955        956        939        938        956        957        940        939        957        958        941        940        958        959        942        941        959        960        943        942        960        961        944        943        961        962        945        944        962        963        946        945        963        964        947        946        964        965        948        947        965        966        949        948        966        967        950        949        967        968        951        950        969        970        953        952        970        971        954        953        971        972        955        954        972        973        956        955        973        974        957        956        974        975        958        957        975        976        959        958        976        977        960        959        977        978        961        960        978        979        962        961        979        980        963        962        980        981        964        963        981        982        965        964        982        983        966        965        983        984        967        966        984        985        968        967        986        987        970        969        987        988        971        970        988        989        972        971        989        990        973        972        990        991        974        973        991        992        975        974        992        993        976        975        993        994        977        976        994        995        978        977        995        996        979        978        996        997        980        979        997        998        981        980        998        999        982        981        999       1000        983        982       1000       1001        984        983       1001       1002        985        984       1003       1004        987        986       1004       1005        988        987       1005       1006        989        988       1006       1007        990        989       1007       1008        991        990       1008       1009        992        991       1009       1010        993        992       1010       1011        994        993       1011       1012        995        994       1012       1013        996        995       1013       1014        997        996       1014       1015        998        997       1015       1016        999        998       1016       1017       1000        999       1017       1018       1001       1000       1018       1019       1002       1001       1020       1021       1004       1003       1021       1022       1005       1004       1022       1023       1006       1005       1023       1024       1007       1006       1024       1025       1008       1007       1025       1026       1009       1008       1026       1027       1010       1009       1027       1028       1011       1010       1028       1029       1012       1011       1029       1030       1013       1012       1030       1031       1014       1013       1031       1032       1015       1014       1032       1033       1016       1015       1033       1034       1017       1016       1034       1035       1018       1017       1035       1036       1019       1018       1037       1038       1021       1020       1038       1039       1022       1021       1039       1040       1023       1022       1040       1041       1024       1023       1041       1042       1025       1024       1042       1043       1026       1025       1043       1044       1027       1026       1044       1045       1028       1027       1045       1046       1029       1028       1046       1047       1030       1029       1047       1048       1031       1030       1048       1049       1032       1031       1049       1050       1033       1032       1050       1051       1034       1033       1051       1052       1035       1034       1052       1053       1036       1035       1054       1055       1038       1037       1055       1056       1039       1038       1056       1057       1040       1039       1057       1058       1041       1040       1058       1059       1042       1041       1059       1060       1043       1042       1060       1061       1044       1043       1061       1062       1045       1044       1062       1063       1046       1045       1063       1064       1047       1046       1064       1065       1048       1047       1065       1066       1049       1048       1066       1067       1050       1049       1067       1068       1051       1050       1068       1069       1052       1051       1069       1070       1053       1052       1071       1072       1055       1054       1072       1073       1056       1055       1073       1074       1057       1056       1074       1075       1058       1057       1075       1076       1059       1058       1076       1077       1060       1059       1077       1078       1061       1060       1078       1079       1062       1061       1079       1080       1063       1062       1080       1081       1064       1063       1081       1082       1065       1064       1082       1083       1066       1065       1083       1084       1067       1066       1084       1085       1068       1067       1085       1086       1069       1068       1086       1087       1070       1069       1088       1089       1072       1071       1089       1090       1073       1072       1090       1091       1074       1073       1091       1092       1075       1074       1092       1093       1076       1075       1093       1094       1077       1076       1094       1095       1078       1077       1095       1096       1079       1078       1096       1097       1080       1079       1097       1098       1081       1080       1098       1099       1082       1081       1099       1100       1083       1082       1100       1101       1084       1083       1101       1102       1085       1084       1102       1103       1086       1085       1103       1104       1087       1086       1105       1106       1089       1088       1106       1107       1090       1089       1107       1108       1091       1090       1108       1109       1092       1091       1109       1110       1093       1092       1110       1111       1094       1093       1111       1112       1095       1094       1112       1113       1096       1095       1113       1114       1097       1096       1114       1115       1098       1097       1115       1116       1099       1098       1116       1117       1100       1099       1117       1118       1101       1100       1118       1119       1102       1101       1119       1120       1103       1102       1120       1121       1104       1103       1122       1123       1106       1105       1123       1124       1107       1106       1124       1125       1108       1107       1125       1126       1109       1108       1126       1127       1110       1109       1127       1128       1111       1110       1128       1129       1112       1111       1129       1130       1113       1112       1130       1131       1114       1113       1131       1132       1115       1114       1132       1133       1116       1115       1133       1134       1117       1116       1134       1135       1118       1117       1135       1136       1119       1118       1136       1137       1120       1119       1137       1138       1121       1120        272        273       1123       1122        273        274       1124       1123        274        275       1125       1124        275        276       1126       1125        276        277       1127       1126        277        278       1128       1127        278        279       1129       1128        279        280       1130       1129        280        281       1131       1130        281        282       1132       1131        282        283       1133       1132        283        284       1134       1133        284        285       1135       1134        285        286       1136       1135        286        287       1137       1136        287        288       1138       1137 </DataArray>
<DataArray type="Int32"                                    Name="offsets"                                                      NumberOfComponents=" 1" format="ascii">
         4          8         12         16         20         24         28         32         36         40         44         48         52         56         60         64         68         72         76         80         84         88         92         96        100        104        108        112        116        120        124        128        132        136        140        144        148        152        156        160        164        168        172        176        180        184        188        192        196        200        204        208        212        216        220        224        228        232        236        240        244        248        252        256        260        264        268        272        276        280        284        288        292        296        300        304        308        312        316        320        324        328        332        336        340        344        348        352        356        360        364        368        372        376        380        384        388        392        396        400        404        408        412        416        420        424        428        432        436        440        444        448        452        456        460        464        468        472        476        480        484        488        492        496        500        504        508        512        516        520        524        528        532        536        540        544        548        552        556        560        564        568        572        576        580        584        588        592        596        600        604        608        612        616        620        624        628        632        636        640        644        648        652        656        660        664        668        672        676        680        684        688        692        696        700        704        708        712        716        720        724        728        732        736        740        744        748        752        756        760        764        768        772        776        780        784        788        792        796        800        804        808        812        816        820        824        828        832        836        840        844        848        852        856        860        864        868        872        876        880        884        888        892        896        900        904        908        912        916        920        924        928        932        936        940        944        948        952        956        960        964        968        972        976        980        984        988        992        996       1000       1004       1008       1012       1016       1020       1024       1028       1032       1036       1040       1044       1048       1052       1056       1060       1064       1068       1072       1076       1080       1084       1088       1092       1096       1100       1104       1108       1112       1116       1120       1124       1128       1132       1136       1140       1144       1148       1152       1156       1160       1164       1168       1172       1176       1180       1184       1188       1192       1196       1200       1204       1208       1212       1216       1220       1224       1228       1232       1236       1240       1244       1248       1252       1256       1260       1264       1268       1272       1276       1280       1284       1288       1292       1296       1300       1304       1308       1312       1316       1320       1324       1328       1332       1336       1340       1344       1348       1352       1356       1360       1364       1368       1372       1376       1380       1384       1388       1392       1396       1400       1404       1408       1412       1416       1420       1424       1428       1432       1436       1440       1444       1448       1452       1456       1460       1464       1468       1472       1476       1480       1484       1488       1492       1496       1500       1504       1508       1512       1516       1520       1524       1528       1532       1536       1540       1544       1548       1552       1556       1560       1564       1568       1572       1576       1580       1584       1588       1592       1596       1600       1604       1608       1612       1616       1620       1624       1628       1632       1636       1640       1644       1648       1652       1656       1660       1664       1668       1672       1676       1680       1684       1688       1692       1696       1700       1704       1708       1712       1716       1720       1724       1728       1732       1736       1740       1744       1748       1752       1756       1760       1764       1768       1772       1776       1780       1784       1788       1792       1796       1800       1804       1808       1812       1816       1820       1824       1828       1832       1836       1840       1844       1848       1852       1856       1860       1864       1868       1872       1876       1880       1884       1888       1892       1896       1900       1904       1908       1912       1916       1920       1924       1928       1932       1936       1940       1944       1948       1952       1956       1960       1964       1968       1972       1976       1980       1984       1988       1992       1996       2000       2004       2008       2012       2016       2020       2024       2028       2032       2036       2040       2044       2048       2052       2056       2060       2064       2068       2072       2076       2080       2084       2088       2092       2096       2100       2104       2108       2112       2116       2120       2124       2128       2132       2136       2140       2144       2148       2152       2156       2160       2164       2168       2172       2176       2180       2184       2188       2192       2196       2200       2204       2208       2212       2216       2220       2224       2228       2232       2236       2240       2244       2248       2252       2256       2260       2264       2268       2272       2276       2280       2284       2288       2292       2296       2300       2304       2308       2312       2316       2320       2324       2328       2332       2336       2340       2344       2348       2352       2356       2360       2364       2368       2372       2376       2380       2384       2388       2392       2396       2400       2404       2408       2412       2416       2420       2424       2428       2432       2436       2440       2444       2448       2452       2456       2460       2464       2468       2472       2476       2480       2484       2488       2492       2496       2500       2504       2508       2512       2516       2520       2524       2528       2532       2536       2540       2544       2548       2552       2556       2560       2564       2568       2572       2576       2580       2584       2588       2592       2596       2600       2604       2608       2612       2616       2620       2624       2628       2632       2636       2640       2644       2648       2652       2656       2660       2664       2668       2672       2676       2680       2684       2688       2692       2696       2700       2704       2708       2712       2716       2720       2724       2728       2732       2736       2740       2744       2748       2752       2756       2760       2764       2768       2772       2776       2780       2784       2788       2792       2796       2800       2804       2808       2812       2816       2820       2824       2828       2832       2836       2840       2844       2848       2852       2856       2860       2864       2868       2872       2876       2880       2884       2888       2892       2896       2900       2904       2908       2912       2916       2920       2924       2928       2932       2936       2940       2944       2948       2952       2956       2960       2964       2968       2972       2976       2980       2984       2988       2992       2996       3000       3004       3008       3012       3016       3020       3024       3028       3032       3036       3040       3044       3048       3052       3056       3060       3064       3068       3072       3076       3080       3084       3088       3092       3096       3100       3104       3108       3112       3116       3120       3124       3128       3132       3136       3140       3144       3148       3152       3156       3160       3164       3168       3172       3176       3180       3184       3188       3192       3196       3200       3204       3208       3212       3216       3220       3224       3228       3232       3236       3240       3244       3248       3252       3256       3260       3264       3268       3272       3276       3280       3284       3288       3292       3296       3300       3304       3308       3312       3316       3320       3324       3328       3332       3336       3340       3344       3348       3352       3356       3360       3364       3368       3372       3376       3380       3384       3388       3392       3396       3400       3404       3408       3412       3416       3420       3424       3428       3432       3436       3440       3444       3448       3452       3456       3460       3464       3468       3472       3476       3480       3484       3488       3492       3496       3500       3504       3508       3512       3516       3520       3524       3528       3532       3536       3540       3544       3548       3552       3556       3560       3564       3568       3572       3576       3580       3584       3588       3592       3596       3600       3604       3608       3612       3616       3620       3624       3628       3632       3636       3640       3644       3648       3652       3656       3660       3664       3668       3672       3676       3680       3684       3688       3692       3696       3700       3704       3708       3712       3716       3720       3724       3728       3732       3736       3740       3744       3748       3752       3756       3760       3764       3768       3772       3776       3780       3784       3788       3792       3796       3800       3804       3808       3812       3816       3820       3824       3828       3832       3836       3840       3844       3848       3852       3856       3860       3864       3868       3872       3876       3880       3884       3888       3892       3896       3900       3904       3908       3912       3916       3920       3924       3928       3932       3936       3940       3944       3948       3952       3956       3960       3964       3968       3972       3976       3980       3984       3988       3992       3996       4000       4004       4008       4012       4016       4020       4024       4028       4032       4036       4040       4044       4048       4052       4056       4060       4064       4068       4072       4076       4080       4084       4088       4092       4096 </DataArray>
<DataArray type="UInt8"                                    Name="types"                                                      NumberOfComponents=" 1" format="ascii">
         9          9          9          9          9          9          9          9          9          9          9          9          9          9          9          9          9          9          9          9          9          9          9          9          9          9          9          9          9          9          9          9          9          9          9          9          9          9          9          9          9          9          9          9          9          9          9          9          9          9          9          9          9          9          9          9          9          9          9          9          9          9          9          9          9          9          9          9          9          9          9          9          9          9          9          9          9          9          9          9          9          9          9          9          9          9          9          9          9          9          9          9          9          9          9          9          9          9          9          9          9          9          9          9          9          9          9          9          9          9          9          9          9          9          9          9          9          9          9          9          9          9          9          9          9          9          9          9          9          9          9          9          9          9          9          9          9          9          9          9          9          9          9          9          9          9          9          9          9          9          9          9          9          9          9          9          9          9          9          9          9          9          9          9          9          9          9          9          9          9          9          9          9          9          9          9          9          9          9          9          9          9          9          9          9          9          9          9          9          9          9          9          9          9          9          9          9          9          9          9          9          9          9          9          9          9          9          9          9          9          9          9          9          9          9          9          9          9          9          9          9          9          9          9          9          9          9          9          9          9          9          9          9          9          9          9          9          9          9          9          9          9          9          9          9          9          9          9          9          9          9          9          9          9          9          9          9          9          9          9          9          9          9          9          9          9          9          9          9          9          9          9          9          9          9          9          9          9          9          9          9          9          9          9          9          9          9          9          9          9          9          9          9          9          9          9          9          9          9          9          9          9          9          9          9          9          9          9          9          9          9          9          9          9          9          9          9          9          9          9          9          9          9          9          9          9          9          9          9          9          9          9          9          9          9          9          9          9          9          9          9          9          9          9          9          9          9          9          9          9          9          9          9          9          9          9          9          9          9          9          9          9          9          9          9          9          9          9          9          9          9          9          9          9          9          9          9          9          9          9          9          9          9          9          9          9          9          9          9          9          9          9          9          9          9          9          9          9          9          9          9          9          9          9          9          9          9          9          9          9          9          9          9          9          9          9          9          9          9          9          9          9          9          9          9          9          9          9          9          9          9          9          9          9          9          9          9          9          9          9          9          9          9          9          9          9          9          9          9          9          9          9          9          9          9          9          9          9          9          9          9          9          9          9          9          9          9          9          9          9          9          9          9          9          9          9          9          9          9          9          9          9          9          9          9          9          9          9          9          9          9          9          9          9          9          9          9          9          9          9          9          9          9          9          9          9          9          9          9          9          9          9          9          9          9          9          9          9          9          9          9          9          9          9          9          9          9          9          9          9          9          9          9          9          9          9          9          9          9          9          9          9          9          9          9          9          9          9          9          9          9          9          9          9          9          9          9          9          9          9          9          9          9          9          9          9          9          9          9          9          9          9          9          9          9          9          9          9          9          9          9          9          9          9          9          9          9          9          9          9          9          9          9          9          9          9          9          9          9          9          9          9          9          9          9          9          9          9          9          9          9          9          9          9          9          9          9          9          9          9          9          9          9          9          9          9          9          9          9          9          9          9          9          9          9          9          9          9          9          9          9          9          9          9          9          9          9          9          9          9          9          9          9          9          9          9          9          9          9          9          9          9          9          9          9          9          9          9          9          9          9          9          9          9          9          9          9          9          9          9          9          9          9          9          9          9          9          9          9          9          9          9          9          9          9          9          9          9          9          9          9          9          9          9          9          9          9          9          9          9          9          9          9          9          9          9          9          9          9          9          9          9          9          9          9          9          9          9          9          9          9          9          9          9          9          9          9          9          9          9          9          9          9          9          9          9          9          9          9          9          9          9          9          9          9          9          9          9          9          9          9          9          9          9          9          9          9          9          9          9          9          9          9          9          9          9          9          9          9          9          9          9          9          9          9          9          9          9          9          9          9          9          9          9          9          9          9          9          9          9          9          9          9          9          9          9          9          9          9          9          9          9          9          9          9          9          9          9          9          9          9          9          9          9          9          9          9          9          9          9          9          9          9          9          9          9          9          9          9          9          9          9          9          9          9          9          9          9          9          9          9          9          9          9          9          9          9          9          9          9          9          9          9          9          9          9          9          9          9          9          9          9          9          9          9          9          9          9          9          9          9          9          9          9          9          9          9          9          9          9          9          9          9          9          9          9          9          9          9          9          9          9          9          9          9          9          9          9          9          9          9          9          9          9          9          9          9          9          9          9          9          9          9          9          9          9          9          9          9          9          9          9          9          9          9          9          9          9          9          9          9          9          9          9          9          9          9          9          9          9          9          9          9          9          9          9          9          9          9          9          9          9          9          9          9          9          9          9          9          9          9          9          9          9          9          9          9          9          9          9          9          9          9          9          9          9          9          9          9          9          9          9          9          9          9          9          9          9          9          9          9          9          9          9          9          9          9          9          9          9          9          9          9          9          9          9          9          9          9          9          9          9          9          9 </DataArray>
</Cells>
<CellData>
<DataArray type="Int32"                                    Name="material"                                                      NumberOfComponents=" 1" format="ascii">
         1          1          1          1          1          1          1          1          1          1          1          1          1          1          1          1          1          1          1          1          1          1          1          1          1          1          1          1          1          1          1          1          1          1          1          1          1          1          1          1          1          1          1          1          1          1          1          1          1          1          1          1          1          1          1          1          1          1          1          1          1          1          1          1          1          1          1          1          1          1          1          1          1          1          1          1          1          1          1          1          1          1          1          1          1          1          1          1          1          1          1          1          1          1          1          1          1          1          1          1          1          1          1          1          1          1          1          1          1          1          1          1          1          1          1          1          1          1          1          1          1          1          1          1          1          1          1          1          1          1          1          1          1          1          1          1          1          1          1          1          1          1          1          1          1          1          1          1          1          1          1          1          1          1          1          1          1          1          1          1          1          1          1          1          1          1          1          1          1          1          1          1          1          1          1          1          1          1          1          1          1          1          1          1          1          1          1          1          1          1          1          1          1          1          1          1          1          1          1          1          1          1          1          1          1          1          1          1          1          1          1          1          1          1          1          1          1          1          1          1          1          1          1          1          1          1          1          1          1          1          1          1          1          1          1          1          1          1          1          1          1          1          1          1          1          1          1          1          1          1          1          1          1          1          1          1          1          1          1          1          1          1          1          1          1          1          1          1          1          1          1          1          1          1          1          1          1          1          1          1          1          1          1          1          1          1          1          1          1          1          1          1          1          1          1          1          1          1          1          1          1          1          1          1          1          1          1          1          1          1          1          1          1          1          1          1          1          1          1          1          1          1          1          1          1          1          1          1          1          1          1          1          1          1          1          1          1          1          1          1          1          1          1          1          1          1          1          1          1          1          1          1          1          1          1          1          1          1          1          1          1          1          1          1          1          1          1          1          1          1          1          1          1          1          1          1          1          1          1          1          1          1          1          1          1          1          1          1          1          1          1          1          1          1          1          1          1          1          1          1          1          1          1          1          1          1          1          1          1          1          1          1          1          1          1          1          1          1          1          1          1          1          1          1          1          1          1          1          1          1          1          1          1          1          1          1          1          1          1          1          1          1          1          1          1          1          1          1          1          1          1          1          1          1          1          1          1          1          1          1          1          1          1          1          1          1          1          1          1          1          1          1          1          1          1          1          1          1          1          1          1          1          1          1          1          1          1          1          1          1          1          1          1          1          1          1          1          1          1          1          1          1          1          1          1          1          1          1          1          1          1          1          1          1          1          1          1          1          1          1          1          1          1          1          1          1          1          1          1          1          1          1          1          1          1          1          1          1          1          1          1          1          1          1          1          1          1          1          1          1          1          1          1          1          1          1          1          1          1          1          1          1          1          1          1          1          1          1          1          1          1          1          1          1          1          1          1          1          1          1          1          1          1          1          1          1          1          1          1          1          1          1          1          1          1          1          1          1          1          1          1          1          1          1          1          1          1          1          1          1          1          1          1          1          1          1          1          1          1          1          1          1          1          1          1          1          1          1          1          1          1          1          1          1          1          1          1          1          1          1          1          1          1          1          1          1          1          1          1          1          1          1          1          1          1          1          1          1          1          1          1          1          1          1          1          1          1          1          1          1          1          1          1          1          1          1          1          1          1          1          1          1          1          1          1          1          1          1          1          1          1          1          1          1          1          1          1          1          1          1          1          1          1          1          1          1          1          1          1          1          1          1          1          1          1          1          1          1          1          1          1          1          1          1          1          1          1          1          1          1          1          1          1          1          1          1          1          1          1          1          1          1          1          1          1          1          1          1          1          1          1          1          1          1          1          1          1          1          1          1          1          1          1          1          1          1          1          1          1          1          1          1          1          1          1          1          1          1          1          1          1          1          1          1          1          1          1          1          1          1          1          1          1          1          1          1          1          1          1          1          1          1          1          1          1          1          1          1          1          1          1          1          1          1          1          1          1          1          1          1          1          1          1          1          1          1          1          1          1          1          1          1          1          1          1          1          1          1          1          1          1          1          1          1          1          1          1          1          1          1          1          1          1          1          1          1          1          1          1          1          1          1          1          1          1          1          1          1          1          1          1          1          1          1          1          1          1          1          1          1          1          1          1          1          1          1          1          1          1          1          1          1          1          1          1          1          1          1          1          1          1          1          1          1          1          1          1          1          1          1          1          1          1          1          1          1          1          1          1          1          1          1          1          1          1          1          1          1          1          1          1          1          1          1          1          1          1          1          1          1          1          1          1          1          1          1          1          1          1          1          1          1          1          1          1          1          1          1          1          1          1          1          1          1          1          1          1          1          1          1          1          1          1          1          1          1          1          1          1          1          1          1          1          1          1          1          1          1          1          1          1          1          1          1          1          1          1          1          1          1          1          1          1          1          1          1          1          1          1          1          1          1          1          1          1          1          1          1          1          1          1          1          1          1 </DataArray>
</CellData>
<PointData>
<DataArray type="Float64"                                    Name="u"                                                      NumberOfComponents=" 3" format="ascii">
              0.000000964               0.000000000               1.000000000               0.000000122               0.000000000               1.000000000              -0.000000041              -0.000000000               1.000000000               0.000000024               0.000000000               1.000000000               0.000000098               0.000000000               1.000000000               0.000000033               0.000000000               1.000000000              -0.000000073               0.000000000               1.000000000              -0.000000146              -0.000000000               1.000000000              -0.000000206              -0.000000000               1.000000000              -0.000000209              -0.000000000               1.000000000              -0.000000111              -0.000000000               1.000000000               0.000000051              -0.000000000               1.000000000               0.000000203               0.000000000               1.000000000               0.000000270               0.000000000               1.000000000               0.000000156               0.000000000               1.000000000              -0.000000235               0.000000000               1.000000000              -0.000000964               0.000000000               1.000000000               0.000000987               0.000002463               1.000000000               0.000000134               0.000002244               1.000000000              -0.000000050               0.000002273               1.000000000               0.000000000               0.000002531               1.000000000               0.000000055               0.000003011               1.000000000               0.000000050               0.000003485               1.000000000              -0.000000025               0.000003770               1.000000000              -0.000000131               0.000004064               1.000000000              -0.000000179               0.000004274               1.000000000              -0.000000156               0.000004366               1.000000000              -0.000000096               0.000004449               1.000000000              -0.000000004               0.000004564               1.000000000               0.000000050               0.000004812               1.000000000              -0.000000030               0.000005263               1.000000000              -0.000000319               0.000005948               1.000000000              -0.000000904               0.000006869               1.000000000              -0.000001869               0.000007980               1.000000000               0.000000858               0.000004901               1.000000000               0.000000090               0.000004477               1.000000000              -0.000000001               0.000004502               1.000000000               0.000000060               0.000005104               1.000000000               0.000000018               0.000005999               1.000000000              -0.000000069               0.000006941               1.000000000              -0.000000104               0.000007515               1.000000000              -0.000000062               0.000008140               1.000000000               0.000000029               0.000008660               1.000000000               0.000000074               0.000009044               1.000000000               0.000000012               0.000009469               1.000000000              -0.000000187               0.000009998               1.000000000              -0.000000590               0.000010790               1.000000000              -0.000001260               0.000011952               1.000000000              -0.000002235               0.000013558               1.000000000              -0.000003554               0.000015658               1.000000000              -0.000005272               0.000018286               1.000000000               0.000000715               0.000007384               1.000000000               0.000000168               0.000006680               1.000000000               0.000000118               0.000006786               1.000000000               0.000000096               0.000007714               1.000000000               0.000000008               0.000009098               1.000000000              -0.000000089               0.000010475               1.000000000              -0.000000079               0.000011420               1.000000000              -0.000000071               0.000012477               1.000000000              -0.000000105               0.000013451               1.000000000              -0.000000241               0.000014458               1.000000000              -0.000000634               0.000015633               1.000000000              -0.000001341               0.000017104               1.000000000              -0.000002403               0.000018987               1.000000000              -0.000003902               0.000021375               1.000000000              -0.000005837               0.000024359               1.000000000              -0.000008191               0.000028012               1.000000000              -0.000010965               0.000032410               1.000000000               0.000000647               0.000009947               1.000000000               0.000000325               0.000008861               1.000000000               0.000000332               0.000009159               1.000000000               0.000000273               0.000010462               1.000000000               0.000000045               0.000012437               1.000000000              -0.000000215               0.000014280               1.000000000              -0.000000320               0.000015858               1.000000000              -0.000000443               0.000017511               1.000000000              -0.000000678               0.000019307               1.000000000              -0.000001198               0.000021291               1.000000000              -0.000002138               0.000023684               1.000000000              -0.000003503               0.000026579               1.000000000              -0.000005341               0.000030066               1.000000000              -0.000007708               0.000034218               1.000000000              -0.000010583               0.000039069               1.000000000              -0.000013932               0.000044659               1.000000000              -0.000017725               0.000051018               1.000000000               0.000000554               0.000012528               1.000000000               0.000000583               0.000011073               1.000000000               0.000000667               0.000011655               1.000000000               0.000000395               0.000013507               1.000000000              -0.000000034               0.000016124               1.000000000              -0.000000325               0.000018793               1.000000000              -0.000000500               0.000021243               1.000000000              -0.000000831               0.000023885               1.000000000              -0.000001452               0.000026884               1.000000000              -0.000002528               0.000030237               1.000000000              -0.000004141               0.000034204               1.000000000              -0.000006280               0.000038854               1.000000000              -0.000008956               0.000044256               1.000000000              -0.000012194               0.000050435               1.000000000              -0.000015961               0.000057381               1.000000000              -0.000020200               0.000065102               1.000000000              -0.000024900               0.000073563               1.000000000               0.000000552               0.000015132               1.000000000               0.000000978               0.000013440               1.000000000               0.000000939               0.000014350               1.000000000               0.000000512               0.000016964               1.000000000              -0.000000006               0.000020508               1.000000000              -0.000000467               0.000024192               1.000000000              -0.000000842               0.000027674               1.000000000              -0.000001489               0.000031650               1.000000000              -0.000002566               0.000036115               1.000000000              -0.000004241               0.000041178               1.000000000              -0.000006543               0.000046985               1.000000000              -0.000009396               0.000053664               1.000000000              -0.000012855               0.000061184               1.000000000              -0.000016923               0.000069551               1.000000000              -0.000021509               0.000078774               1.000000000              -0.000026596               0.000088795               1.000000000              -0.000032164               0.000099591               1.000000000               0.000000574               0.000017731               1.000000000               0.000001347               0.000015916               1.000000000               0.000001233               0.000017377               1.000000000               0.000000578               0.000020831               1.000000000              -0.000000236               0.000025421               1.000000000              -0.000000868               0.000030204               1.000000000              -0.000001416               0.000035002               1.000000000              -0.000002337               0.000040536               1.000000000              -0.000003890               0.000046721               1.000000000              -0.000006148               0.000053688               1.000000000              -0.000009027               0.000061663               1.000000000              -0.000012533               0.000070607               1.000000000              -0.000016707               0.000080564               1.000000000              -0.000021459               0.000091509               1.000000000              -0.000026779               0.000103393               1.000000000              -0.000032634               0.000116163               1.000000000              -0.000038972               0.000129672               1.000000000               0.000000566               0.000020324               1.000000000               0.000001719               0.000018499               1.000000000               0.000001415               0.000020606               1.000000000               0.000000466               0.000025068               1.000000000              -0.000000567               0.000030751               1.000000000              -0.000001246               0.000036731               1.000000000              -0.000001917               0.000043111               1.000000000              -0.000003210               0.000050365               1.000000000              -0.000005276               0.000058546               1.000000000              -0.000007989               0.000067726               1.000000000              -0.000011377               0.000078174               1.000000000              -0.000015476               0.000089809               1.000000000              -0.000020226               0.000102600               1.000000000              -0.000025560               0.000116592               1.000000000              -0.000031486               0.000131625               1.000000000              -0.000037863               0.000147571               1.000000000              -0.000044586               0.000164261               1.000000000               0.000000498               0.000022986               1.000000000               0.000001951               0.000021221               1.000000000               0.000001683               0.000022971               1.000000000               0.000000836               0.000027091               1.000000000              -0.000000248               0.000032579               1.000000000              -0.000001042               0.000038688               1.000000000              -0.000001507               0.000045219               1.000000000              -0.000002308               0.000052411               1.000000000              -0.000003769               0.000060396               1.000000000              -0.000005710               0.000069220               1.000000000              -0.000008198               0.000078965               1.000000000              -0.000011227               0.000089825               1.000000000              -0.000014724               0.000101678               1.000000000              -0.000018723               0.000114599               1.000000000              -0.000023163               0.000128564               1.000000000              -0.000028043               0.000143606               1.000000000              -0.000033345               0.000159531               1.000000000               0.000000392               0.000025513               1.000000000               0.000002006               0.000023953               1.000000000               0.000001974               0.000025533               1.000000000               0.000001266               0.000029224               1.000000000               0.000000209               0.000034371               1.000000000              -0.000000681               0.000040441               1.000000000              -0.000001199               0.000047102               1.000000000              -0.000001697               0.000054342               1.000000000              -0.000002635               0.000062265               1.000000000              -0.000003942               0.000070898               1.000000000              -0.000005655               0.000080248               1.000000000              -0.000007756               0.000090480               1.000000000              -0.000010198               0.000101642               1.000000000              -0.000012981               0.000113689               1.000000000              -0.000016111               0.000126618               1.000000000              -0.000019570               0.000140538               1.000000000              -0.000023444               0.000155401               1.000000000               0.000000295               0.000027856               1.000000000               0.000001980               0.000026670               1.000000000               0.000002132               0.000028052               1.000000000               0.000001554               0.000031310               1.000000000               0.000000632               0.000036115               1.000000000              -0.000000289               0.000042034               1.000000000              -0.000000884               0.000048771               1.000000000              -0.000001260               0.000056079               1.000000000              -0.000001755               0.000064050               1.000000000              -0.000002566               0.000072607               1.000000000              -0.000003623               0.000081777               1.000000000              -0.000004968               0.000091616               1.000000000              -0.000006563               0.000102248               1.000000000              -0.000008372               0.000113683               1.000000000              -0.000010414               0.000125883               1.000000000              -0.000012670               0.000138875               1.000000000              -0.000015113               0.000152783               1.000000000               0.000000214               0.000029893               1.000000000               0.000001814               0.000029145               1.000000000               0.000002059               0.000030397               1.000000000               0.000001696               0.000033383               1.000000000               0.000000970               0.000037900               1.000000000               0.000000134               0.000043627               1.000000000              -0.000000507               0.000050239               1.000000000              -0.000000858               0.000057541               1.000000000              -0.000001108               0.000065484               1.000000000              -0.000001529               0.000074074               1.000000000              -0.000002125               0.000083202               1.000000000              -0.000002899               0.000092892               1.000000000              -0.000003851               0.000103227               1.000000000              -0.000004918               0.000114264               1.000000000              -0.000006090               0.000126044               1.000000000              -0.000007341               0.000138443               1.000000000              -0.000008654               0.000151547               1.000000000               0.000000133               0.000031539               1.000000000               0.000001502               0.000031223               1.000000000               0.000001815               0.000032522               1.000000000               0.000001616               0.000035353               1.000000000               0.000001073               0.000039554               1.000000000               0.000000416               0.000045008               1.000000000              -0.000000156               0.000051425               1.000000000              -0.000000483               0.000058673               1.000000000              -0.000000653               0.000066606               1.000000000              -0.000000860               0.000075196               1.000000000              -0.000001134               0.000084366               1.000000000              -0.000001499               0.000094026               1.000000000              -0.000001965               0.000104214               1.000000000              -0.000002507               0.000115036               1.000000000              -0.000003080               0.000126501               1.000000000              -0.000003674               0.000138597               1.000000000              -0.000004258               0.000151253               1.000000000               0.000000079               0.000032783               1.000000000               0.000001091               0.000032861               1.000000000               0.000001365               0.000034236               1.000000000               0.000001258               0.000036950               1.000000000               0.000000939               0.000040961               1.000000000               0.000000496               0.000046142               1.000000000               0.000000050               0.000052355               1.000000000              -0.000000250               0.000059483               1.000000000              -0.000000364               0.000067369               1.000000000              -0.000000445               0.000075936               1.000000000              -0.000000532               0.000085098               1.000000000              -0.000000638               0.000094784               1.000000000              -0.000000812               0.000104927               1.000000000              -0.000001035               0.000115629               1.000000000              -0.000001271               0.000126853               1.000000000              -0.000001523               0.000138738               1.000000000              -0.000001763               0.000151180               1.000000000               0.000000042               0.000033546               1.000000000               0.000000575               0.000033883               1.000000000               0.000000719               0.000035338               1.000000000               0.000000697               0.000038006               1.000000000               0.000000553               0.000041895               1.000000000               0.000000317               0.000046910               1.000000000               0.000000083               0.000053002               1.000000000              -0.000000086               0.000060021               1.000000000              -0.000000151               0.000067826               1.000000000              -0.000000177               0.000076367               1.000000000              -0.000000200               0.000085503               1.000000000              -0.000000211               0.000095172               1.000000000              -0.000000242               0.000105279               1.000000000              -0.000000300               0.000115870               1.000000000              -0.000000381               0.000126939               1.000000000              -0.000000482               0.000138649               1.000000000              -0.000000597               0.000150921               1.000000000              -0.000000000               0.000033804               1.000000000              -0.000000000               0.000034223               1.000000000               0.000000000               0.000035718               1.000000000               0.000000000               0.000038383               1.000000000               0.000000000               0.000042230               1.000000000               0.000000000               0.000047168               1.000000000               0.000000000               0.000053186               1.000000000               0.000000000               0.000060164               1.000000000              -0.000000000               0.000067972               1.000000000              -0.000000000               0.000076512               1.000000000              -0.000000000               0.000085627               1.000000000               0.000000000               0.000095290               1.000000000              -0.000000000               0.000105381               1.000000000              -0.000000000               0.000115907               1.000000000              -0.000000000               0.000126908               1.000000000               0.000000000               0.000138536               1.000000000               0.000000000               0.000150726               1.000000000               0.000000964               0.000000000               1.000000000               0.000000122               0.000000000               1.000000000              -0.000000041              -0.000000000               1.000000000               0.000000024               0.000000000               1.000000000               0.000000098               0.000000000               1.000000000               0.000000033               0.000000000               1.000000000              -0.000000073               0.000000000               1.000000000              -0.000000146              -0.000000000               1.000000000              -0.000000206              -0.000000000               1.000000000              -0.000000209              -0.000000000               1.000000000              -0.000000111              -0.000000000               1.000000000               0.000000051              -0.000000000               1.000000000               0.000000203               0.000000000               1.000000000               0.000000270               0.000000000               1.000000000               0.000000156               0.000000000               1.000000000              -0.000000235               0.000000000               1.000000000              -0.000000964               0.000000000               1.000000000               0.000000987              -0.000002463               1.000000000               0.000000134              -0.000002244               1.000000000              -0.000000050              -0.000002273               1.000000000               0.000000000              -0.000002531               1.000000000               0.000000055              -0.000003011               1.000000000               0.000000050              -0.000003485               1.000000000              -0.000000025              -0.000003770               1.000000000              -0.000000131              -0.000004064               1.000000000              -0.000000179              -0.000004274               1.000000000              -0.000000156              -0.000004366               1.000000000              -0.000000096              -0.000004449               1.000000000              -0.000000004              -0.000004564               1.000000000               0.000000050              -0.000004812               1.000000000              -0.000000030              -0.000005263               1.000000000              -0.000000319              -0.000005948               1.000000000              -0.000000904              -0.000006869               1.000000000              -0.000001869              -0.000007980               1.000000000               0.000000858              -0.000004901               1.000000000               0.000000090              -0.000004477               1.000000000              -0.000000001              -0.000004502               1.000000000               0.000000060              -0.000005104               1.000000000               0.000000018              -0.000005999               1.000000000              -0.000000069              -0.000006941               1.000000000              -0.000000104              -0.000007515               1.000000000              -0.000000062              -0.000008140               1.000000000               0.000000029              -0.000008660               1.000000000               0.000000074              -0.000009044               1.000000000               0.000000012              -0.000009469               1.000000000              -0.000000187              -0.000009998               1.000000000              -0.000000590              -0.000010790               1.000000000              -0.000001260              -0.000011952               1.000000000              -0.000002235              -0.000013558               1.000000000              -0.000003554              -0.000015658               1.000000000              -0.000005272              -0.000018286               1.000000000               0.000000715              -0.000007384               1.000000000               0.000000168              -0.000006680               1.000000000               0.000000118              -0.000006786               1.000000000               0.000000096              -0.000007714               1.000000000               0.000000008              -0.000009098               1.000000000              -0.000000089              -0.000010475               1.000000000              -0.000000079              -0.000011420               1.000000000              -0.000000071              -0.000012477               1.000000000              -0.000000105              -0.000013451               1.000000000              -0.000000241              -0.000014458               1.000000000              -0.000000634              -0.000015633               1.000000000              -0.000001341              -0.000017104               1.000000000              -0.000002403              -0.000018987               1.000000000              -0.000003902              -0.000021375               1.000000000              -0.000005837              -0.000024359               1.000000000              -0.000008191              -0.000028012               1.000000000              -0.000010965              -0.000032410               1.000000000               0.000000647              -0.000009947               1.000000000               0.000000325              -0.000008861               1.000000000               0.000000332              -0.000009159               1.000000000               0.000000273              -0.000010462               1.000000000               0.000000045              -0.000012437               1.000000000              -0.000000215              -0.000014280               1.000000000              -0.000000320              -0.000015858               1.000000000              -0.000000443              -0.000017511               1.000000000              -0.000000678              -0.000019307               1.000000000              -0.000001198              -0.000021291               1.000000000              -0.000002138              -0.000023684               1.000000000              -0.000003503              -0.000026579               1.000000000              -0.000005341              -0.000030066               1.000000000              -0.000007708              -0.000034218               1.000000000              -0.000010583              -0.000039069               1.000000000              -0.000013932              -0.000044659               1.000000000              -0.000017725              -0.000051018               1.000000000               0.000000554              -0.000012528               1.000000000               0.000000583              -0.000011073               1.000000000               0.000000667              -0.000011655               1.000000000               0.000000395              -0.000013507               1.000000000              -0.000000034              -0.000016124               1.000000000              -0.000000325              -0.000018793               1.000000000              -0.000000500              -0.000021243               1.000000000              -0.000000831              -0.000023885               1.000000000              -0.000001452              -0.000026884               1.000000000              -0.000002528              -0.000030237               1.000000000              -0.000004141              -0.000034204               1.000000000              -0.000006280              -0.000038854               1.000000000              -0.000008956              -0.000044256               1.000000000              -0.000012194              -0.000050435               1.000000000              -0.000015961              -0.000057381               1.000000000              -0.000020200              -0.000065102               1.000000000              -0.000024900              -0.000073563               1.000000000               0.000000552              -0.000015132               1.000000000               0.000000978              -0.000013440               1.000000000               0.000000939              -0.000014350               1.000000000               0.000000512              -0.000016964               1.000000000              -0.000000006              -0.000020508               1.000000000              -0.000000467              -0.000024192               1.000000000              -0.000000842              -0.000027674               1.000000000              -0.000001489              -0.000031650               1.000000000              -0.000002566              -0.000036115               1.000000000              -0.000004241              -0.000041178               1.000000000              -0.000006543              -0.000046985               1.000000000              -0.000009396              -0.000053664               1.000000000              -0.000012855              -0.000061184               1.000000000              -0.000016923              -0.000069551               1.000000000              -0.000021509              -0.000078774               1.000000000              -0.000026596              -0.000088795               1.000000000              -0.000032164              -0.000099591               1.000000000               0.000000574              -0.000017731               1.000000000               0.000001347              -0.000015916               1.000000000               0.000001233              -0.000017377               1.000000000               0.000000578              -0.000020831               1.000000000              -0.000000236              -0.000025421               1.000000000              -0.000000868              -0.000030204               1.000000000              -0.000001416              -0.000035002               1.000000000              -0.000002337              -0.000040536               1.000000000              -0.000003890              -0.000046721               1.000000000              -0.000006148              -0.000053688               1.000000000              -0.000009027              -0.000061663               1.000000000              -0.000012533              -0.000070607               1.000000000              -0.000016707              -0.000080564               1.000000000              -0.000021459              -0.000091509               1.000000000              -0.000026779              -0.000103393               1.000000000              -0.000032634              -0.000116163               1.000000000              -0.000038972              -0.000129672               1.000000000               0.000000566              -0.000020324               1.000000000               0.000001719              -0.000018499               1.000000000               0.000001415              -0.000020606               1.000000000               0.000000466              -0.000025068               1.000000000              -0.000000567              -0.000030751               1.000000000              -0.000001246              -0.000036731               1.000000000              -0.000001917              -0.000043111               1.000000000              -0.000003210              -0.000050365               1.000000000              -0.000005276              -0.000058546               1.000000000              -0.000007989              -0.000067726               1.000000000              -0.000011377              -0.000078174               1.000000000              -0.000015476              -0.000089809               1.000000000              -0.000020226              -0.000102600               1.000000000              -0.000025560              -0.000116592               1.000000000              -0.000031486              -0.000131625               1.000000000              -0.000037863              -0.000147571               1.000000000              -0.000044586              -0.000164261               1.000000000               0.000000498              -0.000022986               1.000000000               0.000001951              -0.000021221               1.000000000               0.000001683              -0.000022971               1.000000000               0.000000836              -0.000027091               1.000000000              -0.000000248              -0.000032579               1.000000000              -0.000001042              -0.000038688               1.000000000              -0.000001507              -0.000045219               1.000000000              -0.000002308              -0.000052411               1.000000000              -0.000003769              -0.000060396               1.000000000              -0.000005710              -0.000069220               1.000000000              -0.000008198              -0.000078965               1.000000000              -0.000011227              -0.000089825               1.000000000              -0.000014724              -0.000101678               1.000000000              -0.000018723              -0.000114599               1.000000000              -0.000023163              -0.000128564               1.000000000              -0.000028043              -0.000143606               1.000000000              -0.000033345              -0.000159531               1.000000000               0.000000392              -0.000025513               1.000000000               0.000002006              -0.000023953               1.000000000               0.000001974              -0.000025533               1.000000000               0.000001266              -0.000029224               1.000000000               0.000000209              -0.000034371               1.000000000              -0.000000681              -0.000040441               1.000000000              -0.000001199              -0.000047102               1.000000000              -0.000001697              -0.000054342               1.000000000              -0.000002635              -0.000062265               1.000000000              -0.000003942              -0.000070898               1.000000000              -0.000005655              -0.000080248               1.000000000              -0.000007756              -0.000090480               1.000000000              -0.000010198              -0.000101642               1.000000000              -0.000012981              -0.000113689               1.000000000              -0.000016111              -0.000126618               1.000000000              -0.000019570              -0.000140538               1.000000000              -0.000023444              -0.000155401               1.000000000               0.000000295              -0.000027856               1.000000000               0.000001980              -0.000026670               1.000000000               0.000002132              -0.000028052               1.000000000               0.000001554              -0.000031310               1.000000000               0.000000632              -0.000036115               1.000000000              -0.000000289              -0.000042034               1.000000000              -0.000000884              -0.000048771               1.000000000              -0.000001260              -0.000056079               1.000000000              -0.000001755              -0.000064050               1.000000000              -0.000002566              -0.000072607               1.000000000              -0.000003623              -0.000081777               1.000000000              -0.000004968              -0.000091616               1.000000000              -0.000006563              -0.000102248               1.000000000              -0.000008372              -0.000113683               1.000000000              -0.000010414              -0.000125883               1.000000000              -0.000012670              -0.000138875               1.000000000              -0.000015113              -0.000152783               1.000000000               0.000000214              -0.000029893               1.000000000               0.000001814              -0.000029145               1.000000000               0.000002059              -0.000030397               1.000000000               0.000001696              -0.000033383               1.000000000               0.000000970              -0.000037900               1.000000000               0.000000134              -0.000043627               1.000000000              -0.000000507              -0.000050239               1.000000000              -0.000000858              -0.000057541               1.000000000              -0.000001108              -0.000065484               1.000000000              -0.000001529              -0.000074074               1.000000000              -0.000002125              -0.000083202               1.000000000              -0.000002899              -0.000092892               1.000000000              -0.000003851              -0.000103227               1.000000000              -0.000004918              -0.000114264               1.000000000              -0.000006090              -0.000126044               1.000000000              -0.000007341              -0.000138443               1.000000000              -0.000008654              -0.000151547               1.000000000               0.000000133              -0.000031539               1.000000000               0.000001502              -0.000031223               1.000000000               0.000001815              -0.000032522               1.000000000               0.000001616              -0.000035353               1.000000000               0.000001073              -0.000039554               1.000000000               0.000000416              -0.000045008               1.000000000              -0.000000156              -0.000051425               1.000000000              -0.000000483              -0.000058673               1.000000000              -0.000000653              -0.000066606               1.000000000              -0.000000860              -0.000075196               1.000000000              -0.000001134              -0.000084366               1.000000000              -0.000001499              -0.000094026               1.000000000              -0.000001965              -0.000104214               1.000000000              -0.000002507              -0.000115036               1.000000000              -0.000003080              -0.000126501               1.000000000              -0.000003674              -0.000138597               1.000000000              -0.000004258              -0.000151253               1.000000000               0.000000079              -0.000032783               1.000000000               0.000001091              -0.000032861               1.000000000               0.000001365              -0.000034236               1.000000000               0.000001258              -0.000036950               1.000000000               0.000000939              -0.000040961               1.000000000               0.000000496              -0.000046142               1.000000000               0.000000050              -0.000052355               1.000000000              -0.000000250              -0.000059483               1.000000000              -0.000000364              -0.000067369               1.000000000              -0.000000445              -0.000075936               1.000000000              -0.000000532              -0.000085098               1.000000000              -0.000000638              -0.000094784               1.000000000              -0.000000812              -0.000104927               1.000000000              -0.000001035              -0.000115629               1.000000000              -0.000001271              -0.000126853               1.000000000              -0.000001523              -0.000138738               1.000000000              -0.000001763              -0.000151180               1.000000000               0.000000042              -0.000033546               1.000000000               0.000000575              -0.000033883               1.000000000               0.000000719              -0.000035338               1.000000000               0.000000697              -0.000038006               1.000000000               0.000000553              -0.000041895               1.000000000               0.000000317              -0.000046910               1.000000000               0.000000083              -0.000053002               1.000000000              -0.000000086              -0.000060021               1.000000000              -0.000000151              -0.000067826               1.000000000              -0.000000177              -0.000076367               1.000000000              -0.000000200              -0.000085503               1.000000000              -0.000000211              -0.000095172               1.000000000              -0.000000242              -0.000105279               1.000000000              -0.000000300              -0.000115870               1.000000000              -0.000000381              -0.000126939               1.000000000              -0.000000482              -0.000138649               1.000000000              -0.000000597              -0.000150921               1.000000000              -0.000000000              -0.000033804               1.000000000               0.000000000              -0.000034223               1.000000000              -0.000000000              -0.000035718               1.000000000              -0.000000000              -0.000038383               1.000000000              -0.000000000              -0.000042230               1.000000000              -0.000000000              -0.000047168               1.000000000              -0.000000000              -0.000053186               1.000000000              -0.000000000              -0.000060164               1.000000000              -0.000000000              -0.000067972               1.000000000              -0.000000000              -0.000076512               1.000000000              -0.000000000              -0.000085627               1.000000000              -0.000000000              -0.000095290               1.000000000              -0.000000000              -0.000105381               1.000000000              -0.000000000              -0.000115907               1.000000000              -0.000000000              -0.000126908               1.000000000               0.000000000              -0.000138536               1.000000000               0.000000000              -0.000150726               1.000000000              -0.000000964               0.000000000               1.000000000              -0.000000122               0.000000000               1.000000000               0.000000041               0.000000000               1.000000000              -0.000000024               0.000000000               1.000000000              -0.000000098               0.000000000               1.000000000              -0.000000033               0.000000000               1.000000000               0.000000073               0.000000000               1.000000000               0.000000146               0.000000000               1.000000000               0.000000206               0.000000000               1.000000000               0.000000209               0.000000000               1.000000000               0.000000111               0.000000000               1.000000000              -0.000000051               0.000000000               1.000000000              -0.000000203               0.000000000               1.000000000              -0.000000270               0.000000000               1.000000000              -0.000000156               0.000000000               1.000000000               0.000000235               0.000000000               1.000000000               0.000000964               0.000000000               1.000000000              -0.000000987              -0.000002463               1.000000000              -0.000000134              -0.000002244               1.000000000               0.000000050              -0.000002273               1.000000000              -0.000000000              -0.000002531               1.000000000              -0.000000055              -0.000003011               1.000000000              -0.000000050              -0.000003485               1.000000000               0.000000025              -0.000003770               1.000000000               0.000000131              -0.000004064               1.000000000               0.000000179              -0.000004274               1.000000000               0.000000156              -0.000004366               1.000000000               0.000000096              -0.000004449               1.000000000               0.000000004              -0.000004564               1.000000000              -0.000000050              -0.000004812               1.000000000               0.000000030              -0.000005263               1.000000000               0.000000319              -0.000005948               1.000000000               0.000000904              -0.000006869               1.000000000               0.000001869              -0.000007980               1.000000000              -0.000000858              -0.000004901               1.000000000              -0.000000090              -0.000004477               1.000000000               0.000000001              -0.000004502               1.000000000              -0.000000060              -0.000005104               1.000000000              -0.000000018              -0.000005999               1.000000000               0.000000069              -0.000006941               1.000000000               0.000000104              -0.000007515               1.000000000               0.000000062              -0.000008140               1.000000000              -0.000000029              -0.000008660               1.000000000              -0.000000074              -0.000009044               1.000000000              -0.000000012              -0.000009469               1.000000000               0.000000187              -0.000009998               1.000000000               0.000000590              -0.000010790               1.000000000               0.000001260              -0.000011952               1.000000000               0.000002235              -0.000013558               1.000000000               0.000003554              -0.000015658               1.000000000               0.000005272              -0.000018286               1.000000000              -0.000000715              -0.000007384               1.000000000              -0.000000168              -0.000006680               1.000000000              -0.000000118              -0.000006786               1.000000000              -0.000000096              -0.000007714               1.000000000              -0.000000008              -0.000009098               1.000000000               0.000000089              -0.000010475               1.000000000               0.000000079              -0.000011420               1.000000000               0.000000071              -0.000012477               1.000000000               0.000000105              -0.000013451               1.000000000               0.000000241              -0.000014458               1.000000000               0.000000634              -0.000015633               1.000000000               0.000001341              -0.000017104               1.000000000               0.000002403              -0.000018987               1.000000000               0.000003902              -0.000021375               1.000000000               0.000005837              -0.000024359               1.000000000               0.000008191              -0.000028012               1.000000000               0.000010965              -0.000032410               1.000000000              -0.000000647              -0.000009947               1.000000000              -0.000000325              -0.000008861               1.000000000              -0.000000332              -0.000009159               1.000000000              -0.000000273              -0.000010462               1.000000000              -0.000000045              -0.000012437               1.000000000               0.000000215              -0.000014280               1.000000000               0.000000320              -0.000015858               1.000000000               0.000000443              -0.000017511               1.000000000               0.000000678              -0.000019307               1.000000000               0.000001198              -0.000021291               1.000000000               0.000002138              -0.000023684               1.000000000               0.000003503              -0.000026579               1.000000000               0.000005341              -0.000030066               1.000000000               0.000007708              -0.000034218               1.000000000               0.000010583              -0.000039069               1.000000000               0.000013932              -0.000044659               1.000000000               0.000017725              -0.000051018               1.000000000              -0.000000554              -0.000012528               1.000000000              -0.000000583              -0.000011073               1.000000000              -0.000000667              -0.000011655               1.000000000              -0.000000395              -0.000013507               1.000000000               0.000000034              -0.000016124               1.000000000               0.000000325              -0.000018793               1.000000000               0.000000500              -0.000021243               1.000000000               0.000000831              -0.000023885               1.000000000               0.000001452              -0.000026884               1.000000000               0.000002528              -0.000030237               1.000000000               0.000004141              -0.000034204               1.000000000               0.000006280              -0.000038854               1.000000000               0.000008956              -0.000044256               1.000000000               0.000012194              -0.000050435               1.000000000               0.000015961              -0.000057381               1.000000000               0.000020200              -0.000065102               1.000000000               0.000024900              -0.000073563               1.000000000              -0.000000552              -0.000015132               1.000000000              -0.000000978              -0.000013440               1.000000000              -0.000000939              -0.000014350               1.000000000              -0.000000512              -0.000016964               1.000000000               0.000000006              -0.000020508               1.000000000               0.000000467              -0.000024192               1.000000000               0.000000842              -0.000027674               1.000000000               0.000001489              -0.000031650               1.000000000               0.000002566              -0.000036115               1.000000000               0.000004241              -0.000041178               1.000000000               0.000006543              -0.000046985               1.000000000               0.000009396              -0.000053664               1.000000000               0.000012855              -0.000061184               1.000000000               0.000016923              -0.000069551               1.000000000               0.000021509              -0.000078774               1.000000000               0.000026596              -0.000088795               1.000000000               0.000032164              -0.000099591               1.000000000              -0.000000574              -0.000017731               1.000000000              -0.000001347              -0.000015916               1.000000000              -0.000001233              -0.000017377               1.000000000              -0.000000578              -0.000020831               1.000000000               0.000000236              -0.000025421               1.000000000               0.000000868              -0.000030204               1.000000000               0.000001416              -0.000035002               1.000000000               0.000002337              -0.000040536               1.000000000               0.000003890              -0.000046721               1.000000000               0.000006148              -0.000053688               1.000000000               0.000009027              -0.000061663               1.000000000               0.000012533              -0.000070607               1.000000000               0.000016707              -0.000080564               1.000000000               0.000021459              -0.000091509               1.000000000               0.000026779              -0.000103393               1.000000000               0.000032634              -0.000116163               1.000000000               0.000038972              -0.000129672               1.000000000              -0.000000566              -0.000020324               1.000000000              -0.000001719              -0.000018499               1.000000000              -0.000001415              -0.000020606               1.000000000              -0.000000466              -0.000025068               1.000000000               0.000000567              -0.000030751               1.000000000               0.000001246              -0.000036731               1.000000000               0.000001917              -0.000043111               1.000000000               0.000003210              -0.000050365               1.000000000               0.000005276              -0.000058546               1.000000000               0.000007989              -0.000067726               1.000000000               0.000011377              -0.000078174               1.000000000               0.000015476              -0.000089809               1.000000000               0.000020226              -0.000102600               1.000000000               0.000025560              -0.000116592               1.000000000               0.000031486              -0.000131625               1.000000000               0.000037863              -0.000147571               1.000000000               0.000044586              -0.000164261               1.000000000              -0.000000498              -0.000022986               1.000000000              -0.000001951              -0.000021221               1.000000000              -0.000001683              -0.000022971               1.000000000              -0.000000836              -0.000027091               1.000000000               0.000000248              -0.000032579               1.000000000               0.000001042              -0.000038688               1.000000000               0.000001507              -0.000045219               1.000000000               0.000002308              -0.000052411               1.000000000               0.000003769              -0.000060396               1.000000000               0.000005710              -0.000069220               1.000000000               0.000008198              -0.000078965               1.000000000               0.000011227              -0.000089825               1.000000000               0.000014724              -0.000101678               1.000000000               0.000018723              -0.000114599               1.000000000               0.000023163              -0.000128564               1.000000000               0.000028043              -0.000143606               1.000000000               0.000033345              -0.000159531               1.000000000              -0.000000392              -0.000025513               1.000000000              -0.000002006              -0.000023953               1.000000000              -0.000001974              -0.000025533               1.000000000              -0.000001266              -0.000029224               1.000000000              -0.000000209              -0.000034371               1.000000000               0.000000681              -0.000040441               1.000000000               0.000001199              -0.000047102               1.000000000               0.000001697              -0.000054342               1.000000000               0.000002635              -0.000062265               1.000000000               0.000003942              -0.000070898               1.000000000               0.000005655              -0.000080248               1.000000000               0.000007756              -0.000090480               1.000000000               0.000010198              -0.000101642               1.000000000               0.000012981              -0.000113689               1.000000000               0.000016111              -0.000126618               1.000000000               0.000019570              -0.000140538               1.000000000               0.000023444              -0.000155401               1.000000000              -0.000000295              -0.000027856               1.000000000              -0.000001980              -0.000026670               1.000000000              -0.000002132              -0.000028052               1.000000000              -0.000001554              -0.000031310               1.000000000              -0.000000632              -0.000036115               1.000000000               0.000000289              -0.000042034               1.000000000               0.000000884              -0.000048771               1.000000000               0.000001260              -0.000056079               1.000000000               0.000001755              -0.000064050               1.000000000               0.000002566              -0.000072607               1.000000000               0.000003623              -0.000081777               1.000000000               0.000004968              -0.000091616               1.000000000               0.000006563              -0.000102248               1.000000000               0.000008372              -0.000113683               1.000000000               0.000010414              -0.000125883               1.000000000               0.000012670              -0.000138875               1.000000000               0.000015113              -0.000152783               1.000000000              -0.000000214              -0.000029893               1.000000000              -0.000001814              -0.000029145               1.000000000              -0.000002059              -0.000030397               1.000000000              -0.000001696              -0.000033383               1.000000000              -0.000000970              -0.000037900               1.000000000              -0.000000134              -0.000043627               1.000000000               0.000000507              -0.000050239               1.000000000               0.000000858              -0.000057541               1.000000000               0.000001108              -0.000065484               1.000000000               0.000001529              -0.000074074               1.000000000               0.000002125              -0.000083202               1.000000000               0.000002899              -0.000092892               1.000000000               0.000003851              -0.000103227               1.000000000               0.000004918              -0.000114264               1.000000000               0.000006090              -0.000126044               1.000000000               0.000007341              -0.000138443               1.000000000               0.000008654              -0.000151547               1.000000000              -0.000000133              -0.000031539               1.000000000              -0.000001502              -0.000031223               1.000000000              -0.000001815              -0.000032522               1.000000000              -0.000001616              -0.000035353               1.000000000              -0.000001073              -0.000039554               1.000000000              -0.000000416              -0.000045008               1.000000000               0.000000156              -0.000051425               1.000000000               0.000000483              -0.000058673               1.000000000               0.000000653              -0.000066606               1.000000000               0.000000860              -0.000075196               1.000000000               0.000001134              -0.000084366               1.000000000               0.000001499              -0.000094026               1.000000000               0.000001965              -0.000104214               1.000000000               0.000002507              -0.000115036               1.000000000               0.000003080              -0.000126501               1.000000000               0.000003674              -0.000138597               1.000000000               0.000004258              -0.000151253               1.000000000              -0.000000079              -0.000032783               1.000000000              -0.000001091              -0.000032861               1.000000000              -0.000001365              -0.000034236               1.000000000              -0.000001258              -0.000036950               1.000000000              -0.000000939              -0.000040961               1.000000000              -0.000000496              -0.000046142               1.000000000              -0.000000050              -0.000052355               1.000000000               0.000000250              -0.000059483               1.000000000               0.000000364              -0.000067369               1.000000000               0.000000445              -0.000075936               1.000000000               0.000000532              -0.000085098               1.000000000               0.000000638              -0.000094784               1.000000000               0.000000812              -0.000104927               1.000000000               0.000001035              -0.000115629               1.000000000               0.000001271              -0.000126853               1.000000000               0.000001523              -0.000138738               1.000000000               0.000001763              -0.000151180               1.000000000              -0.000000042              -0.000033546               1.000000000              -0.000000575              -0.000033883               1.000000000              -0.000000719              -0.000035338               1.000000000              -0.000000697              -0.000038006               1.000000000              -0.000000553              -0.000041895               1.000000000              -0.000000317              -0.000046910               1.000000000              -0.000000083              -0.000053002               1.000000000               0.000000086              -0.000060021               1.000000000               0.000000151              -0.000067826               1.000000000               0.000000177              -0.000076367               1.000000000               0.000000200              -0.000085503               1.000000000               0.000000211              -0.000095172               1.000000000               0.000000242              -0.000105279               1.000000000               0.000000300              -0.000115870               1.000000000               0.000000381              -0.000126939               1.000000000               0.000000482              -0.000138649               1.000000000               0.000000597              -0.000150921               1.000000000              -0.000000000              -0.000033804               1.000000000               0.000000000              -0.000034223               1.000000000              -0.000000000              -0.000035718               1.000000000              -0.000000000              -0.000038383               1.000000000              -0.000000000              -0.000042230               1.000000000              -0.000000000              -0.000047168               1.000000000              -0.000000000              -0.000053186               1.000000000              -0.000000000              -0.000060164               1.000000000              -0.000000000              -0.000067972               1.000000000              -0.000000000              -0.000076512               1.000000000              -0.000000000              -0.000085627               1.000000000              -0.000000000              -0.000095290               1.000000000              -0.000000000              -0.000105381               1.000000000              -0.000000000              -0.000115907               1.000000000              -0.000000000              -0.000126908               1.000000000               0.000000000              -0.000138536               1.000000000               0.000000000              -0.000150726               1.000000000              -0.000000964               0.000000000               1.000000000              -0.000000122               0.000000000               1.000000000               0.000000041               0.000000000               1.000000000              -0.000000024               0.000000000               1.000000000              -0.000000098               0.000000000               1.000000000              -0.000000033               0.000000000               1.000000000               0.000000073               0.000000000               1.000000000               0.000000146               0.000000000               1.000000000               0.000000206               0.000000000               1.000000000               0.000000209               0.000000000               1.000000000               0.000000111               0.000000000               1.000000000              -0.000000051               0.000000000               1.000000000              -0.000000203               0.000000000               1.000000000              -0.000000270               0.000000000               1.000000000              -0.000000156               0.000000000               1.000000000               0.000000235               0.000000000               1.000000000               0.000000964               0.000000000               1.000000000              -0.000000987               0.000002463               1.000000000              -0.000000134               0.000002244               1.000000000               0.000000050               0.000002273               1.000000000              -0.000000000               0.000002531               1.000000000              -0.000000055               0.000003011               1.000000000              -0.000000050               0.000003485               1.000000000               0.000000025               0.000003770               1.000000000               0.000000131               0.000004064               1.000000000               0.000000179               0.000004274               1.000000000               0.000000156               0.000004366               1.000000000               0.000000096               0.000004449               1.000000000               0.000000004               0.000004564               1.000000000              -0.000000050               0.000004812               1.000000000               0.000000030               0.000005263               1.000000000               0.000000319               0.000005948               1.000000000               0.000000904               0.000006869               1.000000000               0.000001869               0.000007980               1.000000000              -0.000000858               0.000004901               1.000000000              -0.000000090               0.000004477               1.000000000               0.000000001               0.000004502               1.000000000              -0.000000060               0.000005104               1.000000000              -0.000000018               0.000005999               1.000000000               0.000000069               0.000006941               1.000000000               0.000000104               0.000007515               1.000000000               0.000000062               0.000008140               1.000000000              -0.000000029               0.000008660               1.000000000              -0.000000074               0.000009044               1.000000000              -0.000000012               0.000009469               1.000000000               0.000000187               0.000009998               1.000000000               0.000000590               0.000010790               1.000000000               0.000001260               0.000011952               1.000000000               0.000002235               0.000013558               1.000000000               0.000003554               0.000015658               1.000000000               0.000005272               0.000018286               1.000000000              -0.000000715               0.000007384               1.000000000              -0.000000168               0.000006680               1.000000000              -0.000000118               0.000006786               1.000000000              -0.000000096               0.000007714               1.000000000              -0.000000008               0.000009098               1.000000000               0.000000089               0.000010475               1.000000000               0.000000079               0.000011420               1.000000000               0.000000071               0.000012477               1.000000000               0.000000105               0.000013451               1.000000000               0.000000241               0.000014458               1.000000000               0.000000634               0.000015633               1.000000000               0.000001341               0.000017104               1.000000000               0.000002403               0.000018987               1.000000000               0.000003902               0.000021375               1.000000000               0.000005837               0.000024359               1.000000000               0.000008191               0.000028012               1.000000000               0.000010965               0.000032410               1.000000000              -0.000000647               0.000009947               1.000000000              -0.000000325               0.000008861               1.000000000              -0.000000332               0.000009159               1.000000000              -0.000000273               0.000010462               1.000000000              -0.000000045               0.000012437               1.000000000               0.000000215               0.000014280               1.000000000               0.000000320               0.000015858               1.000000000               0.000000443               0.000017511               1.000000000               0.000000678               0.000019307               1.000000000               0.000001198               0.000021291               1.000000000               0.000002138               0.000023684               1.000000000               0.000003503               0.000026579               1.000000000               0.000005341               0.000030066               1.000000000               0.000007708               0.000034218               1.000000000               0.000010583               0.000039069               1.000000000               0.000013932               0.000044659               1.000000000               0.000017725               0.000051018               1.000000000              -0.000000554               0.000012528               1.000000000              -0.000000583               0.000011073               1.000000000              -0.000000667               0.000011655               1.000000000              -0.000000395               0.000013507               1.000000000               0.000000034               0.000016124               1.000000000               0.000000325               0.000018793               1.000000000               0.000000500               0.000021243               1.000000000               0.000000831               0.000023885               1.000000000               0.000001452               0.000026884               1.000000000               0.000002528               0.000030237               1.000000000               0.000004141               0.000034204               1.000000000               0.000006280               0.000038854               1.000000000               0.000008956               0.000044256               1.000000000               0.000012194               0.000050435               1.000000000               0.000015961               0.000057381               1.000000000               0.000020200               0.000065102               1.000000000               0.000024900               0.000073563               1.000000000              -0.000000552               0.000015132               1.000000000              -0.000000978               0.000013440               1.000000000              -0.000000939               0.000014350               1.000000000              -0.000000512               0.000016964               1.000000000               0.000000006               0.000020508               1.000000000               0.000000467               0.000024192               1.000000000               0.000000842               0.000027674               1.000000000               0.000001489               0.000031650               1.000000000               0.000002566               0.000036115               1.000000000               0.000004241               0.000041178               1.000000000               0.000006543               0.000046985               1.000000000               0.000009396               0.000053664               1.000000000               0.000012855               0.000061184               1.000000000               0.000016923               0.000069551               1.000000000               0.000021509               0.000078774               1.000000000               0.000026596               0.000088795               1.000000000               0.000032164               0.000099591               1.000000000              -0.000000574               0.000017731               1.000000000              -0.000001347               0.000015916               1.000000000              -0.000001233               0.000017377               1.000000000              -0.000000578               0.000020831               1.000000000               0.000000236               0.000025421               1.000000000               0.000000868               0.000030204               1.000000000               0.000001416               0.000035002               1.000000000               0.000002337               0.000040536               1.000000000               0.000003890               0.000046721               1.000000000               0.000006148               0.000053688               1.000000000               0.000009027               0.000061663               1.000000000               0.000012533               0.000070607               1.000000000               0.000016707               0.000080564               1.000000000               0.000021459               0.000091509               1.000000000               0.000026779               0.000103393               1.000000000               0.000032634               0.000116163               1.000000000               0.000038972               0.000129672               1.000000000              -0.000000566               0.000020324               1.000000000              -0.000001719               0.000018499               1.000000000              -0.000001415               0.000020606               1.000000000              -0.000000466               0.000025068               1.000000000               0.000000567               0.000030751               1.000000000               0.000001246               0.000036731               1.000000000               0.000001917               0.000043111               1.000000000               0.000003210               0.000050365               1.000000000               0.000005276               0.000058546               1.000000000               0.000007989               0.000067726               1.000000000               0.000011377               0.000078174               1.000000000               0.000015476               0.000089809               1.000000000               0.000020226               0.000102600               1.000000000               0.000025560               0.000116592               1.000000000               0.000031486               0.000131625               1.000000000               0.000037863               0.000147571               1.000000000               0.000044586               0.000164261               1.000000000              -0.000000498               0.000022986               1.000000000              -0.000001951               0.000021221               1.000000000              -0.000001683               0.000022971               1.000000000              -0.000000836               0.000027091               1.000000000               0.000000248               0.000032579               1.000000000               0.000001042               0.000038688               1.000000000               0.000001507               0.000045219               1.000000000               0.000002308               0.000052411               1.000000000               0.000003769               0.000060396               1.000000000               0.000005710               0.000069220               1.000000000               0.000008198               0.000078965               1.000000000               0.000011227               0.000089825               1.000000000               0.000014724               0.000101678               1.000000000               0.000018723               0.000114599               1.000000000               0.000023163               0.000128564               1.000000000               0.000028043               0.000143606               1.000000000               0.000033345               0.000159531               1.000000000              -0.000000392               0.000025513               1.000000000              -0.000002006               0.000023953               1.000000000              -0.000001974               0.000025533               1.000000000              -0.000001266               0.000029224               1.000000000              -0.000000209               0.000034371               1.000000000               0.000000681               0.000040441               1.000000000               0.000001199               0.000047102               1.000000000               0.000001697               0.000054342               1.000000000               0.000002635               0.000062265               1.000000000               0.000003942               0.000070898               1.000000000               0.000005655               0.000080248               1.000000000               0.000007756               0.000090480               1.000000000               0.000010198               0.000101642               1.000000000               0.000012981               0.000113689               1.000000000               0.000016111               0.000126618               1.000000000               0.000019570               0.000140538               1.000000000               0.000023444               0.000155401               1.000000000              -0.000000295               0.000027856               1.000000000              -0.000001980               0.000026670               1.000000000              -0.000002132               0.000028052               1.000000000              -0.000001554               0.000031310               1.000000000              -0.000000632               0.000036115               1.000000000               0.000000289               0.000042034               1.000000000               0.000000884               0.000048771               1.000000000               0.000001260               0.000056079               1.000000000               0.000001755               0.000064050               1.000000000               0.000002566               0.000072607               1.000000000               0.000003623               0.000081777               1.000000000               0.000004968               0.000091616               1.000000000               0.000006563               0.000102248               1.000000000               0.000008372               0.000113683               1.000000000               0.000010414               0.000125883               1.000000000               0.000012670               0.000138875               1.000000000               0.000015113               0.000152783               1.000000000              -0.000000214               0.000029893               1.000000000              -0.000001814               0.000029145               1.000000000              -0.000002059               0.000030397               1.000000000              -0.000001696               0.000033383               1.000000000              -0.000000970               0.000037900               1.000000000              -0.000000134               0.000043627               1.000000000               0.000000507               0.000050239               1.000000000               0.000000858               0.000057541               1.000000000               0.000001108               0.000065484               1.000000000               0.000001529               0.000074074               1.000000000               0.000002125               0.000083202               1.000000000               0.000002899               0.000092892               1.000000000               0.000003851               0.000103227               1.000000000               0.000004918               0.000114264               1.000000000               0.000006090               0.000126044               1.000000000               0.000007341               0.000138443               1.000000000               0.000008654               0.000151547               1.000000000              -0.000000133               0.000031539               1.000000000              -0.000001502               0.000031223               1.000000000              -0.000001815               0.000032522               1.000000000              -0.000001616               0.000035353               1.000000000              -0.000001073               0.000039554               1.000000000              -0.000000416               0.000045008               1.000000000               0.000000156               0.000051425               1.000000000               0.000000483               0.000058673               1.000000000               0.000000653               0.000066606               1.000000000               0.000000860               0.000075196               1.000000000               0.000001134               0.000084366               1.000000000               0.000001499               0.000094026               1.000000000               0.000001965               0.000104214               1.000000000               0.000002507               0.000115036               1.000000000               0.000003080               0.000126501               1.000000000               0.000003674               0.000138597               1.000000000               0.000004258               0.000151253               1.000000000              -0.000000079               0.000032783               1.000000000              -0.000001091               0.000032861               1.000000000              -0.000001365               0.000034236               1.000000000              -0.000001258               0.000036950               1.000000000              -0.000000939               0.000040961               1.000000000              -0.000000496               0.000046142               1.000000000              -0.000000050               0.000052355               1.000000000               0.000000250               0.000059483               1.000000000               0.000000364               0.000067369               1.000000000               0.000000445               0.000075936               1.000000000               0.000000532               0.000085098               1.000000000               0.000000638               0.000094784               1.000000000               0.000000812               0.000104927               1.000000000               0.000001035               0.000115629               1.000000000               0.000001271               0.000126853               1.000000000               0.000001523               0.000138738               1.000000000               0.000001763               0.000151180               1.000000000              -0.000000042               0.000033546               1.000000000              -0.000000575               0.000033883               1.000000000              -0.000000719               0.000035338               1.000000000              -0.000000697               0.000038006               1.000000000              -0.000000553               0.000041895               1.000000000              -0.000000317               0.000046910               1.000000000              -0.000000083               0.000053002               1.000000000               0.000000086               0.000060021               1.000000000               0.000000151               0.000067826               1.000000000               0.000000177               0.000076367               1.000000000               0.000000200               0.000085503               1.000000000               0.000000211               0.000095172               1.000000000               0.000000242               0.000105279               1.000000000               0.000000300               0.000115870               1.000000000               0.000000381               0.000126939               1.000000000               0.000000482               0.000138649               1.000000000               0.000000597               0.000150921               1.000000000              -0.000000000               0.000033804               1.000000000              -0.000000000               0.000034223               1.000000000               0.000000000               0.000035718               1.000000000               0.000000000               0.000038383               1.000000000               0.000000000               0.000042230               1.000000000               0.000000000               0.000047168               1.000000000               0.000000000               0.000053186               1.000000000               0.000000000               0.000060164               1.000000000              -0.000000000               0.000067972               1.000000000              -0.000000000               0.000076512               1.000000000              -0.000000000               0.000085627               1.000000000               0.000000000               0.000095290               1.000000000              -0.000000000               0.000105381               1.000000000              -0.000000000               0.000115907               1.000000000              -0.000000000               0.000126908               1.000000000               0.000000000               0.000138536               1.000000000               0.000000000               0.000150726               1.000000000 </DataArray>
<DataArray type="Float64"                                    Name="defo"                                                      NumberOfComponents=" 3" format="ascii">
              0.000000964               0.000000000               1.000000000               0.000000122               0.000000000               1.000000000              -0.000000041              -0.000000000               1.000000000               0.000000024               0.000000000               1.000000000               0.000000098               0.000000000               1.000000000               0.000000033               0.000000000               1.000000000              -0.000000073               0.000000000               1.000000000              -0.000000146              -0.000000000               1.000000000              -0.000000206              -0.000000000               1.000000000              -0.000000209              -0.000000000               1.000000000              -0.000000111              -0.000000000               1.000000000               0.000000051              -0.000000000               1.000000000               0.000000203               0.000000000               1.000000000               0.000000270               0.000000000               1.000000000               0.000000156               0.000000000               1.000000000              -0.000000235               0.000000000               1.000000000              -0.000000964               0.000000000               1.000000000               0.000000987               0.000002463               1.000000000               0.000000134               0.000002244               1.000000000              -0.000000050               0.000002273               1.000000000               0.000000000               0.000002531               1.000000000               0.000000055               0.000003011               1.000000000               0.000000050               0.000003485               1.000000000              -0.000000025               0.000003770               1.000000000              -0.000000131               0.000004064               1.000000000              -0.000000179               0.000004274               1.000000000              -0.000000156               0.000004366               1.000000000              -0.000000096               0.000004449               1.000000000              -0.000000004               0.000004564               1.000000000               0.000000050               0.000004812               1.000000000              -0.000000030               0.000005263               1.000000000              -0.000000319               0.000005948               1.000000000              -0.000000904               0.000006869               1.000000000              -0.000001869               0.000007980               1.000000000               0.000000858               0.000004901               1.000000000               0.000000090               0.000004477               1.000000000              -0.000000001               0.000004502               1.000000000               0.000000060               0.000005104               1.000000000               0.000000018               0.000005999               1.000000000              -0.000000069               0.000006941               1.000000000              -0.000000104               0.000007515               1.000000000              -0.000000062               0.000008140               1.000000000               0.000000029               0.000008660               1.000000000               0.000000074               0.000009044               1.000000000               0.000000012               0.000009469               1.000000000              -0.000000187               0.000009998               1.000000000              -0.000000590               0.000010790               1.000000000              -0.000001260               0.000011952               1.000000000              -0.000002235               0.000013558               1.000000000              -0.000003554               0.000015658               1.000000000              -0.000005272               0.000018286               1.000000000               0.000000715               0.000007384               1.000000000               0.000000168               0.000006680               1.000000000               0.000000118               0.000006786               1.000000000               0.000000096               0.000007714               1.000000000               0.000000008               0.000009098               1.000000000              -0.000000089               0.000010475               1.000000000              -0.000000079               0.000011420               1.000000000              -0.000000071               0.000012477               1.000000000              -0.000000105               0.000013451               1.000000000              -0.000000241               0.000014458               1.000000000              -0.000000634               0.000015633               1.000000000              -0.000001341               0.000017104               1.000000000              -0.000002403               0.000018987               1.000000000              -0.000003902               0.000021375               1.000000000              -0.000005837               0.000024359               1.000000000              -0.000008191               0.000028012               1.000000000              -0.000010965               0.000032410               1.000000000               0.000000647               0.000009947               1.000000000               0.000000325               0.000008861               1.000000000               0.000000332               0.000009159               1.000000000               0.000000273               0.000010462               1.000000000               0.000000045               0.000012437               1.000000000              -0.000000215               0.000014280               1.000000000              -0.000000320               0.000015858               1.000000000              -0.000000443               0.000017511               1.000000000              -0.000000678               0.000019307               1.000000000              -0.000001198               0.000021291               1.000000000              -0.000002138               0.000023684               1.000000000              -0.000003503               0.000026579               1.000000000              -0.000005341               0.000030066               1.000000000              -0.000007708               0.000034218               1.000000000              -0.000010583               0.000039069               1.000000000              -0.000013932               0.000044659               1.000000000              -0.000017725               0.000051018               1.000000000               0.000000554               0.000012528               1.000000000               0.000000583               0.000011073               1.000000000               0.000000667               0.000011655               1.000000000               0.000000395               0.000013507               1.000000000              -0.000000034               0.000016124               1.000000000              -0.000000325               0.000018793               1.000000000              -0.000000500               0.000021243               1.000000000              -0.000000831               0.000023885               1.000000000              -0.000001452               0.000026884               1.000000000              -0.000002528               0.000030237               1.000000000              -0.000004141               0.000034204               1.000000000              -0.000006280               0.000038854               1.000000000              -0.000008956               0.000044256               1.000000000              -0.000012194               0.000050435               1.000000000              -0.000015961               0.000057381               1.000000000              -0.000020200               0.000065102               1.000000000              -0.000024900               0.000073563               1.000000000               0.000000552               0.000015132               1.000000000               0.000000978               0.000013440               1.000000000               0.000000939               0.000014350               1.000000000               0.000000512               0.000016964               1.000000000              -0.000000006               0.000020508               1.000000000              -0.000000467               0.000024192               1.000000000              -0.000000842               0.000027674               1.000000000              -0.000001489               0.000031650               1.000000000              -0.000002566               0.000036115               1.000000000              -0.000004241               0.000041178               1.000000000              -0.000006543               0.000046985               1.000000000              -0.000009396               0.000053664               1.000000000              -0.000012855               0.000061184               1.000000000              -0.000016923               0.000069551               1.000000000              -0.000021509               0.000078774               1.000000000              -0.000026596               0.000088795               1.000000000              -0.000032164               0.000099591               1.000000000               0.000000574               0.000017731               1.000000000               0.000001347               0.000015916               1.000000000               0.000001233               0.000017377               1.000000000               0.000000578               0.000020831               1.000000000              -0.000000236               0.000025421               1.000000000              -0.000000868               0.000030204               1.000000000              -0.000001416               0.000035002               1.000000000              -0.000002337               0.000040536               1.000000000              -0.000003890               0.000046721               1.000000000              -0.000006148               0.000053688               1.000000000              -0.000009027               0.000061663               1.000000000              -0.000012533               0.000070607               1.000000000              -0.000016707               0.000080564               1.000000000              -0.000021459               0.000091509               1.000000000              -0.000026779               0.000103393               1.000000000              -0.000032634               0.000116163               1.000000000              -0.000038972               0.000129672               1.000000000               0.000000566               0.000020324               1.000000000               0.000001719               0.000018499               1.000000000               0.000001415               0.000020606               1.000000000               0.000000466               0.000025068               1.000000000              -0.000000567               0.000030751               1.000000000              -0.000001246               0.000036731               1.000000000              -0.000001917               0.000043111               1.000000000              -0.000003210               0.000050365               1.000000000              -0.000005276               0.000058546               1.000000000              -0.000007989               0.000067726               1.000000000              -0.000011377               0.000078174               1.000000000              -0.000015476               0.000089809               1.000000000              -0.000020226               0.000102600               1.000000000              -0.000025560               0.000116592               1.000000000              -0.000031486               0.000131625               1.000000000              -0.000037863               0.000147571               1.000000000              -0.000044586               0.000164261               1.000000000               0.000000498               0.000022986               1.000000000               0.000001951               0.000021221               1.000000000               0.000001683               0.000022971               1.000000000               0.000000836               0.000027091               1.000000000              -0.000000248               0.000032579               1.000000000              -0.000001042               0.000038688               1.000000000              -0.000001507               0.000045219               1.000000000              -0.000002308               0.000052411               1.000000000              -0.000003769               0.000060396               1.000000000              -0.000005710               0.000069220               1.000000000              -0.000008198               0.000078965               1.000000000              -0.000011227               0.000089825               1.000000000              -0.000014724               0.000101678               1.000000000              -0.000018723               0.000114599               1.000000000              -0.000023163               0.000128564               1.000000000              -0.000028043               0.000143606               1.000000000              -0.000033345               0.000159531               1.000000000               0.000000392               0.000025513               1.000000000               0.000002006               0.000023953               1.000000000               0.000001974               0.000025533               1.000000000               0.000001266               0.000029224               1.000000000               0.000000209               0.000034371               1.000000000              -0.000000681               0.000040441               1.000000000              -0.000001199               0.000047102               1.000000000              -0.000001697               0.000054342               1.000000000              -0.000002635               0.000062265               1.000000000              -0.000003942               0.000070898               1.000000000              -0.000005655               0.000080248               1.000000000              -0.000007756               0.000090480               1.000000000              -0.000010198               0.000101642               1.000000000              -0.000012981               0.000113689               1.000000000              -0.000016111               0.000126618               1.000000000              -0.000019570               0.000140538               1.000000000              -0.000023444               0.000155401               1.000000000               0.000000295               0.000027856               1.000000000               0.000001980               0.000026670               1.000000000               0.000002132               0.000028052               1.000000000               0.000001554               0.000031310               1.000000000               0.000000632               0.000036115               1.000000000              -0.000000289               0.000042034               1.000000000              -0.000000884               0.000048771               1.000000000              -0.000001260               0.000056079               1.000000000              -0.000001755               0.000064050               1.000000000              -0.000002566               0.000072607               1.000000000              -0.000003623               0.000081777               1.000000000              -0.000004968               0.000091616               1.000000000              -0.000006563               0.000102248               1.000000000              -0.000008372               0.000113683               1.000000000              -0.000010414               0.000125883               1.000000000              -0.000012670               0.000138875               1.000000000              -0.000015113               0.000152783               1.000000000               0.000000214               0.000029893               1.000000000               0.000001814               0.000029145               1.000000000               0.000002059               0.000030397               1.000000000               0.000001696               0.000033383               1.000000000               0.000000970               0.000037900               1.000000000               0.000000134               0.000043627               1.000000000              -0.000000507               0.000050239               1.000000000              -0.000000858               0.000057541               1.000000000              -0.000001108               0.000065484               1.000000000              -0.000001529               0.000074074               1.000000000              -0.000002125               0.000083202               1.000000000              -0.000002899               0.000092892               1.000000000              -0.000003851               0.000103227               1.000000000              -0.000004918               0.000114264               1.000000000              -0.000006090               0.000126044               1.000000000              -0.000007341               0.000138443               1.000000000              -0.000008654               0.000151547               1.000000000               0.000000133               0.000031539               1.000000000               0.000001502               0.000031223               1.000000000               0.000001815               0.000032522               1.000000000               0.000001616               0.000035353               1.000000000               0.000001073               0.000039554               1.000000000               0.000000416               0.000045008               1.000000000              -0.000000156               0.000051425               1.000000000              -0.000000483               0.000058673               1.000000000              -0.000000653               0.000066606               1.000000000              -0.000000860               0.000075196               1.000000000              -0.000001134               0.000084366               1.000000000              -0.000001499               0.000094026               1.000000000              -0.000001965               0.000104214               1.000000000              -0.000002507               0.000115036               1.000000000              -0.000003080               0.000126501               1.000000000              -0.000003674               0.000138597               1.000000000              -0.000004258               0.000151253               1.000000000               0.000000079               0.000032783               1.000000000               0.000001091               0.000032861               1.000000000               0.000001365               0.000034236               1.000000000               0.000001258               0.000036950               1.000000000               0.000000939               0.000040961               1.000000000               0.000000496               0.000046142               1.000000000               0.000000050               0.000052355               1.000000000              -0.000000250               0.000059483               1.000000000              -0.000000364               0.000067369               1.000000000              -0.000000445               0.000075936               1.000000000              -0.000000532               0.000085098               1.000000000              -0.000000638               0.000094784               1.000000000              -0.000000812               0.000104927               1.000000000              -0.000001035               0.000115629               1.000000000              -0.000001271               0.000126853               1.000000000              -0.000001523               0.000138738               1.000000000              -0.000001763               0.000151180               1.000000000               0.000000042               0.000033546               1.000000000               0.000000575               0.000033883               1.000000000               0.000000719               0.000035338               1.000000000               0.000000697               0.000038006               1.000000000               0.000000553               0.000041895               1.000000000               0.000000317               0.000046910               1.000000000               0.000000083               0.000053002               1.000000000              -0.000000086               0.000060021               1.000000000              -0.000000151               0.000067826               1.000000000              -0.000000177               0.000076367               1.000000000              -0.000000200               0.000085503               1.000000000              -0.000000211               0.000095172               1.000000000              -0.000000242               0.000105279               1.000000000              -0.000000300               0.000115870               1.000000000              -0.000000381               0.000126939               1.000000000              -0.000000482               0.000138649               1.000000000              -0.000000597               0.000150921               1.000000000              -0.000000000               0.000033804               1.000000000              -0.000000000               0.000034223               1.000000000               0.000000000               0.000035718               1.000000000               0.000000000               0.000038383               1.000000000               0.000000000               0.000042230               1.000000000               0.000000000               0.000047168               1.000000000               0.000000000               0.000053186               1.000000000               0.000000000               0.000060164               1.000000000              -0.000000000               0.000067972               1.000000000              -0.000000000               0.000076512               1.000000000              -0.000000000               0.000085627               1.000000000               0.000000000               0.000095290               1.000000000              -0.000000000               0.000105381               1.000000000              -0.000000000               0.000115907               1.000000000              -0.000000000               0.000126908               1.000000000               0.000000000               0.000138536               1.000000000               0.000000000               0.000150726               1.000000000               0.000000964               0.000000000               1.000000000               0.000000122               0.000000000               1.000000000              -0.000000041              -0.000000000               1.000000000               0.000000024               0.000000000               1.000000000               0.000000098               0.000000000               1.000000000               0.000000033               0.000000000               1.000000000              -0.000000073               0.000000000               1.000000000              -0.000000146              -0.000000000               1.000000000              -0.000000206              -0.000000000               1.000000000              -0.000000209              -0.000000000               1.000000000              -0.000000111              -0.000000000               1.000000000               0.000000051              -0.000000000               1.000000000               0.000000203               0.000000000               1.000000000               0.000000270               0.000000000               1.000000000               0.000000156               0.000000000               1.000000000              -0.000000235               0.000000000               1.000000000              -0.000000964               0.000000000               1.000000000               0.000000987              -0.000002463               1.000000000               0.000000134              -0.000002244               1.000000000              -0.000000050              -0.000002273               1.000000000               0.000000000              -0.000002531               1.000000000               0.000000055              -0.000003011               1.000000000               0.000000050              -0.000003485               1.000000000              -0.000000025              -0.000003770               1.000000000              -0.000000131              -0.000004064               1.000000000              -0.000000179              -0.000004274               1.000000000              -0.000000156              -0.000004366               1.000000000              -0.000000096              -0.000004449               1.000000000              -0.000000004              -0.000004564               1.000000000               0.000000050              -0.000004812               1.000000000              -0.000000030              -0.000005263               1.000000000              -0.000000319              -0.000005948               1.000000000              -0.000000904              -0.000006869               1.000000000              -0.000001869              -0.000007980               1.000000000               0.000000858              -0.000004901               1.000000000               0.000000090              -0.000004477               1.000000000              -0.000000001              -0.000004502               1.000000000               0.000000060              -0.000005104               1.000000000               0.000000018              -0.000005999               1.000000000              -0.000000069              -0.000006941               1.000000000              -0.000000104              -0.000007515               1.000000000              -0.000000062              -0.000008140               1.000000000               0.000000029              -0.000008660               1.000000000               0.000000074              -0.000009044               1.000000000               0.000000012              -0.000009469               1.000000000              -0.000000187              -0.000009998               1.000000000              -0.000000590              -0.000010790               1.000000000              -0.000001260              -0.000011952               1.000000000              -0.000002235              -0.000013558               1.000000000              -0.000003554              -0.000015658               1.000000000              -0.000005272              -0.000018286               1.000000000               0.000000715              -0.000007384               1.000000000               0.000000168              -0.000006680               1.000000000               0.000000118              -0.000006786               1.000000000               0.000000096              -0.000007714               1.000000000               0.000000008              -0.000009098               1.000000000              -0.000000089              -0.000010475               1.000000000              -0.000000079              -0.000011420               1.000000000              -0.000000071              -0.000012477               1.000000000              -0.000000105              -0.000013451               1.000000000              -0.000000241              -0.000014458               1.000000000              -0.000000634              -0.000015633               1.000000000              -0.000001341              -0.000017104               1.000000000              -0.000002403              -0.000018987               1.000000000              -0.000003902              -0.000021375               1.000000000              -0.000005837              -0.000024359               1.000000000              -0.000008191              -0.000028012               1.000000000              -0.000010965              -0.000032410               1.000000000               0.000000647              -0.000009947               1.000000000               0.000000325              -0.000008861               1.000000000               0.000000332              -0.000009159               1.000000000               0.000000273              -0.000010462               1.000000000               0.000000045              -0.000012437               1.000000000              -0.000000215              -0.000014280               1.000000000              -0.000000320              -0.000015858               1.000000000              -0.000000443              -0.000017511               1.000000000              -0.000000678              -0.000019307               1.000000000              -0.000001198              -0.000021291               1.000000000              -0.000002138              -0.000023684               1.000000000              -0.000003503              -0.000026579               1.000000000              -0.000005341              -0.000030066               1.000000000              -0.000007708              -0.000034218               1.000000000              -0.000010583              -0.000039069               1.000000000              -0.000013932              -0.000044659               1.000000000              -0.000017725              -0.000051018               1.000000000               0.000000554              -0.000012528               1.000000000               0.000000583              -0.000011073               1.000000000               0.000000667              -0.000011655               1.000000000               0.000000395              -0.000013507               1.000000000              -0.000000034              -0.000016124               1.000000000              -0.000000325              -0.000018793               1.000000000              -0.000000500              -0.000021243               1.000000000              -0.000000831              -0.000023885               1.000000000              -0.000001452              -0.000026884               1.000000000              -0.000002528              -0.000030237               1.000000000              -0.000004141              -0.000034204               1.000000000              -0.000006280              -0.000038854               1.000000000              -0.000008956              -0.000044256               1.000000000              -0.000012194              -0.000050435               1.000000000              -0.000015961              -0.000057381               1.000000000              -0.000020200              -0.000065102               1.000000000              -0.000024900              -0.000073563               1.000000000               0.000000552              -0.000015132               1.000000000               0.000000978              -0.000013440               1.000000000               0.000000939              -0.000014350               1.000000000               0.000000512              -0.000016964               1.000000000              -0.000000006              -0.000020508               1.000000000              -0.000000467              -0.000024192               1.000000000              -0.000000842              -0.000027674               1.000000000              -0.000001489              -0.000031650               1.000000000              -0.000002566              -0.000036115               1.000000000              -0.000004241              -0.000041178               1.000000000              -0.000006543              -0.000046985               1.000000000              -0.000009396              -0.000053664               1.000000000              -0.000012855              -0.000061184               1.000000000              -0.000016923              -0.000069551               1.000000000              -0.000021509              -0.000078774               1.000000000              -0.000026596              -0.000088795               1.000000000              -0.000032164              -0.000099591               1.000000000               0.000000574              -0.000017731               1.000000000               0.000001347              -0.000015916               1.000000000               0.000001233              -0.000017377               1.000000000               0.000000578              -0.000020831               1.000000000              -0.000000236              -0.000025421               1.000000000              -0.000000868              -0.000030204               1.000000000              -0.000001416              -0.000035002               1.000000000              -0.000002337              -0.000040536               1.000000000              -0.000003890              -0.000046721               1.000000000              -0.000006148              -0.000053688               1.000000000              -0.000009027              -0.000061663               1.000000000              -0.000012533              -0.000070607               1.000000000              -0.000016707              -0.000080564               1.000000000              -0.000021459              -0.000091509               1.000000000              -0.000026779              -0.000103393               1.000000000              -0.000032634              -0.000116163               1.000000000              -0.000038972              -0.000129672               1.000000000               0.000000566              -0.000020324               1.000000000               0.000001719              -0.000018499               1.000000000               0.000001415              -0.000020606               1.000000000               0.000000466              -0.000025068               1.000000000              -0.000000567              -0.000030751               1.000000000              -0.000001246              -0.000036731               1.000000000              -0.000001917              -0.000043111               1.000000000              -0.000003210              -0.000050365               1.000000000              -0.000005276              -0.000058546               1.000000000              -0.000007989              -0.000067726               1.000000000              -0.000011377              -0.000078174               1.000000000              -0.000015476              -0.000089809               1.000000000              -0.000020226              -0.000102600               1.000000000              -0.000025560              -0.000116592               1.000000000              -0.000031486              -0.000131625               1.000000000              -0.000037863              -0.000147571               1.000000000              -0.000044586              -0.000164261               1.000000000               0.000000498              -0.000022986               1.000000000               0.000001951              -0.000021221               1.000000000               0.000001683              -0.000022971               1.000000000               0.000000836              -0.000027091               1.000000000              -0.000000248              -0.000032579               1.000000000              -0.000001042              -0.000038688               1.000000000              -0.000001507              -0.000045219               1.000000000              -0.000002308              -0.000052411               1.000000000              -0.000003769              -0.000060396               1.000000000              -0.000005710              -0.000069220               1.000000000              -0.000008198              -0.000078965               1.000000000              -0.000011227              -0.000089825               1.000000000              -0.000014724              -0.000101678               1.000000000              -0.000018723              -0.000114599               1.000000000              -0.000023163              -0.000128564               1.000000000              -0.000028043              -0.000143606               1.000000000              -0.000033345              -0.000159531               1.000000000               0.000000392              -0.000025513               1.000000000               0.000002006              -0.000023953               1.000000000               0.000001974              -0.000025533               1.000000000               0.000001266              -0.000029224               1.000000000               0.000000209              -0.000034371               1.000000000              -0.000000681              -0.000040441               1.000000000              -0.000001199              -0.000047102               1.000000000              -0.000001697              -0.000054342               1.000000000              -0.000002635              -0.000062265               1.000000000              -0.000003942              -0.000070898               1.000000000              -0.000005655              -0.000080248               1.000000000              -0.000007756              -0.000090480               1.000000000              -0.000010198              -0.000101642               1.000000000              -0.000012981              -0.000113689               1.000000000              -0.000016111              -0.000126618               1.000000000              -0.000019570              -0.000140538               1.000000000              -0.000023444              -0.000155401               1.000000000               0.000000295              -0.000027856               1.000000000               0.000001980              -0.000026670               1.000000000               0.000002132              -0.000028052               1.000000000               0.000001554              -0.000031310               1.000000000               0.000000632              -0.000036115               1.000000000              -0.000000289              -0.000042034               1.000000000              -0.000000884              -0.000048771               1.000000000              -0.000001260              -0.000056079               1.000000000              -0.000001755              -0.000064050               1.000000000              -0.000002566              -0.000072607               1.000000000              -0.000003623              -0.000081777               1.000000000              -0.000004968              -0.000091616               1.000000000              -0.000006563              -0.000102248               1.000000000              -0.000008372              -0.000113683               1.000000000              -0.000010414              -0.000125883               1.000000000              -0.000012670              -0.000138875               1.000000000              -0.000015113              -0.000152783               1.000000000               0.000000214              -0.000029893               1.000000000               0.000001814              -0.000029145               1.000000000               0.000002059              -0.000030397               1.000000000               0.000001696              -0.000033383               1.000000000               0.000000970              -0.000037900               1.000000000               0.000000134              -0.000043627               1.000000000              -0.000000507              -0.000050239               1.000000000              -0.000000858              -0.000057541               1.000000000              -0.000001108              -0.000065484               1.000000000              -0.000001529              -0.000074074               1.000000000              -0.000002125              -0.000083202               1.000000000              -0.000002899              -0.000092892               1.000000000              -0.000003851              -0.000103227               1.000000000              -0.000004918              -0.000114264               1.000000000              -0.000006090              -0.000126044               1.000000000              -0.000007341              -0.000138443               1.000000000              -0.000008654              -0.000151547               1.000000000               0.000000133              -0.000031539               1.000000000               0.000001502              -0.000031223               1.000000000               0.000001815              -0.000032522               1.000000000               0.000001616              -0.000035353               1.000000000               0.000001073              -0.000039554               1.000000000               0.000000416              -0.000045008               1.000000000              -0.000000156              -0.000051425               1.000000000              -0.000000483              -0.000058673               1.000000000              -0.000000653              -0.000066606               1.000000000              -0.000000860              -0.000075196               1.000000000              -0.000001134              -0.000084366               1.000000000              -0.000001499              -0.000094026               1.000000000              -0.000001965              -0.000104214               1.000000000              -0.000002507              -0.000115036               1.000000000              -0.000003080              -0.000126501               1.000000000              -0.000003674              -0.000138597               1.000000000              -0.000004258              -0.000151253               1.000000000               0.000000079              -0.000032783               1.000000000               0.000001091              -0.000032861               1.000000000               0.000001365              -0.000034236               1.000000000               0.000001258              -0.000036950               1.000000000               0.000000939              -0.000040961               1.000000000               0.000000496              -0.000046142               1.000000000               0.000000050              -0.000052355               1.000000000              -0.000000250              -0.000059483               1.000000000              -0.000000364              -0.000067369               1.000000000              -0.000000445              -0.000075936               1.000000000              -0.000000532              -0.000085098               1.000000000              -0.000000638              -0.000094784               1.000000000              -0.000000812              -0.000104927               1.000000000              -0.000001035              -0.000115629               1.000000000              -0.000001271              -0.000126853               1.000000000              -0.000001523              -0.000138738               1.000000000              -0.000001763              -0.000151180               1.000000000               0.000000042              -0.000033546               1.000000000               0.000000575              -0.000033883               1.000000000               0.000000719              -0.000035338               1.000000000               0.000000697              -0.000038006               1.000000000               0.000000553              -0.000041895               1.000000000               0.000000317              -0.000046910               1.000000000               0.000000083              -0.000053002               1.000000000              -0.000000086              -0.000060021               1.000000000              -0.000000151              -0.000067826               1.000000000              -0.000000177              -0.000076367               1.000000000              -0.000000200              -0.000085503               1.000000000              -0.000000211              -0.000095172               1.000000000              -0.000000242              -0.000105279               1.000000000              -0.000000300              -0.000115870               1.000000000              -0.000000381              -0.000126939               1.000000000              -0.000000482              -0.000138649               1.000000000              -0.000000597              -0.000150921               1.000000000              -0.000000000              -0.000033804               1.000000000               0.000000000              -0.000034223               1.000000000              -0.000000000              -0.000035718               1.000000000              -0.000000000              -0.000038383               1.000000000              -0.000000000              -0.000042230               1.000000000              -0.000000000              -0.000047168               1.000000000              -0.000000000              -0.000053186               1.000000000              -0.000000000              -0.000060164               1.000000000              -0.000000000              -0.000067972               1.000000000              -0.000000000              -0.000076512               1.000000000              -0.000000000              -0.000085627               1.000000000              -0.000000000              -0.000095290               1.000000000              -0.000000000              -0.000105381               1.000000000              -0.000000000              -0.000115907               1.000000000              -0.000000000              -0.000126908               1.000000000               0.000000000              -0.000138536               1.000000000               0.000000000              -0.000150726               1.000000000              -0.000000964               0.000000000               1.000000000              -0.000000122               0.000000000               1.000000000               0.000000041               0.000000000               1.000000000              -0.000000024               0.000000000               1.000000000              -0.000000098               0.000000000               1.000000000              -0.000000033               0.000000000               1.000000000               0.000000073               0.000000000               1.000000000               0.000000146               0.000000000               1.000000000               0.000000206               0.000000000               1.000000000               0.000000209               0.000000000               1.000000000               0.000000111               0.000000000               1.000000000              -0.000000051               0.000000000               1.000000000              -0.000000203               0.000000000               1.000000000              -0.000000270               0.000000000               1.000000000              -0.000000156               0.000000000               1.000000000               0.000000235               0.000000000               1.000000000               0.000000964               0.000000000               1.000000000              -0.000000987              -0.000002463               1.000000000              -0.000000134              -0.000002244               1.000000000               0.000000050              -0.000002273               1.000000000              -0.000000000              -0.000002531               1.000000000              -0.000000055              -0.000003011               1.000000000              -0.000000050              -0.000003485               1.000000000               0.000000025              -0.000003770               1.000000000               0.000000131              -0.000004064               1.000000000               0.000000179              -0.000004274               1.000000000               0.000000156              -0.000004366               1.000000000               0.000000096              -0.000004449               1.000000000               0.000000004              -0.000004564               1.000000000              -0.000000050              -0.000004812               1.000000000               0.000000030              -0.000005263               1.000000000               0.000000319              -0.000005948               1.000000000               0.000000904              -0.000006869               1.000000000               0.000001869              -0.000007980               1.000000000              -0.000000858              -0.000004901               1.000000000              -0.000000090              -0.000004477               1.000000000               0.000000001              -0.000004502               1.000000000              -0.000000060              -0.000005104               1.000000000              -0.000000018              -0.000005999               1.000000000               0.000000069              -0.000006941               1.000000000               0.000000104              -0.000007515               1.000000000               0.000000062              -0.000008140               1.000000000              -0.000000029              -0.000008660               1.000000000              -0.000000074              -0.000009044               1.000000000              -0.000000012              -0.000009469               1.000000000               0.000000187              -0.000009998               1.000000000               0.000000590              -0.000010790               1.000000000               0.000001260              -0.000011952               1.000000000               0.000002235              -0.000013558               1.000000000               0.000003554              -0.000015658               1.000000000               0.000005272              -0.000018286               1.000000000              -0.000000715              -0.000007384               1.000000000              -0.000000168              -0.000006680               1.000000000              -0.000000118              -0.000006786               1.000000000              -0.000000096              -0.000007714               1.000000000              -0.000000008              -0.000009098               1.000000000               0.000000089              -0.000010475               1.000000000               0.000000079              -0.000011420               1.000000000               0.000000071              -0.000012477               1.000000000               0.000000105              -0.000013451               1.000000000               0.000000241              -0.000014458               1.000000000               0.000000634              -0.000015633               1.000000000               0.000001341              -0.000017104               1.000000000               0.000002403              -0.000018987               1.000000000               0.000003902              -0.000021375               1.000000000               0.000005837              -0.000024359               1.000000000               0.000008191              -0.000028012               1.000000000               0.000010965              -0.000032410               1.000000000              -0.000000647              -0.000009947               1.000000000              -0.000000325              -0.000008861               1.000000000              -0.000000332              -0.000009159               1.000000000              -0.000000273              -0.000010462               1.000000000              -0.000000045              -0.000012437               1.000000000               0.000000215              -0.000014280               1.000000000               0.000000320              -0.000015858               1.000000000               0.000000443              -0.000017511               1.000000000               0.000000678              -0.000019307               1.000000000               0.000001198              -0.000021291               1.000000000               0.000002138              -0.000023684               1.000000000               0.000003503              -0.000026579               1.000000000               0.000005341              -0.000030066               1.000000000               0.000007708              -0.000034218               1.000000000               0.000010583              -0.000039069               1.000000000               0.000013932              -0.000044659               1.000000000               0.000017725              -0.000051018               1.000000000              -0.000000554              -0.000012528               1.000000000              -0.000000583              -0.000011073               1.000000000              -0.000000667              -0.000011655               1.000000000              -0.000000395              -0.000013507               1.000000000               0.000000034              -0.000016124               1.000000000               0.000000325              -0.000018793               1.000000000               0.000000500              -0.000021243               1.000000000               0.000000831              -0.000023885               1.000000000               0.000001452              -0.000026884               1.000000000               0.000002528              -0.000030237               1.000000000               0.000004141              -0.000034204               1.000000000               0.000006280              -0.000038854               1.000000000               0.000008956              -0.000044256               1.000000000               0.000012194              -0.000050435               1.000000000               0.000015961              -0.000057381               1.000000000               0.000020200              -0.000065102               1.000000000               0.000024900              -0.000073563               1.000000000              -0.000000552              -0.000015132               1.000000000              -0.000000978              -0.000013440               1.000000000              -0.000000939              -0.000014350               1.000000000              -0.000000512              -0.000016964               1.000000000               0.000000006              -0.000020508               1.000000000               0.000000467              -0.000024192               1.000000000               0.000000842              -0.000027674               1.000000000               0.000001489              -0.000031650               1.000000000               0.000002566              -0.000036115               1.000000000               0.000004241              -0.000041178               1.000000000               0.000006543              -0.000046985               1.000000000               0.000009396              -0.000053664               1.000000000               0.000012855              -0.000061184               1.000000000               0.000016923              -0.000069551               1.000000000               0.000021509              -0.000078774               1.000000000               0.000026596              -0.000088795               1.000000000               0.000032164              -0.000099591               1.000000000              -0.000000574              -0.000017731               1.000000000              -0.000001347              -0.000015916               1.000000000              -0.000001233              -0.000017377               1.000000000              -0.000000578              -0.000020831               1.000000000               0.000000236              -0.000025421               1.000000000               0.000000868              -0.000030204               1.000000000               0.000001416              -0.000035002               1.000000000               0.000002337              -0.000040536               1.000000000               0.000003890              -0.000046721               1.000000000               0.000006148              -0.000053688               1.000000000               0.000009027              -0.000061663               1.000000000               0.000012533              -0.000070607               1.000000000               0.000016707              -0.000080564               1.000000000               0.000021459              -0.000091509               1.000000000               0.000026779              -0.000103393               1.000000000               0.000032634              -0.000116163               1.000000000               0.000038972              -0.000129672               1.000000000              -0.000000566              -0.000020324               1.000000000              -0.000001719              -0.000018499               1.000000000              -0.000001415              -0.000020606               1.000000000              -0.000000466              -0.000025068               1.000000000               0.000000567              -0.000030751               1.000000000               0.000001246              -0.000036731               1.000000000               0.000001917              -0.000043111               1.000000000               0.000003210              -0.000050365               1.000000000               0.000005276              -0.000058546               1.000000000               0.000007989              -0.000067726               1.000000000               0.000011377              -0.000078174               1.000000000               0.000015476              -0.000089809               1.000000000               0.000020226              -0.000102600               1.000000000               0.000025560              -0.000116592               1.000000000               0.000031486              -0.000131625               1.000000000               0.000037863              -0.000147571               1.000000000               0.000044586              -0.000164261               1.000000000              -0.000000498              -0.000022986               1.000000000              -0.000001951              -0.000021221               1.000000000              -0.000001683              -0.000022971               1.000000000              -0.000000836              -0.000027091               1.000000000               0.000000248              -0.000032579               1.000000000               0.000001042              -0.000038688               1.000000000               0.000001507              -0.000045219               1.000000000               0.000002308              -0.000052411               1.000000000               0.000003769              -0.000060396               1.000000000               0.000005710              -0.000069220               1.000000000               0.000008198              -0.000078965               1.000000000               0.000011227              -0.000089825               1.000000000               0.000014724              -0.000101678               1.000000000               0.000018723              -0.000114599               1.000000000               0.000023163              -0.000128564               1.000000000               0.000028043              -0.000143606               1.000000000               0.000033345              -0.000159531               1.000000000              -0.000000392              -0.000025513               1.000000000              -0.000002006              -0.000023953               1.000000000              -0.000001974              -0.000025533               1.000000000              -0.000001266              -0.000029224               1.000000000              -0.000000209              -0.000034371               1.000000000               0.000000681              -0.000040441               1.000000000               0.000001199              -0.000047102               1.000000000               0.000001697              -0.000054342               1.000000000               0.000002635              -0.000062265               1.000000000               0.000003942              -0.000070898               1.000000000               0.000005655              -0.000080248               1.000000000               0.000007756              -0.000090480               1.000000000               0.000010198              -0.000101642               1.000000000               0.000012981              -0.000113689               1.000000000               0.000016111              -0.000126618               1.000000000               0.000019570              -0.000140538               1.000000000               0.000023444              -0.000155401               1.000000000              -0.000000295              -0.000027856               1.000000000              -0.000001980              -0.000026670               1.000000000              -0.000002132              -0.000028052               1.000000000              -0.000001554              -0.000031310               1.000000000              -0.000000632              -0.000036115               1.000000000               0.000000289              -0.000042034               1.000000000               0.000000884              -0.000048771               1.000000000               0.000001260              -0.000056079               1.000000000               0.000001755              -0.000064050               1.000000000               0.000002566              -0.000072607               1.000000000               0.000003623              -0.000081777               1.000000000               0.000004968              -0.000091616               1.000000000               0.000006563              -0.000102248               1.000000000               0.000008372              -0.000113683               1.000000000               0.000010414              -0.000125883               1.000000000               0.000012670              -0.000138875               1.000000000               0.000015113              -0.000152783               1.000000000              -0.000000214              -0.000029893               1.000000000              -0.000001814              -0.000029145               1.000000000              -0.000002059              -0.000030397               1.000000000              -0.000001696              -0.000033383               1.000000000              -0.000000970              -0.000037900               1.000000000              -0.000000134              -0.000043627               1.000000000               0.000000507              -0.000050239               1.000000000               0.000000858              -0.000057541               1.000000000               0.000001108              -0.000065484               1.000000000               0.000001529              -0.000074074               1.000000000               0.000002125              -0.000083202               1.000000000               0.000002899              -0.000092892               1.000000000               0.000003851              -0.000103227               1.000000000               0.000004918              -0.000114264               1.000000000               0.000006090              -0.000126044               1.000000000               0.000007341              -0.000138443               1.000000000               0.000008654              -0.000151547               1.000000000              -0.000000133              -0.000031539               1.000000000              -0.000001502              -0.000031223               1.000000000              -0.000001815              -0.000032522               1.000000000              -0.000001616              -0.000035353               1.000000000              -0.000001073              -0.000039554               1.000000000              -0.000000416              -0.000045008               1.000000000               0.000000156              -0.000051425               1.000000000               0.000000483              -0.000058673               1.000000000               0.000000653              -0.000066606               1.000000000               0.000000860              -0.000075196               1.000000000               0.000001134              -0.000084366               1.000000000               0.000001499              -0.000094026               1.000000000               0.000001965              -0.000104214               1.000000000               0.000002507              -0.000115036               1.000000000               0.000003080              -0.000126501               1.000000000               0.000003674              -0.000138597               1.000000000               0.000004258              -0.000151253               1.000000000              -0.000000079              -0.000032783               1.000000000              -0.000001091              -0.000032861               1.000000000              -0.000001365              -0.000034236               1.000000000              -0.000001258              -0.000036950               1.000000000              -0.000000939              -0.000040961               1.000000000              -0.000000496              -0.000046142               1.000000000              -0.000000050              -0.000052355               1.000000000               0.000000250              -0.000059483               1.000000000               0.000000364              -0.000067369               1.000000000               0.000000445              -0.000075936               1.000000000               0.000000532              -0.000085098               1.000000000               0.000000638              -0.000094784               1.000000000               0.000000812              -0.000104927               1.000000000               0.000001035              -0.000115629               1.000000000               0.000001271              -0.000126853               1.000000000               0.000001523              -0.000138738               1.000000000               0.000001763              -0.000151180               1.000000000              -0.000000042              -0.000033546               1.000000000              -0.000000575              -0.000033883               1.000000000              -0.000000719              -0.000035338               1.000000000              -0.000000697              -0.000038006               1.000000000              -0.000000553              -0.000041895               1.000000000              -0.000000317              -0.000046910               1.000000000              -0.000000083              -0.000053002               1.000000000               0.000000086              -0.000060021               1.000000000               0.000000151              -0.000067826               1.000000000               0.000000177              -0.000076367               1.000000000               0.000000200              -0.000085503               1.000000000               0.000000211              -0.000095172               1.000000000               0.000000242              -0.000105279               1.000000000               0.000000300              -0.000115870               1.000000000               0.000000381              -0.000126939               1.000000000               0.000000482              -0.000138649               1.000000000               0.000000597              -0.000150921               1.000000000              -0.000000000              -0.000033804               1.000000000               0.000000000              -0.000034223               1.000000000              -0.000000000              -0.000035718               1.000000000              -0.000000000              -0.000038383               1.000000000              -0.000000000              -0.000042230               1.000000000              -0.000000000              -0.000047168               1.000000000              -0.000000000              -0.000053186               1.000000000              -0.000000000              -0.000060164               1.000000000              -0.000000000              -0.000067972               1.000000000              -0.000000000              -0.000076512               1.000000000              -0.000000000              -0.000085627               1.000000000              -0.000000000              -0.000095290               1.000000000              -0.000000000              -0.000105381               1.000000000              -0.000000000              -0.000115907               1.000000000              -0.000000000              -0.000126908               1.000000000               0.000000000              -0.000138536               1.000000000               0.000000000              -0.000150726               1.000000000              -0.000000964               0.000000000               1.000000000              -0.000000122               0.000000000               1.000000000               0.000000041               0.000000000               1.000000000              -0.000000024               0.000000000               1.000000000              -0.000000098               0.000000000               1.000000000              -0.000000033               0.000000000               1.000000000               0.000000073               0.000000000               1.000000000               0.000000146               0.000000000               1.000000000               0.000000206               0.000000000               1.000000000               0.000000209               0.000000000               1.000000000               0.000000111               0.000000000               1.000000000              -0.000000051               0.000000000               1.000000000              -0.000000203               0.000000000               1.000000000              -0.000000270               0.000000000               1.000000000              -0.000000156               0.000000000               1.000000000               0.000000235               0.000000000               1.000000000               0.000000964               0.000000000               1.000000000              -0.000000987               0.000002463               1.000000000              -0.000000134               0.000002244               1.000000000               0.000000050               0.000002273               1.000000000              -0.000000000               0.000002531               1.000000000              -0.000000055               0.000003011               1.000000000              -0.000000050               0.000003485               1.000000000               0.000000025               0.000003770               1.000000000               0.000000131               0.000004064               1.000000000               0.000000179               0.000004274               1.000000000               0.000000156               0.000004366               1.000000000               0.000000096               0.000004449               1.000000000               0.000000004               0.000004564               1.000000000              -0.000000050               0.000004812               1.000000000               0.000000030               0.000005263               1.000000000               0.000000319               0.000005948               1.000000000               0.000000904               0.000006869               1.000000000               0.000001869               0.000007980               1.000000000              -0.000000858               0.000004901               1.000000000              -0.000000090               0.000004477               1.000000000               0.000000001               0.000004502               1.000000000              -0.000000060               0.000005104               1.000000000              -0.000000018               0.000005999               1.000000000               0.000000069               0.000006941               1.000000000               0.000000104               0.000007515               1.000000000               0.000000062               0.000008140               1.000000000              -0.000000029               0.000008660               1.000000000              -0.000000074               0.000009044               1.000000000              -0.000000012               0.000009469               1.000000000               0.000000187               0.000009998               1.000000000               0.000000590               0.000010790               1.000000000               0.000001260               0.000011952               1.000000000               0.000002235               0.000013558               1.000000000               0.000003554               0.000015658               1.000000000               0.000005272               0.000018286               1.000000000              -0.000000715               0.000007384               1.000000000              -0.000000168               0.000006680               1.000000000              -0.000000118               0.000006786               1.000000000              -0.000000096               0.000007714               1.000000000              -0.000000008               0.000009098               1.000000000               0.000000089               0.000010475               1.000000000               0.000000079               0.000011420               1.000000000               0.000000071               0.000012477               1.000000000               0.000000105               0.000013451               1.000000000               0.000000241               0.000014458               1.000000000               0.000000634               0.000015633               1.000000000               0.000001341               0.000017104               1.000000000               0.000002403               0.000018987               1.000000000               0.000003902               0.000021375               1.000000000               0.000005837               0.000024359               1.000000000               0.000008191               0.000028012               1.000000000               0.000010965               0.000032410               1.000000000              -0.000000647               0.000009947               1.000000000              -0.000000325               0.000008861               1.000000000              -0.000000332               0.000009159               1.000000000              -0.000000273               0.000010462               1.000000000              -0.000000045               0.000012437               1.000000000               0.000000215               0.000014280               1.000000000               0.000000320               0.000015858               1.000000000               0.000000443               0.000017511               1.000000000               0.000000678               0.000019307               1.000000000               0.000001198               0.000021291               1.000000000               0.000002138               0.000023684               1.000000000               0.000003503               0.000026579               1.000000000               0.000005341               0.000030066               1.000000000               0.000007708               0.000034218               1.000000000               0.000010583               0.000039069               1.000000000               0.000013932               0.000044659               1.000000000               0.000017725               0.000051018               1.000000000              -0.000000554               0.000012528               1.000000000              -0.000000583               0.000011073               1.000000000              -0.000000667               0.000011655               1.000000000              -0.000000395               0.000013507               1.000000000               0.000000034               0.000016124               1.000000000               0.000000325               0.000018793               1.000000000               0.000000500               0.000021243               1.000000000               0.000000831               0.000023885               1.000000000               0.000001452               0.000026884               1.000000000               0.000002528               0.000030237               1.000000000               0.000004141               0.000034204               1.000000000               0.000006280               0.000038854               1.000000000               0.000008956               0.000044256               1.000000000               0.000012194               0.000050435               1.000000000               0.000015961               0.000057381               1.000000000               0.000020200               0.000065102               1.000000000               0.000024900               0.000073563               1.000000000              -0.000000552               0.000015132               1.000000000              -0.000000978               0.000013440               1.000000000              -0.000000939               0.000014350               1.000000000              -0.000000512               0.000016964               1.000000000               0.000000006               0.000020508               1.000000000               0.000000467               0.000024192               1.000000000               0.000000842               0.000027674               1.000000000               0.000001489               0.000031650               1.000000000               0.000002566               0.000036115               1.000000000               0.000004241               0.000041178               1.000000000               0.000006543               0.000046985               1.000000000               0.000009396               0.000053664               1.000000000               0.000012855               0.000061184               1.000000000               0.000016923               0.000069551               1.000000000               0.000021509               0.000078774               1.000000000               0.000026596               0.000088795               1.000000000               0.000032164               0.000099591               1.000000000              -0.000000574               0.000017731               1.000000000              -0.000001347               0.000015916               1.000000000              -0.000001233               0.000017377               1.000000000              -0.000000578               0.000020831               1.000000000               0.000000236               0.000025421               1.000000000               0.000000868               0.000030204               1.000000000               0.000001416               0.000035002               1.000000000               0.000002337               0.000040536               1.000000000               0.000003890               0.000046721               1.000000000               0.000006148               0.000053688               1.000000000               0.000009027               0.000061663               1.000000000               0.000012533               0.000070607               1.000000000               0.000016707               0.000080564               1.000000000               0.000021459               0.000091509               1.000000000               0.000026779               0.000103393               1.000000000               0.000032634               0.000116163               1.000000000               0.000038972               0.000129672               1.000000000              -0.000000566               0.000020324               1.000000000              -0.000001719               0.000018499               1.000000000              -0.000001415               0.000020606               1.000000000              -0.000000466               0.000025068               1.000000000               0.000000567               0.000030751               1.000000000               0.000001246               0.000036731               1.000000000               0.000001917               0.000043111               1.000000000               0.000003210               0.000050365               1.000000000               0.000005276               0.000058546               1.000000000               0.000007989               0.000067726               1.000000000               0.000011377               0.000078174               1.000000000               0.000015476               0.000089809               1.000000000               0.000020226               0.000102600               1.000000000               0.000025560               0.000116592               1.000000000               0.000031486               0.000131625               1.000000000               0.000037863               0.000147571               1.000000000               0.000044586               0.000164261               1.000000000              -0.000000498               0.000022986               1.000000000              -0.000001951               0.000021221               1.000000000              -0.000001683               0.000022971               1.000000000              -0.000000836               0.000027091               1.000000000               0.000000248               0.000032579               1.000000000               0.000001042               0.000038688               1.000000000               0.000001507               0.000045219               1.000000000               0.000002308               0.000052411               1.000000000               0.000003769               0.000060396               1.000000000               0.000005710               0.000069220               1.000000000               0.000008198               0.000078965               1.000000000               0.000011227               0.000089825               1.000000000               0.000014724               0.000101678               1.000000000               0.000018723               0.000114599               1.000000000               0.000023163               0.000128564               1.000000000               0.000028043               0.000143606               1.000000000               0.000033345               0.000159531               1.000000000              -0.000000392               0.000025513               1.000000000              -0.000002006               0.000023953               1.000000000              -0.000001974               0.000025533               1.000000000              -0.000001266               0.000029224               1.000000000              -0.000000209               0.000034371               1.000000000               0.000000681               0.000040441               1.000000000               0.000001199               0.000047102               1.000000000               0.000001697               0.000054342               1.000000000               0.000002635               0.000062265               1.000000000               0.000003942               0.000070898               1.000000000               0.000005655               0.000080248               1.000000000               0.000007756               0.000090480               1.000000000               0.000010198               0.000101642               1.000000000               0.000012981               0.000113689               1.000000000               0.000016111               0.000126618               1.000000000               0.000019570               0.000140538               1.000000000               0.000023444               0.000155401               1.000000000              -0.000000295               0.000027856               1.000000000              -0.000001980               0.000026670               1.000000000              -0.000002132               0.000028052               1.000000000              -0.000001554               0.000031310               1.000000000              -0.000000632               0.000036115               1.000000000               0.000000289               0.000042034               1.000000000               0.000000884               0.000048771               1.000000000               0.000001260               0.000056079               1.000000000               0.000001755               0.000064050               1.000000000               0.000002566               0.000072607               1.000000000               0.000003623               0.000081777               1.000000000               0.000004968               0.000091616               1.000000000               0.000006563               0.000102248               1.000000000               0.000008372               0.000113683               1.000000000               0.000010414               0.000125883               1.000000000               0.000012670               0.000138875               1.000000000               0.000015113               0.000152783               1.000000000              -0.000000214               0.000029893               1.000000000              -0.000001814               0.000029145               1.000000000              -0.000002059               0.000030397               1.000000000              -0.000001696               0.000033383               1.000000000              -0.000000970               0.000037900               1.000000000              -0.000000134               0.000043627               1.000000000               0.000000507               0.000050239               1.000000000               0.000000858               0.000057541               1.000000000               0.000001108               0.000065484               1.000000000               0.000001529               0.000074074               1.000000000               0.000002125               0.000083202               1.000000000               0.000002899               0.000092892               1.000000000               0.000003851               0.000103227               1.000000000               0.000004918               0.000114264               1.000000000               0.000006090               0.000126044               1.000000000               0.000007341               0.000138443               1.000000000               0.000008654               0.000151547               1.000000000              -0.000000133               0.000031539               1.000000000              -0.000001502               0.000031223               1.000000000              -0.000001815               0.000032522               1.000000000              -0.000001616               0.000035353               1.000000000              -0.000001073               0.000039554               1.000000000              -0.000000416               0.000045008               1.000000000               0.000000156               0.000051425               1.000000000               0.000000483               0.000058673               1.000000000               0.000000653               0.000066606               1.000000000               0.000000860               0.000075196               1.000000000               0.000001134               0.000084366               1.000000000               0.000001499               0.000094026               1.000000000               0.000001965               0.000104214               1.000000000               0.000002507               0.000115036               1.000000000               0.000003080               0.000126501               1.000000000               0.000003674               0.000138597               1.000000000               0.000004258               0.000151253               1.000000000              -0.000000079               0.000032783               1.000000000              -0.000001091               0.000032861               1.000000000              -0.000001365               0.000034236               1.000000000              -0.000001258               0.000036950               1.000000000              -0.000000939               0.000040961               1.000000000              -0.000000496               0.000046142               1.000000000              -0.000000050               0.000052355               1.000000000               0.000000250               0.000059483               1.000000000               0.000000364               0.000067369               1.000000000               0.000000445               0.000075936               1.000000000               0.000000532               0.000085098               1.000000000               0.000000638               0.000094784               1.000000000               0.000000812               0.000104927               1.000000000               0.000001035               0.000115629               1.000000000               0.000001271               0.000126853               1.000000000               0.000001523               0.000138738               1.000000000               0.000001763               0.000151180               1.000000000              -0.000000042               0.000033546               1.000000000              -0.000000575               0.000033883               1.000000000              -0.000000719               0.000035338               1.000000000              -0.000000697               0.000038006               1.000000000              -0.000000553               0.000041895               1.000000000              -0.000000317               0.000046910               1.000000000              -0.000000083               0.000053002               1.000000000               0.000000086               0.000060021               1.000000000               0.000000151               0.000067826               1.000000000               0.000000177               0.000076367               1.000000000               0.000000200               0.000085503               1.000000000               0.000000211               0.000095172               1.000000000               0.000000242               0.000105279               1.000000000               0.000000300               0.000115870               1.000000000               0.000000381               0.000126939               1.000000000               0.000000482               0.000138649               1.000000000               0.000000597               0.000150921               1.000000000              -0.000000000               0.000033804               1.000000000              -0.000000000               0.000034223               1.000000000               0.000000000               0.000035718               1.000000000               0.000000000               0.000038383               1.000000000               0.000000000               0.000042230               1.000000000               0.000000000               0.000047168               1.000000000               0.000000000               0.000053186               1.000000000               0.000000000               0.000060164               1.000000000              -0.000000000               0.000067972               1.000000000              -0.000000000               0.000076512               1.000000000              -0.000000000               0.000085627               1.000000000               0.000000000               0.000095290               1.000000000              -0.000000000               0.000105381               1.000000000              -0.000000000               0.000115907               1.000000000              -0.000000000               0.000126908               1.000000000               0.000000000               0.000138536               1.000000000               0.000000000               0.000150726               1.000000000 </DataArray>
<DataArray type="Float64"                                    Name="stress"                                                      NumberOfComponents="10" format="ascii">
              0.000058900               0.000471382              -0.000000000              -0.000036835               0.000169404               0.000132569               0.000000000               0.000000000               0.000000000               0.000000000               0.000077856               0.000403016              -0.000000000              -0.000021181               0.000141397               0.000120217               0.000000000               0.000000000               0.000000000               0.000000000               0.000113829               0.000358311              -0.000000000              -0.000002103               0.000120137               0.000118034               0.000000000               0.000000000               0.000000000               0.000000000               0.000123605               0.000348126               0.000000000               0.000002836               0.000115096               0.000117932               0.000000000               0.000000000               0.000000000               0.000000000               0.000119829               0.000355985              -0.000000000               0.000000438               0.000118515               0.000118952               0.000000000               0.000000000               0.000000000               0.000000000               0.000111820               0.000360452              -0.000000000              -0.000003124               0.000121191               0.000118067               0.000000000               0.000000000               0.000000000               0.000000000               0.000107557               0.000354213              -0.000000000              -0.000003943               0.000119384               0.000115441               0.000000000               0.000000000               0.000000000               0.000000000               0.000107634               0.000347276              -0.000000000              -0.000003047               0.000116773               0.000113726               0.000000000               0.000000000               0.000000000               0.000000000               0.000109317               0.000336752              -0.000000000              -0.000001100               0.000112616               0.000111516               0.000000000               0.000000000               0.000000000               0.000000000               0.000112699               0.000322361               0.000000000               0.000001967               0.000106797               0.000108764               0.000000000               0.000000000               0.000000000               0.000000000               0.000115998               0.000308877               0.000000000               0.000004890               0.000101328               0.000106218               0.000000000               0.000000000               0.000000000               0.000000000               0.000114489               0.000298123              -0.000000000               0.000005668               0.000097484               0.000103152               0.000000000               0.000000000               0.000000000               0.000000000               0.000105949               0.000293062              -0.000000000               0.000003098               0.000096654               0.000099752               0.000000000               0.000000000               0.000000000               0.000000000               0.000090093               0.000295679               0.000000000              -0.000003175               0.000099617               0.000096442               0.000000000               0.000000000               0.000000000               0.000000000               0.000066065               0.000305538               0.000000000              -0.000013418               0.000106318               0.000092900               0.000000000               0.000000000               0.000000000               0.000000000               0.000034719               0.000321328               0.000000000              -0.000027146               0.000116157               0.000089011               0.000000000               0.000000000               0.000000000               0.000000000               0.000020081               0.000336831               0.000000000              -0.000034573               0.000123800               0.000089227               0.000000000               0.000000000               0.000000000               0.000000000               0.000060626               0.000464485              -0.000037835              -0.000035326               0.000166602               0.000131276               0.000000000               0.000000000               0.000000000               0.000000000               0.000078415               0.000398466              -0.000025221              -0.000020403               0.000139622               0.000119219               0.000000000               0.000000000               0.000000000               0.000000000               0.000112472               0.000355630              -0.000008728              -0.000002277               0.000119301               0.000117024               0.000000000               0.000000000               0.000000000               0.000000000               0.000121614               0.000349263               0.000001194               0.000001948               0.000115770               0.000117718               0.000000000               0.000000000               0.000000000               0.000000000               0.000119828               0.000356338               0.000003267               0.000000393               0.000118647               0.000119040               0.000000000               0.000000000               0.000000000               0.000000000               0.000115032               0.000360804              -0.000001479              -0.000001963               0.000120921               0.000118958               0.000000000               0.000000000               0.000000000               0.000000000               0.000109847               0.000354371              -0.000003716              -0.000003104               0.000119157               0.000116053               0.000000000               0.000000000               0.000000000               0.000000000               0.000109991               0.000349049              -0.000003118              -0.000002385               0.000117143               0.000114759               0.000000000               0.000000000               0.000000000               0.000000000               0.000112635               0.000342339              -0.000004974              -0.000000554               0.000114297               0.000113742               0.000000000               0.000000000               0.000000000               0.000000000               0.000113673               0.000333060              -0.000006546               0.000000995               0.000110687               0.000111682               0.000000000               0.000000000               0.000000000               0.000000000               0.000113980               0.000325694              -0.000007427               0.000002031               0.000107887               0.000109917               0.000000000               0.000000000               0.000000000               0.000000000               0.000111264               0.000321745              -0.000007535               0.000001506               0.000106745               0.000108251               0.000000000               0.000000000               0.000000000               0.000000000               0.000101664               0.000322671              -0.000006032              -0.000002210               0.000108293               0.000106083               0.000000000               0.000000000               0.000000000               0.000000000               0.000085441               0.000330006              -0.000003842              -0.000009210               0.000113071               0.000103860               0.000000000               0.000000000               0.000000000               0.000000000               0.000062752               0.000344129              -0.000001571              -0.000019484               0.000121203               0.000101719               0.000000000               0.000000000               0.000000000               0.000000000               0.000033114               0.000364620               0.000000037              -0.000033160               0.000132592               0.000099432               0.000000000               0.000000000               0.000000000               0.000000000               0.000020161               0.000384469              -0.000000955              -0.000040498               0.000141654               0.000101156               0.000000000               0.000000000               0.000000000               0.000000000               0.000073013               0.000452492              -0.000073202              -0.000029182               0.000160556               0.000131375               0.000000000               0.000000000               0.000000000               0.000000000               0.000084925               0.000389528              -0.000046699              -0.000016844               0.000135456               0.000118612               0.000000000               0.000000000               0.000000000               0.000000000               0.000113222               0.000355426              -0.000014266              -0.000001970               0.000119131               0.000117161               0.000000000               0.000000000               0.000000000               0.000000000               0.000117208               0.000354235               0.000003005              -0.000000326               0.000118186               0.000117860               0.000000000               0.000000000               0.000000000               0.000000000               0.000114827               0.000361730               0.000006373              -0.000002156               0.000121294               0.000119138               0.000000000               0.000000000               0.000000000               0.000000000               0.000117164               0.000366326              -0.000002301              -0.000001854               0.000122726               0.000120871               0.000000000               0.000000000               0.000000000               0.000000000               0.000120794               0.000364738              -0.000006874              -0.000000294               0.000121676               0.000121382               0.000000000               0.000000000               0.000000000               0.000000000               0.000125079               0.000365781              -0.000006492               0.000001182               0.000121532               0.000122714               0.000000000               0.000000000               0.000000000               0.000000000               0.000125654               0.000366877              -0.000011098               0.000001261               0.000121871               0.000123132               0.000000000               0.000000000               0.000000000               0.000000000               0.000120356               0.000370423              -0.000015109              -0.000001169               0.000123863               0.000122693               0.000000000               0.000000000               0.000000000               0.000000000               0.000112816               0.000378490              -0.000017717              -0.000005005               0.000127830               0.000122825               0.000000000               0.000000000               0.000000000               0.000000000               0.000103562               0.000391837              -0.000019150              -0.000010144               0.000133992               0.000123848               0.000000000               0.000000000               0.000000000               0.000000000               0.000089320               0.000409018              -0.000018101              -0.000017632               0.000142216               0.000124583               0.000000000               0.000000000               0.000000000               0.000000000               0.000071173               0.000429941              -0.000015430              -0.000027053               0.000152330               0.000125277               0.000000000               0.000000000               0.000000000               0.000000000               0.000050740               0.000455548              -0.000011429              -0.000037916               0.000164487               0.000126571               0.000000000               0.000000000               0.000000000               0.000000000               0.000026650               0.000486208              -0.000006119              -0.000050782               0.000178995               0.000128213               0.000000000               0.000000000               0.000000000               0.000000000               0.000018368               0.000512660              -0.000005869              -0.000057194               0.000189950               0.000132756               0.000000000               0.000000000               0.000000000               0.000000000               0.000091600               0.000437955              -0.000099705              -0.000020394               0.000152782               0.000132387               0.000000000               0.000000000               0.000000000               0.000000000               0.000090819               0.000377989              -0.000061246              -0.000013192               0.000130392               0.000117201               0.000000000               0.000000000               0.000000000               0.000000000               0.000108750               0.000360424              -0.000017859              -0.000004272               0.000121564               0.000117292               0.000000000               0.000000000               0.000000000               0.000000000               0.000111077               0.000367960               0.000004876              -0.000004341               0.000124099               0.000119758               0.000000000               0.000000000               0.000000000               0.000000000               0.000114534               0.000382779               0.000007882              -0.000004897               0.000129224               0.000124327               0.000000000               0.000000000               0.000000000               0.000000000               0.000125273               0.000390510              -0.000004425              -0.000001836               0.000130781               0.000128944               0.000000000               0.000000000               0.000000000               0.000000000               0.000136313               0.000400098              -0.000012608               0.000001105               0.000132996               0.000134101               0.000000000               0.000000000               0.000000000               0.000000000               0.000140616               0.000410781              -0.000015404               0.000001383               0.000136465               0.000137848               0.000000000               0.000000000               0.000000000               0.000000000               0.000140880               0.000426223              -0.000022359              -0.000000448               0.000142222               0.000141774               0.000000000               0.000000000               0.000000000               0.000000000               0.000133110               0.000447552              -0.000027901              -0.000006028               0.000151192               0.000145164               0.000000000               0.000000000               0.000000000               0.000000000               0.000120003               0.000475178              -0.000031461              -0.000014396               0.000163190               0.000148794               0.000000000               0.000000000               0.000000000               0.000000000               0.000105670               0.000509113              -0.000032902              -0.000024013               0.000177707               0.000153694               0.000000000               0.000000000               0.000000000               0.000000000               0.000086500               0.000545468              -0.000031711              -0.000035746               0.000193736               0.000157990               0.000000000               0.000000000               0.000000000               0.000000000               0.000064239               0.000582918              -0.000028048              -0.000048775               0.000210562               0.000161787               0.000000000               0.000000000               0.000000000               0.000000000               0.000043012               0.000621581              -0.000021656              -0.000061568               0.000227714               0.000166146               0.000000000               0.000000000               0.000000000               0.000000000               0.000021717               0.000660535              -0.000012172              -0.000074423               0.000244984               0.000170561               0.000000000               0.000000000               0.000000000               0.000000000               0.000016085               0.000689143              -0.000009749              -0.000080111               0.000256415               0.000176305               0.000000000               0.000000000               0.000000000               0.000000000               0.000107645               0.000412903              -0.000123388              -0.000011246               0.000141382               0.000130136               0.000000000               0.000000000               0.000000000               0.000000000               0.000095077               0.000366206              -0.000072860              -0.000010122               0.000125442               0.000115319               0.000000000               0.000000000               0.000000000               0.000000000               0.000103388               0.000372987              -0.000019887              -0.000007853               0.000126945               0.000119093               0.000000000               0.000000000               0.000000000               0.000000000               0.000107030               0.000397437               0.000003755              -0.000009543               0.000135659               0.000126115               0.000000000               0.000000000               0.000000000               0.000000000               0.000116509               0.000422168               0.000004317              -0.000009080               0.000143748               0.000134668               0.000000000               0.000000000               0.000000000               0.000000000               0.000136318               0.000444794              -0.000009940              -0.000004480               0.000149756               0.000145276               0.000000000               0.000000000               0.000000000               0.000000000               0.000154304               0.000471927              -0.000020403              -0.000001127               0.000157683               0.000156556               0.000000000               0.000000000               0.000000000               0.000000000               0.000160564               0.000499826              -0.000025149              -0.000002267               0.000167362               0.000165096               0.000000000               0.000000000               0.000000000               0.000000000               0.000158977               0.000533653              -0.000032502              -0.000007090               0.000180246               0.000173156               0.000000000               0.000000000               0.000000000               0.000000000               0.000146881               0.000571117              -0.000038592              -0.000016309               0.000195807               0.000179498               0.000000000               0.000000000               0.000000000               0.000000000               0.000131293               0.000614544              -0.000041265              -0.000027583               0.000214040               0.000186457               0.000000000               0.000000000               0.000000000               0.000000000               0.000114913               0.000662168              -0.000041441              -0.000039678               0.000233947               0.000194268               0.000000000               0.000000000               0.000000000               0.000000000               0.000093185               0.000710038              -0.000038723              -0.000053810               0.000254614               0.000200804               0.000000000               0.000000000               0.000000000               0.000000000               0.000068496               0.000756690              -0.000033282              -0.000068900               0.000275194               0.000206294               0.000000000               0.000000000               0.000000000               0.000000000               0.000045075               0.000801332              -0.000024967              -0.000083263               0.000294862               0.000211599               0.000000000               0.000000000               0.000000000               0.000000000               0.000022302               0.000842294              -0.000013576              -0.000096923               0.000313069               0.000216146               0.000000000               0.000000000               0.000000000               0.000000000               0.000016064               0.000869750              -0.000010178              -0.000102694               0.000324145               0.000221451               0.000000000               0.000000000               0.000000000               0.000000000               0.000122577               0.000384789              -0.000138635              -0.000002132               0.000128973               0.000126840               0.000000000               0.000000000               0.000000000               0.000000000               0.000100021               0.000363203              -0.000081511              -0.000007893               0.000123697               0.000115805               0.000000000               0.000000000               0.000000000               0.000000000               0.000099769               0.000398617              -0.000024868              -0.000012414               0.000137009               0.000124595               0.000000000               0.000000000               0.000000000               0.000000000               0.000107183               0.000446726              -0.000002972              -0.000015647               0.000154123               0.000138476               0.000000000               0.000000000               0.000000000               0.000000000               0.000129058               0.000490978              -0.000001347              -0.000012975               0.000167983               0.000155007               0.000000000               0.000000000               0.000000000               0.000000000               0.000159451               0.000532159              -0.000015746              -0.000006726               0.000179626               0.000172901               0.000000000               0.000000000               0.000000000               0.000000000               0.000177194               0.000571244              -0.000027616              -0.000004958               0.000192065               0.000187107               0.000000000               0.000000000               0.000000000               0.000000000               0.000180627               0.000616105              -0.000033923              -0.000009278               0.000208459               0.000199181               0.000000000               0.000000000               0.000000000               0.000000000               0.000173696               0.000663574              -0.000041861              -0.000017811               0.000227126               0.000209315               0.000000000               0.000000000               0.000000000               0.000000000               0.000157466               0.000713433              -0.000047744              -0.000030129               0.000247852               0.000217722               0.000000000               0.000000000               0.000000000               0.000000000               0.000139405               0.000765936              -0.000048266              -0.000043465               0.000269798               0.000226333               0.000000000               0.000000000               0.000000000               0.000000000               0.000120532               0.000819696              -0.000045796              -0.000057262               0.000292317               0.000235054               0.000000000               0.000000000               0.000000000               0.000000000               0.000096899               0.000870639              -0.000040658              -0.000072492               0.000314374               0.000241882               0.000000000               0.000000000               0.000000000               0.000000000               0.000071394               0.000918062              -0.000033240              -0.000087985               0.000335346               0.000247361               0.000000000               0.000000000               0.000000000               0.000000000               0.000047479               0.000962443              -0.000023635              -0.000102500               0.000354978               0.000252478               0.000000000               0.000000000               0.000000000               0.000000000               0.000023586               0.001002051              -0.000012249              -0.000116411               0.000372817               0.000256406               0.000000000               0.000000000               0.000000000               0.000000000               0.000016500               0.001028552              -0.000009299              -0.000122381               0.000383641               0.000261260               0.000000000               0.000000000               0.000000000               0.000000000               0.000134855               0.000359215              -0.000144975               0.000005668               0.000117848               0.000123516               0.000000000               0.000000000               0.000000000               0.000000000               0.000104263               0.000367980              -0.000090364              -0.000006899               0.000124959               0.000118060               0.000000000               0.000000000               0.000000000               0.000000000               0.000100770               0.000440052              -0.000033973              -0.000017218               0.000152422               0.000135204               0.000000000               0.000000000               0.000000000               0.000000000               0.000118692               0.000511898              -0.000010663              -0.000019478               0.000177124               0.000157646               0.000000000               0.000000000               0.000000000               0.000000000               0.000151697               0.000572736              -0.000010214              -0.000014706               0.000195812               0.000181106               0.000000000               0.000000000               0.000000000               0.000000000               0.000186446               0.000621664              -0.000026093              -0.000007791               0.000209816               0.000202026               0.000000000               0.000000000               0.000000000               0.000000000               0.000203308               0.000671342              -0.000037328              -0.000007677               0.000226338               0.000218660               0.000000000               0.000000000               0.000000000               0.000000000               0.000200159               0.000727577              -0.000042327              -0.000015887               0.000247819               0.000231932               0.000000000               0.000000000               0.000000000               0.000000000               0.000185199               0.000782901              -0.000048936              -0.000028413               0.000270436               0.000242023               0.000000000               0.000000000               0.000000000               0.000000000               0.000163994               0.000840353              -0.000052208              -0.000043546               0.000294630               0.000251084               0.000000000               0.000000000               0.000000000               0.000000000               0.000143772               0.000900583              -0.000049902              -0.000058658               0.000319744               0.000261086               0.000000000               0.000000000               0.000000000               0.000000000               0.000121588               0.000959013              -0.000044693              -0.000074281               0.000344428               0.000270147               0.000000000               0.000000000               0.000000000               0.000000000               0.000094982               0.001013608              -0.000038173              -0.000091083               0.000368227               0.000277144               0.000000000               0.000000000               0.000000000               0.000000000               0.000069299               0.001065411              -0.000029604              -0.000107189               0.000390863               0.000283674               0.000000000               0.000000000               0.000000000               0.000000000               0.000045738               0.001114222              -0.000020032              -0.000122126               0.000412112               0.000289987               0.000000000               0.000000000               0.000000000               0.000000000               0.000021962               0.001158358              -0.000010322              -0.000136559               0.000431635               0.000295076               0.000000000               0.000000000               0.000000000               0.000000000               0.000015268               0.001187752              -0.000008616              -0.000142743               0.000443495               0.000300751               0.000000000               0.000000000               0.000000000               0.000000000               0.000146343               0.000337039              -0.000147499               0.000012748               0.000108096               0.000120844               0.000000000               0.000000000               0.000000000               0.000000000               0.000112182               0.000377063              -0.000097334              -0.000005065               0.000127374               0.000122310               0.000000000               0.000000000               0.000000000               0.000000000               0.000108178               0.000487005              -0.000044729              -0.000020309               0.000169103               0.000148794               0.000000000               0.000000000               0.000000000               0.000000000               0.000134072               0.000577300              -0.000023007              -0.000021886               0.000199727               0.000177841               0.000000000               0.000000000               0.000000000               0.000000000               0.000175546               0.000645008              -0.000021671              -0.000014796               0.000219932               0.000205136               0.000000000               0.000000000               0.000000000               0.000000000               0.000211067               0.000698922              -0.000032563              -0.000008215               0.000235710               0.000227495               0.000000000               0.000000000               0.000000000               0.000000000               0.000223385               0.000760824              -0.000040432              -0.000011334               0.000257383               0.000246050               0.000000000               0.000000000               0.000000000               0.000000000               0.000211614               0.000824487              -0.000044355              -0.000023705               0.000282728               0.000259023               0.000000000               0.000000000               0.000000000               0.000000000               0.000190795               0.000888125              -0.000050277              -0.000039467               0.000309195               0.000269727               0.000000000               0.000000000               0.000000000               0.000000000               0.000168036               0.000954765              -0.000049577              -0.000056332               0.000337029               0.000280697               0.000000000               0.000000000               0.000000000               0.000000000               0.000146077               0.001024809              -0.000044715              -0.000073322               0.000366040               0.000292718               0.000000000               0.000000000               0.000000000               0.000000000               0.000121114               0.001092212              -0.000038942              -0.000091108               0.000394436               0.000303328               0.000000000               0.000000000               0.000000000               0.000000000               0.000095239               0.001157195              -0.000031196              -0.000108934               0.000422039               0.000313105               0.000000000               0.000000000               0.000000000               0.000000000               0.000070571               0.001220621              -0.000022800              -0.000126113               0.000448907               0.000322794               0.000000000               0.000000000               0.000000000               0.000000000               0.000046337               0.001279814              -0.000014673              -0.000142600               0.000474134               0.000331534               0.000000000               0.000000000               0.000000000               0.000000000               0.000022510               0.001333290              -0.000007202              -0.000158219               0.000497165               0.000338946               0.000000000               0.000000000               0.000000000               0.000000000               0.000014695               0.001367762              -0.000006984              -0.000165459               0.000511069               0.000345610               0.000000000               0.000000000               0.000000000               0.000000000               0.000155963               0.000316812              -0.000145379               0.000018884               0.000099308               0.000118192               0.000000000               0.000000000               0.000000000               0.000000000               0.000120201               0.000383215              -0.000103566              -0.000002827               0.000128679               0.000125853               0.000000000               0.000000000               0.000000000               0.000000000               0.000118783               0.000522825              -0.000057516              -0.000020809               0.000181210               0.000160400               0.000000000               0.000000000               0.000000000               0.000000000               0.000146742               0.000626637              -0.000034674              -0.000023301               0.000216644               0.000193343               0.000000000               0.000000000               0.000000000               0.000000000               0.000187228               0.000695838              -0.000026955              -0.000016769               0.000237533               0.000220764               0.000000000               0.000000000               0.000000000               0.000000000               0.000221905               0.000754576              -0.000029019              -0.000011107               0.000255225               0.000244118               0.000000000               0.000000000               0.000000000               0.000000000               0.000229372               0.000824515              -0.000034430              -0.000017050               0.000280519               0.000263469               0.000000000               0.000000000               0.000000000               0.000000000               0.000215134               0.000896521              -0.000040692              -0.000031390               0.000309301               0.000277911               0.000000000               0.000000000               0.000000000               0.000000000               0.000197995               0.000969953              -0.000045904              -0.000046996               0.000338980               0.000291984               0.000000000               0.000000000               0.000000000               0.000000000               0.000180107               0.001048262              -0.000044230              -0.000063493               0.000370581               0.000307089               0.000000000               0.000000000               0.000000000               0.000000000               0.000160075               0.001127538              -0.000039018              -0.000080914               0.000402814               0.000321900               0.000000000               0.000000000               0.000000000               0.000000000               0.000137584               0.001204010              -0.000033291              -0.000098907               0.000434302               0.000335395               0.000000000               0.000000000               0.000000000               0.000000000               0.000114171               0.001278234              -0.000024701              -0.000116965               0.000465062               0.000348097               0.000000000               0.000000000               0.000000000               0.000000000               0.000090882               0.001350288              -0.000016024              -0.000134705               0.000494993               0.000360288               0.000000000               0.000000000               0.000000000               0.000000000               0.000067865               0.001417985              -0.000008356              -0.000151798               0.000523257               0.000371458               0.000000000               0.000000000               0.000000000               0.000000000               0.000048121               0.001481692              -0.000002123              -0.000167166               0.000549614               0.000382448               0.000000000               0.000000000               0.000000000               0.000000000               0.000037218               0.001514968              -0.000000041              -0.000175414               0.000563455               0.000388042               0.000000000               0.000000000               0.000000000               0.000000000               0.000162581               0.000281277              -0.000139793               0.000025808               0.000085155               0.000110963               0.000000000               0.000000000               0.000000000               0.000000000               0.000130390               0.000366305              -0.000111763               0.000003108               0.000121064               0.000124172               0.000000000               0.000000000               0.000000000               0.000000000               0.000125330               0.000525818              -0.000074434              -0.000018729               0.000181514               0.000162785               0.000000000               0.000000000               0.000000000               0.000000000               0.000147471               0.000638846              -0.000047964              -0.000024554               0.000221131               0.000196577               0.000000000               0.000000000               0.000000000               0.000000000               0.000182578               0.000716378              -0.000033320              -0.000021080               0.000245817               0.000224737               0.000000000               0.000000000               0.000000000               0.000000000               0.000222263               0.000784086              -0.000026646              -0.000014662               0.000266247               0.000251585               0.000000000               0.000000000               0.000000000               0.000000000               0.000242814               0.000857125              -0.000028677              -0.000016085               0.000291067               0.000274982               0.000000000               0.000000000               0.000000000               0.000000000               0.000239005               0.000932508              -0.000037366              -0.000026937               0.000319812               0.000292875               0.000000000               0.000000000               0.000000000               0.000000000               0.000226943               0.001007370              -0.000043832              -0.000040818               0.000349392               0.000308575               0.000000000               0.000000000               0.000000000               0.000000000               0.000213080               0.001083038              -0.000045018              -0.000055474               0.000379500               0.000324026               0.000000000               0.000000000               0.000000000               0.000000000               0.000198136               0.001162398              -0.000042687              -0.000070999               0.000411128               0.000340130               0.000000000               0.000000000               0.000000000               0.000000000               0.000180555               0.001240815              -0.000036752              -0.000087394               0.000442732               0.000355338               0.000000000               0.000000000               0.000000000               0.000000000               0.000160178               0.001316224              -0.000028863              -0.000104461               0.000473557               0.000369096               0.000000000               0.000000000               0.000000000               0.000000000               0.000138952               0.001390543              -0.000019784              -0.000121710               0.000504080               0.000382369               0.000000000               0.000000000               0.000000000               0.000000000               0.000118294               0.001465748              -0.000010221              -0.000138858               0.000534864               0.000396006               0.000000000               0.000000000               0.000000000               0.000000000               0.000099814               0.001539397              -0.000003100              -0.000154994               0.000564792               0.000409798               0.000000000               0.000000000               0.000000000               0.000000000               0.000083775               0.001568762               0.000002228              -0.000164679               0.000577808               0.000413129               0.000000000               0.000000000               0.000000000               0.000000000               0.000160426               0.000239010              -0.000128873               0.000030283               0.000069575               0.000099858               0.000000000               0.000000000               0.000000000               0.000000000               0.000139639               0.000339990              -0.000114278               0.000009866               0.000110040               0.000119906               0.000000000               0.000000000               0.000000000               0.000000000               0.000131539               0.000505873              -0.000086999              -0.000013907               0.000173259               0.000159351               0.000000000               0.000000000               0.000000000               0.000000000               0.000148039               0.000623103              -0.000060944              -0.000022373               0.000215157               0.000192783               0.000000000               0.000000000               0.000000000               0.000000000               0.000178399               0.000715556              -0.000041879              -0.000022545               0.000246031               0.000223487               0.000000000               0.000000000               0.000000000               0.000000000               0.000220887               0.000797566              -0.000028765              -0.000016863               0.000271474               0.000254611               0.000000000               0.000000000               0.000000000               0.000000000               0.000256117               0.000876506              -0.000025321              -0.000013520               0.000296672               0.000283153               0.000000000               0.000000000               0.000000000               0.000000000               0.000267069               0.000952804              -0.000031049              -0.000018950               0.000323915               0.000304965               0.000000000               0.000000000               0.000000000               0.000000000               0.000261728               0.001026697              -0.000038101              -0.000030189               0.000352292               0.000322103               0.000000000               0.000000000               0.000000000               0.000000000               0.000252317               0.001096582              -0.000041766              -0.000042454               0.000379675               0.000337221               0.000000000               0.000000000               0.000000000               0.000000000               0.000240985               0.001169749              -0.000042107              -0.000055849               0.000408529               0.000352680               0.000000000               0.000000000               0.000000000               0.000000000               0.000229074               0.001246748              -0.000037893              -0.000069941               0.000438892               0.000368951               0.000000000               0.000000000               0.000000000               0.000000000               0.000215634               0.001322360              -0.000031516              -0.000084432               0.000468926               0.000384494               0.000000000               0.000000000               0.000000000               0.000000000               0.000199071               0.001393846              -0.000023795              -0.000099579               0.000497804               0.000398225               0.000000000               0.000000000               0.000000000               0.000000000               0.000182719               0.001467600              -0.000014685              -0.000114930               0.000527505               0.000412575               0.000000000               0.000000000               0.000000000               0.000000000               0.000166358               0.001542827              -0.000005895              -0.000130469               0.000557760               0.000427291               0.000000000               0.000000000               0.000000000               0.000000000               0.000148688               0.001572948               0.000001276              -0.000140860               0.000571264               0.000430404               0.000000000               0.000000000               0.000000000               0.000000000               0.000147446               0.000195949              -0.000109819               0.000030798               0.000055050               0.000085848               0.000000000               0.000000000               0.000000000               0.000000000               0.000142738               0.000302021              -0.000108833               0.000015774               0.000095414               0.000111188               0.000000000               0.000000000               0.000000000               0.000000000               0.000143503               0.000466265              -0.000094250              -0.000004469               0.000156910               0.000152440               0.000000000               0.000000000               0.000000000               0.000000000               0.000158360               0.000596091              -0.000072159              -0.000015127               0.000203737               0.000188611               0.000000000               0.000000000               0.000000000               0.000000000               0.000184272               0.000709128              -0.000052811              -0.000019539               0.000242887               0.000223348               0.000000000               0.000000000               0.000000000               0.000000000               0.000222796               0.000807407              -0.000036339              -0.000017377               0.000274925               0.000257548               0.000000000               0.000000000               0.000000000               0.000000000               0.000261332               0.000891984              -0.000025368              -0.000013499               0.000301825               0.000288326               0.000000000               0.000000000               0.000000000               0.000000000               0.000283910               0.000969618              -0.000023429              -0.000014736               0.000328115               0.000313379               0.000000000               0.000000000               0.000000000               0.000000000               0.000288180               0.001042607              -0.000027832              -0.000022258               0.000354952               0.000332693               0.000000000               0.000000000               0.000000000               0.000000000               0.000285036               0.001109807              -0.000033008              -0.000031837               0.000380544               0.000348707               0.000000000               0.000000000               0.000000000               0.000000000               0.000279324               0.001177229              -0.000035599              -0.000042407               0.000406542               0.000364134               0.000000000               0.000000000               0.000000000               0.000000000               0.000273551               0.001249810              -0.000035051              -0.000053645               0.000434481               0.000380836               0.000000000               0.000000000               0.000000000               0.000000000               0.000268127               0.001325651              -0.000031142              -0.000065159               0.000463599               0.000398440               0.000000000               0.000000000               0.000000000               0.000000000               0.000260205               0.001398962              -0.000025726              -0.000077293               0.000492080               0.000414787               0.000000000               0.000000000               0.000000000               0.000000000               0.000249692               0.001470346              -0.000019191              -0.000090158               0.000520163               0.000430005               0.000000000               0.000000000               0.000000000               0.000000000               0.000237941               0.001544709              -0.000010081              -0.000103860               0.000549518               0.000445658               0.000000000               0.000000000               0.000000000               0.000000000               0.000222949               0.001577307              -0.000001639              -0.000113557               0.000563616               0.000450059               0.000000000               0.000000000               0.000000000               0.000000000               0.000129090               0.000152274              -0.000085458               0.000029374               0.000040966               0.000070340               0.000000000               0.000000000               0.000000000               0.000000000               0.000143161               0.000256584              -0.000096016               0.000021612               0.000078323               0.000099935               0.000000000               0.000000000               0.000000000               0.000000000               0.000157663               0.000423438              -0.000094169               0.000006194               0.000139080               0.000145274               0.000000000               0.000000000               0.000000000               0.000000000               0.000175075               0.000568022              -0.000078160              -0.000005350               0.000191122               0.000185772               0.000000000               0.000000000               0.000000000               0.000000000               0.000198271               0.000695355              -0.000060639              -0.000012568               0.000235972               0.000223404               0.000000000               0.000000000               0.000000000               0.000000000               0.000228107               0.000802661              -0.000042931              -0.000014792               0.000272482               0.000257689               0.000000000               0.000000000               0.000000000               0.000000000               0.000262411               0.000892979              -0.000026661              -0.000013218               0.000302063               0.000288845               0.000000000               0.000000000               0.000000000               0.000000000               0.000291540               0.000975625              -0.000017650              -0.000012626               0.000329413               0.000316788               0.000000000               0.000000000               0.000000000               0.000000000               0.000308828               0.001053658              -0.000017697              -0.000015897               0.000356515               0.000340618               0.000000000               0.000000000               0.000000000               0.000000000               0.000315921               0.001124516              -0.000022302              -0.000022094               0.000382200               0.000360106               0.000000000               0.000000000               0.000000000               0.000000000               0.000317541               0.001189405              -0.000026294              -0.000029598               0.000406330               0.000376732               0.000000000               0.000000000               0.000000000               0.000000000               0.000317538               0.001256744              -0.000028373              -0.000038016               0.000431583               0.000393566               0.000000000               0.000000000               0.000000000               0.000000000               0.000318217               0.001329438              -0.000027077              -0.000046848               0.000458758               0.000411910               0.000000000               0.000000000               0.000000000               0.000000000               0.000319063               0.001405211              -0.000023244              -0.000056002               0.000487066               0.000431064               0.000000000               0.000000000               0.000000000               0.000000000               0.000316473               0.001475876              -0.000017924              -0.000065807               0.000513889               0.000448082               0.000000000               0.000000000               0.000000000               0.000000000               0.000311357               0.001543848              -0.000010537              -0.000076222               0.000540018               0.000463796               0.000000000               0.000000000               0.000000000               0.000000000               0.000302469               0.001574443              -0.000003820              -0.000083379               0.000552602               0.000469223               0.000000000               0.000000000               0.000000000               0.000000000               0.000106675               0.000116450              -0.000061459               0.000025447               0.000030334               0.000055781               0.000000000               0.000000000               0.000000000               0.000000000               0.000141241               0.000218219              -0.000077798               0.000025688               0.000064176               0.000089864               0.000000000               0.000000000               0.000000000               0.000000000               0.000172468               0.000384349              -0.000084657               0.000016632               0.000122571               0.000139203               0.000000000               0.000000000               0.000000000               0.000000000               0.000195691               0.000533002              -0.000075054               0.000006759               0.000175413               0.000182172               0.000000000               0.000000000               0.000000000               0.000000000               0.000216476               0.000666860              -0.000060410              -0.000002179               0.000223011               0.000220832               0.000000000               0.000000000               0.000000000               0.000000000               0.000239657               0.000783054              -0.000043448              -0.000008010               0.000263685               0.000255675               0.000000000               0.000000000               0.000000000               0.000000000               0.000269110               0.000885009              -0.000026881              -0.000009710               0.000298237               0.000288527               0.000000000               0.000000000               0.000000000               0.000000000               0.000300574               0.000977675              -0.000014986              -0.000009494               0.000329053               0.000319559               0.000000000               0.000000000               0.000000000               0.000000000               0.000325745               0.001062090              -0.000011413              -0.000010607               0.000357562               0.000346955               0.000000000               0.000000000               0.000000000               0.000000000               0.000342270               0.001138351              -0.000012891              -0.000013942               0.000384094               0.000370152               0.000000000               0.000000000               0.000000000               0.000000000               0.000351344               0.001204269              -0.000015484              -0.000018780               0.000407679               0.000388899               0.000000000               0.000000000               0.000000000               0.000000000               0.000356545               0.001266292              -0.000018058              -0.000024582               0.000430287               0.000405705               0.000000000               0.000000000               0.000000000               0.000000000               0.000362773               0.001334266              -0.000018674              -0.000030743               0.000454999               0.000424255               0.000000000               0.000000000               0.000000000               0.000000000               0.000370776               0.001407368              -0.000016583              -0.000036880               0.000481411               0.000444532               0.000000000               0.000000000               0.000000000               0.000000000               0.000378310               0.001479383              -0.000012448              -0.000043056               0.000507475               0.000464419               0.000000000               0.000000000               0.000000000               0.000000000               0.000384875               0.001548039              -0.000007742              -0.000049176               0.000532400               0.000483224               0.000000000               0.000000000               0.000000000               0.000000000               0.000384213               0.001578327              -0.000004039              -0.000053211               0.000543841               0.000490630               0.000000000               0.000000000               0.000000000               0.000000000               0.000084726               0.000091353              -0.000039029               0.000020353               0.000023666               0.000044019               0.000000000               0.000000000               0.000000000               0.000000000               0.000139279               0.000188244              -0.000055099               0.000028699               0.000053181               0.000081880               0.000000000               0.000000000               0.000000000               0.000000000               0.000187538               0.000347917              -0.000064604               0.000026837               0.000107026               0.000133863               0.000000000               0.000000000               0.000000000               0.000000000               0.000215226               0.000497406              -0.000059084               0.000018534               0.000159623               0.000178156               0.000000000               0.000000000               0.000000000               0.000000000               0.000235046               0.000635343              -0.000049195               0.000008724               0.000208871               0.000217595               0.000000000               0.000000000               0.000000000               0.000000000               0.000255296               0.000759856              -0.000037292               0.000000754               0.000253032               0.000253785               0.000000000               0.000000000               0.000000000               0.000000000               0.000280262               0.000873419              -0.000024740              -0.000004079               0.000292497               0.000288418               0.000000000               0.000000000               0.000000000               0.000000000               0.000309157               0.000974843              -0.000013103              -0.000005922               0.000326918               0.000320997               0.000000000               0.000000000               0.000000000               0.000000000               0.000336652               0.001065407              -0.000006914              -0.000006931               0.000357443               0.000350511               0.000000000               0.000000000               0.000000000               0.000000000               0.000359153               0.001146188              -0.000005873              -0.000008591               0.000384923               0.000376331               0.000000000               0.000000000               0.000000000               0.000000000               0.000376283               0.001216116              -0.000006337              -0.000010908               0.000409004               0.000398096               0.000000000               0.000000000               0.000000000               0.000000000               0.000388686               0.001277520              -0.000008061              -0.000013933               0.000430480               0.000416547               0.000000000               0.000000000               0.000000000               0.000000000               0.000400525               0.001340568              -0.000009445              -0.000017374               0.000452643               0.000435269               0.000000000               0.000000000               0.000000000               0.000000000               0.000413430               0.001406969              -0.000008593              -0.000020835               0.000475930               0.000455095               0.000000000               0.000000000               0.000000000               0.000000000               0.000428952               0.001479115              -0.000006214              -0.000024032               0.000501044               0.000477012               0.000000000               0.000000000               0.000000000               0.000000000               0.000446017               0.001553059              -0.000003555              -0.000026876               0.000526640               0.000499764               0.000000000               0.000000000               0.000000000               0.000000000               0.000452593               0.001586084              -0.000001743              -0.000028538               0.000538202               0.000509664               0.000000000               0.000000000               0.000000000               0.000000000               0.000070406               0.000075319              -0.000018377               0.000016987               0.000019444               0.000036431               0.000000000               0.000000000               0.000000000               0.000000000               0.000138794               0.000168179              -0.000028235               0.000031025               0.000045717               0.000076742               0.000000000               0.000000000               0.000000000               0.000000000               0.000197595               0.000322317              -0.000034757               0.000033808               0.000096168               0.000129977               0.000000000               0.000000000               0.000000000               0.000000000               0.000229262               0.000471475              -0.000032511               0.000027039               0.000148144               0.000175182               0.000000000               0.000000000               0.000000000               0.000000000               0.000250835               0.000611448              -0.000027905               0.000017632               0.000197936               0.000215568               0.000000000               0.000000000               0.000000000               0.000000000               0.000269478               0.000741998              -0.000021700               0.000008304               0.000244562               0.000252866               0.000000000               0.000000000               0.000000000               0.000000000               0.000289939               0.000862484              -0.000014585               0.000000917               0.000287186               0.000288103               0.000000000               0.000000000               0.000000000               0.000000000               0.000314163               0.000968685              -0.000007638              -0.000003275               0.000323983               0.000320709               0.000000000               0.000000000               0.000000000               0.000000000               0.000342320               0.001065182              -0.000003407              -0.000004778               0.000356650               0.000351872               0.000000000               0.000000000               0.000000000               0.000000000               0.000368736               0.001149979              -0.000002284              -0.000005471               0.000385146               0.000379675               0.000000000               0.000000000               0.000000000               0.000000000               0.000391270               0.001222595              -0.000001903              -0.000006098               0.000409560               0.000403462               0.000000000               0.000000000               0.000000000               0.000000000               0.000409944               0.001285168              -0.000002273              -0.000006917               0.000430691               0.000423774               0.000000000               0.000000000               0.000000000               0.000000000               0.000426245               0.001344326              -0.000002960              -0.000008199               0.000450837               0.000442638               0.000000000               0.000000000               0.000000000               0.000000000               0.000442557               0.001405751              -0.000002625              -0.000009760               0.000471832               0.000462072               0.000000000               0.000000000               0.000000000               0.000000000               0.000462224               0.001477260              -0.000001723              -0.000011323               0.000496190               0.000484866               0.000000000               0.000000000               0.000000000               0.000000000               0.000483656               0.001553493              -0.000000591              -0.000012815               0.000522098               0.000509282               0.000000000               0.000000000               0.000000000               0.000000000               0.000492866               0.001588204               0.000000223              -0.000013701               0.000533963               0.000520262               0.000000000               0.000000000               0.000000000               0.000000000               0.000065702               0.000069741              -0.000000000               0.000015920               0.000017940               0.000033860               0.000000000               0.000000000               0.000000000               0.000000000               0.000138504               0.000161341               0.000000000               0.000031771               0.000043189               0.000074961               0.000000000               0.000000000               0.000000000               0.000000000               0.000200379               0.000313457              -0.000000000               0.000035960               0.000092498               0.000128458               0.000000000               0.000000000               0.000000000               0.000000000               0.000234834               0.000462245               0.000000000               0.000030282               0.000143986               0.000174268               0.000000000               0.000000000               0.000000000               0.000000000               0.000256964               0.000602029               0.000000000               0.000021108               0.000193638               0.000214746               0.000000000               0.000000000               0.000000000               0.000000000               0.000274110               0.000733707               0.000000000               0.000011078               0.000240874               0.000251952               0.000000000               0.000000000               0.000000000               0.000000000               0.000293531               0.000857164               0.000000000               0.000002929               0.000284742               0.000287671               0.000000000               0.000000000               0.000000000               0.000000000               0.000316953               0.000966892               0.000000000              -0.000002004               0.000322962               0.000320958               0.000000000               0.000000000               0.000000000               0.000000000               0.000345097               0.001066015              -0.000000000              -0.000003841               0.000356615               0.000352774               0.000000000               0.000000000               0.000000000               0.000000000               0.000372161               0.001151113              -0.000000000              -0.000004329               0.000385143               0.000380815               0.000000000               0.000000000               0.000000000               0.000000000               0.000396067               0.001224281               0.000000000              -0.000004510               0.000409593               0.000405083               0.000000000               0.000000000               0.000000000               0.000000000               0.000417112               0.001287748              -0.000000000              -0.000004551               0.000430762               0.000426211               0.000000000               0.000000000               0.000000000               0.000000000               0.000435240               0.001345016              -0.000000000              -0.000004912               0.000449971               0.000445059               0.000000000               0.000000000               0.000000000               0.000000000               0.000452992               0.001404677              -0.000000000              -0.000005713               0.000470125               0.000464413               0.000000000               0.000000000               0.000000000               0.000000000               0.000473789               0.001475981              -0.000000000              -0.000006827               0.000494265               0.000487438               0.000000000               0.000000000               0.000000000               0.000000000               0.000495752               0.001552457               0.000000000              -0.000008150               0.000520197               0.000512047               0.000000000               0.000000000               0.000000000               0.000000000               0.000504961               0.001587552               0.000000000              -0.000009084               0.000532207               0.000523123               0.000000000               0.000000000               0.000000000               0.000000000               0.000000000               0.000000000               0.000000000               0.000000000               0.000000000               0.000000000               0.000000000               0.000000000               0.000000000               0.000000000               0.000000000               0.000000000               0.000000000               0.000000000               0.000000000               0.000000000               0.000000000               0.000000000               0.000000000               0.000000000               0.000000000               0.000000000               0.000000000               0.000000000               0.000000000               0.000000000               0.000000000               0.000000000               0.000000000               0.000000000               0.000000000               0.000000000               0.000000000               0.000000000               0.000000000               0.000000000               0.000000000               0.000000000               0.000000000               0.000000000               0.000000000               0.000000000               0.000000000               0.000000000               0.000000000               0.000000000               0.000000000               0.000000000               0.000000000               0.000000000               0.000000000               0.000000000               0.000000000               0.000000000               0.000000000               0.000000000               0.000000000               0.000000000               0.000000000               0.000000000               0.000000000               0.000000000               0.000000000               0.000000000               0.000000000               0.000000000               0.000000000               0.000000000               0.000000000               0.000000000               0.000000000               0.000000000               0.000000000               0.000000000               0.000000000               0.000000000               0.000000000               0.000000000               0.000000000               0.000000000               0.000000000               0.000000000               0.000000000               0.000000000               0.000000000               0.000000000               0.000000000               0.000000000               0.000000000               0.000000000               0.000000000               0.000000000               0.000000000               0.000000000               0.000000000               0.000000000               0.000000000               0.000000000               0.000000000               0.000000000               0.000000000               0.000000000               0.000000000               0.000000000               0.000000000               0.000000000               0.000000000               0.000000000               0.000000000               0.000000000               0.000000000               0.000000000               0.000000000               0.000000000               0.000000000               0.000000000               0.000000000               0.000000000               0.000000000               0.000000000               0.000000000               0.000000000               0.000000000               0.000000000               0.000000000               0.000000000               0.000000000               0.000000000               0.000000000               0.000000000               0.000000000               0.000000000               0.000000000               0.000000000               0.000000000               0.000000000               0.000000000               0.000000000               0.000000000               0.000000000               0.000000000               0.000000000               0.000000000               0.000000000               0.000000000               0.000000000               0.000000000               0.000000000               0.000000000               0.000000000               0.000000000               0.000000000               0.000000000               0.000000000               0.000000000               0.000000000               0.000000000               0.000000000               0.000000000               0.000000000               0.000000000               0.000000000               0.000000000               0.000000000               0.000000000               0.000000000               0.000000000               0.000000000               0.000000000               0.000000000               0.000060626               0.000464485               0.000037835              -0.000035326               0.000166602               0.000131276               0.000000000               0.000000000               0.000000000               0.000000000               0.000078415               0.000398466               0.000025221              -0.000020403               0.000139622               0.000119219               0.000000000               0.000000000               0.000000000               0.000000000               0.000112472               0.000355630               0.000008728              -0.000002277               0.000119301               0.000117024               0.000000000               0.000000000               0.000000000               0.000000000               0.000121614               0.000349263              -0.000001194               0.000001948               0.000115770               0.000117718               0.000000000               0.000000000               0.000000000               0.000000000               0.000119828               0.000356338              -0.000003267               0.000000393               0.000118647               0.000119040               0.000000000               0.000000000               0.000000000               0.000000000               0.000115032               0.000360804               0.000001479              -0.000001963               0.000120921               0.000118958               0.000000000               0.000000000               0.000000000               0.000000000               0.000109847               0.000354371               0.000003716              -0.000003104               0.000119157               0.000116053               0.000000000               0.000000000               0.000000000               0.000000000               0.000109991               0.000349049               0.000003118              -0.000002385               0.000117143               0.000114759               0.000000000               0.000000000               0.000000000               0.000000000               0.000112635               0.000342339               0.000004974              -0.000000554               0.000114297               0.000113742               0.000000000               0.000000000               0.000000000               0.000000000               0.000113673               0.000333060               0.000006546               0.000000995               0.000110687               0.000111682               0.000000000               0.000000000               0.000000000               0.000000000               0.000113980               0.000325694               0.000007427               0.000002031               0.000107887               0.000109917               0.000000000               0.000000000               0.000000000               0.000000000               0.000111264               0.000321745               0.000007535               0.000001506               0.000106745               0.000108251               0.000000000               0.000000000               0.000000000               0.000000000               0.000101664               0.000322671               0.000006032              -0.000002210               0.000108293               0.000106083               0.000000000               0.000000000               0.000000000               0.000000000               0.000085441               0.000330006               0.000003842              -0.000009210               0.000113071               0.000103860               0.000000000               0.000000000               0.000000000               0.000000000               0.000062752               0.000344129               0.000001571              -0.000019484               0.000121203               0.000101719               0.000000000               0.000000000               0.000000000               0.000000000               0.000033114               0.000364620              -0.000000037              -0.000033160               0.000132592               0.000099432               0.000000000               0.000000000               0.000000000               0.000000000               0.000020161               0.000384469               0.000000955              -0.000040498               0.000141654               0.000101156               0.000000000               0.000000000               0.000000000               0.000000000               0.000073013               0.000452492               0.000073202              -0.000029182               0.000160556               0.000131375               0.000000000               0.000000000               0.000000000               0.000000000               0.000084925               0.000389528               0.000046699              -0.000016844               0.000135456               0.000118612               0.000000000               0.000000000               0.000000000               0.000000000               0.000113222               0.000355426               0.000014266              -0.000001970               0.000119131               0.000117161               0.000000000               0.000000000               0.000000000               0.000000000               0.000117208               0.000354235              -0.000003005              -0.000000326               0.000118186               0.000117860               0.000000000               0.000000000               0.000000000               0.000000000               0.000114827               0.000361730              -0.000006373              -0.000002156               0.000121294               0.000119138               0.000000000               0.000000000               0.000000000               0.000000000               0.000117164               0.000366326               0.000002301              -0.000001854               0.000122726               0.000120871               0.000000000               0.000000000               0.000000000               0.000000000               0.000120794               0.000364738               0.000006874              -0.000000294               0.000121676               0.000121382               0.000000000               0.000000000               0.000000000               0.000000000               0.000125079               0.000365781               0.000006492               0.000001182               0.000121532               0.000122714               0.000000000               0.000000000               0.000000000               0.000000000               0.000125654               0.000366877               0.000011098               0.000001261               0.000121871               0.000123132               0.000000000               0.000000000               0.000000000               0.000000000               0.000120356               0.000370423               0.000015109              -0.000001169               0.000123863               0.000122693               0.000000000               0.000000000               0.000000000               0.000000000               0.000112816               0.000378490               0.000017717              -0.000005005               0.000127830               0.000122825               0.000000000               0.000000000               0.000000000               0.000000000               0.000103562               0.000391837               0.000019150              -0.000010144               0.000133992               0.000123848               0.000000000               0.000000000               0.000000000               0.000000000               0.000089320               0.000409018               0.000018101              -0.000017632               0.000142216               0.000124583               0.000000000               0.000000000               0.000000000               0.000000000               0.000071173               0.000429941               0.000015430              -0.000027053               0.000152330               0.000125277               0.000000000               0.000000000               0.000000000               0.000000000               0.000050740               0.000455548               0.000011429              -0.000037916               0.000164487               0.000126571               0.000000000               0.000000000               0.000000000               0.000000000               0.000026650               0.000486208               0.000006119              -0.000050782               0.000178995               0.000128213               0.000000000               0.000000000               0.000000000               0.000000000               0.000018368               0.000512660               0.000005869              -0.000057194               0.000189950               0.000132756               0.000000000               0.000000000               0.000000000               0.000000000               0.000091600               0.000437955               0.000099705              -0.000020394               0.000152782               0.000132387               0.000000000               0.000000000               0.000000000               0.000000000               0.000090819               0.000377989               0.000061246              -0.000013192               0.000130392               0.000117201               0.000000000               0.000000000               0.000000000               0.000000000               0.000108750               0.000360424               0.000017859              -0.000004272               0.000121564               0.000117292               0.000000000               0.000000000               0.000000000               0.000000000               0.000111077               0.000367960              -0.000004876              -0.000004341               0.000124099               0.000119758               0.000000000               0.000000000               0.000000000               0.000000000               0.000114534               0.000382779              -0.000007882              -0.000004897               0.000129224               0.000124327               0.000000000               0.000000000               0.000000000               0.000000000               0.000125273               0.000390510               0.000004425              -0.000001836               0.000130781               0.000128944               0.000000000               0.000000000               0.000000000               0.000000000               0.000136313               0.000400098               0.000012608               0.000001105               0.000132996               0.000134101               0.000000000               0.000000000               0.000000000               0.000000000               0.000140616               0.000410781               0.000015404               0.000001383               0.000136465               0.000137848               0.000000000               0.000000000               0.000000000               0.000000000               0.000140880               0.000426223               0.000022359              -0.000000448               0.000142222               0.000141774               0.000000000               0.000000000               0.000000000               0.000000000               0.000133110               0.000447552               0.000027901              -0.000006028               0.000151192               0.000145164               0.000000000               0.000000000               0.000000000               0.000000000               0.000120003               0.000475178               0.000031461              -0.000014396               0.000163190               0.000148794               0.000000000               0.000000000               0.000000000               0.000000000               0.000105670               0.000509113               0.000032902              -0.000024013               0.000177707               0.000153694               0.000000000               0.000000000               0.000000000               0.000000000               0.000086500               0.000545468               0.000031711              -0.000035746               0.000193736               0.000157990               0.000000000               0.000000000               0.000000000               0.000000000               0.000064239               0.000582918               0.000028048              -0.000048775               0.000210562               0.000161787               0.000000000               0.000000000               0.000000000               0.000000000               0.000043012               0.000621581               0.000021656              -0.000061568               0.000227714               0.000166146               0.000000000               0.000000000               0.000000000               0.000000000               0.000021717               0.000660535               0.000012172              -0.000074423               0.000244984               0.000170561               0.000000000               0.000000000               0.000000000               0.000000000               0.000016085               0.000689143               0.000009749              -0.000080111               0.000256415               0.000176305               0.000000000               0.000000000               0.000000000               0.000000000               0.000107645               0.000412903               0.000123388              -0.000011246               0.000141382               0.000130136               0.000000000               0.000000000               0.000000000               0.000000000               0.000095077               0.000366206               0.000072860              -0.000010122               0.000125442               0.000115319               0.000000000               0.000000000               0.000000000               0.000000000               0.000103388               0.000372987               0.000019887              -0.000007853               0.000126945               0.000119093               0.000000000               0.000000000               0.000000000               0.000000000               0.000107030               0.000397437              -0.000003755              -0.000009543               0.000135659               0.000126115               0.000000000               0.000000000               0.000000000               0.000000000               0.000116509               0.000422168              -0.000004317              -0.000009080               0.000143748               0.000134668               0.000000000               0.000000000               0.000000000               0.000000000               0.000136318               0.000444794               0.000009940              -0.000004480               0.000149756               0.000145276               0.000000000               0.000000000               0.000000000               0.000000000               0.000154304               0.000471927               0.000020403              -0.000001127               0.000157683               0.000156556               0.000000000               0.000000000               0.000000000               0.000000000               0.000160564               0.000499826               0.000025149              -0.000002267               0.000167362               0.000165096               0.000000000               0.000000000               0.000000000               0.000000000               0.000158977               0.000533653               0.000032502              -0.000007090               0.000180246               0.000173156               0.000000000               0.000000000               0.000000000               0.000000000               0.000146881               0.000571117               0.000038592              -0.000016309               0.000195807               0.000179498               0.000000000               0.000000000               0.000000000               0.000000000               0.000131293               0.000614544               0.000041265              -0.000027583               0.000214040               0.000186457               0.000000000               0.000000000               0.000000000               0.000000000               0.000114913               0.000662168               0.000041441              -0.000039678               0.000233947               0.000194268               0.000000000               0.000000000               0.000000000               0.000000000               0.000093185               0.000710038               0.000038723              -0.000053810               0.000254614               0.000200804               0.000000000               0.000000000               0.000000000               0.000000000               0.000068496               0.000756690               0.000033282              -0.000068900               0.000275194               0.000206294               0.000000000               0.000000000               0.000000000               0.000000000               0.000045075               0.000801332               0.000024967              -0.000083263               0.000294862               0.000211599               0.000000000               0.000000000               0.000000000               0.000000000               0.000022302               0.000842294               0.000013576              -0.000096923               0.000313069               0.000216146               0.000000000               0.000000000               0.000000000               0.000000000               0.000016064               0.000869750               0.000010178              -0.000102694               0.000324145               0.000221451               0.000000000               0.000000000               0.000000000               0.000000000               0.000122577               0.000384789               0.000138635              -0.000002132               0.000128973               0.000126840               0.000000000               0.000000000               0.000000000               0.000000000               0.000100021               0.000363203               0.000081511              -0.000007893               0.000123697               0.000115805               0.000000000               0.000000000               0.000000000               0.000000000               0.000099769               0.000398617               0.000024868              -0.000012414               0.000137009               0.000124595               0.000000000               0.000000000               0.000000000               0.000000000               0.000107183               0.000446726               0.000002972              -0.000015647               0.000154123               0.000138476               0.000000000               0.000000000               0.000000000               0.000000000               0.000129058               0.000490978               0.000001347              -0.000012975               0.000167983               0.000155007               0.000000000               0.000000000               0.000000000               0.000000000               0.000159451               0.000532159               0.000015746              -0.000006726               0.000179626               0.000172901               0.000000000               0.000000000               0.000000000               0.000000000               0.000177194               0.000571244               0.000027616              -0.000004958               0.000192065               0.000187107               0.000000000               0.000000000               0.000000000               0.000000000               0.000180627               0.000616105               0.000033923              -0.000009278               0.000208459               0.000199181               0.000000000               0.000000000               0.000000000               0.000000000               0.000173696               0.000663574               0.000041861              -0.000017811               0.000227126               0.000209315               0.000000000               0.000000000               0.000000000               0.000000000               0.000157466               0.000713433               0.000047744              -0.000030129               0.000247852               0.000217722               0.000000000               0.000000000               0.000000000               0.000000000               0.000139405               0.000765936               0.000048266              -0.000043465               0.000269798               0.000226333               0.000000000               0.000000000               0.000000000               0.000000000               0.000120532               0.000819696               0.000045796              -0.000057262               0.000292317               0.000235054               0.000000000               0.000000000               0.000000000               0.000000000               0.000096899               0.000870639               0.000040658              -0.000072492               0.000314374               0.000241882               0.000000000               0.000000000               0.000000000               0.000000000               0.000071394               0.000918062               0.000033240              -0.000087985               0.000335346               0.000247361               0.000000000               0.000000000               0.000000000               0.000000000               0.000047479               0.000962443               0.000023635              -0.000102500               0.000354978               0.000252478               0.000000000               0.000000000               0.000000000               0.000000000               0.000023586               0.001002051               0.000012249              -0.000116411               0.000372817               0.000256406               0.000000000               0.000000000               0.000000000               0.000000000               0.000016500               0.001028552               0.000009299              -0.000122381               0.000383641               0.000261260               0.000000000               0.000000000               0.000000000               0.000000000               0.000134855               0.000359215               0.000144975               0.000005668               0.000117848               0.000123516               0.000000000               0.000000000               0.000000000               0.000000000               0.000104263               0.000367980               0.000090364              -0.000006899               0.000124959               0.000118060               0.000000000               0.000000000               0.000000000               0.000000000               0.000100770               0.000440052               0.000033973              -0.000017218               0.000152422               0.000135204               0.000000000               0.000000000               0.000000000               0.000000000               0.000118692               0.000511898               0.000010663              -0.000019478               0.000177124               0.000157646               0.000000000               0.000000000               0.000000000               0.000000000               0.000151697               0.000572736               0.000010214              -0.000014706               0.000195812               0.000181106               0.000000000               0.000000000               0.000000000               0.000000000               0.000186446               0.000621664               0.000026093              -0.000007791               0.000209816               0.000202026               0.000000000               0.000000000               0.000000000               0.000000000               0.000203308               0.000671342               0.000037328              -0.000007677               0.000226338               0.000218660               0.000000000               0.000000000               0.000000000               0.000000000               0.000200159               0.000727577               0.000042327              -0.000015887               0.000247819               0.000231932               0.000000000               0.000000000               0.000000000               0.000000000               0.000185199               0.000782901               0.000048936              -0.000028413               0.000270436               0.000242023               0.000000000               0.000000000               0.000000000               0.000000000               0.000163994               0.000840353               0.000052208              -0.000043546               0.000294630               0.000251084               0.000000000               0.000000000               0.000000000               0.000000000               0.000143772               0.000900583               0.000049902              -0.000058658               0.000319744               0.000261086               0.000000000               0.000000000               0.000000000               0.000000000               0.000121588               0.000959013               0.000044693              -0.000074281               0.000344428               0.000270147               0.000000000               0.000000000               0.000000000               0.000000000               0.000094982               0.001013608               0.000038173              -0.000091083               0.000368227               0.000277144               0.000000000               0.000000000               0.000000000               0.000000000               0.000069299               0.001065411               0.000029604              -0.000107189               0.000390863               0.000283674               0.000000000               0.000000000               0.000000000               0.000000000               0.000045738               0.001114222               0.000020032              -0.000122126               0.000412112               0.000289987               0.000000000               0.000000000               0.000000000               0.000000000               0.000021962               0.001158358               0.000010322              -0.000136559               0.000431635               0.000295076               0.000000000               0.000000000               0.000000000               0.000000000               0.000015268               0.001187752               0.000008616              -0.000142743               0.000443495               0.000300751               0.000000000               0.000000000               0.000000000               0.000000000               0.000146343               0.000337039               0.000147499               0.000012748               0.000108096               0.000120844               0.000000000               0.000000000               0.000000000               0.000000000               0.000112182               0.000377063               0.000097334              -0.000005065               0.000127374               0.000122310               0.000000000               0.000000000               0.000000000               0.000000000               0.000108178               0.000487005               0.000044729              -0.000020309               0.000169103               0.000148794               0.000000000               0.000000000               0.000000000               0.000000000               0.000134072               0.000577300               0.000023007              -0.000021886               0.000199727               0.000177841               0.000000000               0.000000000               0.000000000               0.000000000               0.000175546               0.000645008               0.000021671              -0.000014796               0.000219932               0.000205136               0.000000000               0.000000000               0.000000000               0.000000000               0.000211067               0.000698922               0.000032563              -0.000008215               0.000235710               0.000227495               0.000000000               0.000000000               0.000000000               0.000000000               0.000223385               0.000760824               0.000040432              -0.000011334               0.000257383               0.000246050               0.000000000               0.000000000               0.000000000               0.000000000               0.000211614               0.000824487               0.000044355              -0.000023705               0.000282728               0.000259023               0.000000000               0.000000000               0.000000000               0.000000000               0.000190795               0.000888125               0.000050277              -0.000039467               0.000309195               0.000269727               0.000000000               0.000000000               0.000000000               0.000000000               0.000168036               0.000954765               0.000049577              -0.000056332               0.000337029               0.000280697               0.000000000               0.000000000               0.000000000               0.000000000               0.000146077               0.001024809               0.000044715              -0.000073322               0.000366040               0.000292718               0.000000000               0.000000000               0.000000000               0.000000000               0.000121114               0.001092212               0.000038942              -0.000091108               0.000394436               0.000303328               0.000000000               0.000000000               0.000000000               0.000000000               0.000095239               0.001157195               0.000031196              -0.000108934               0.000422039               0.000313105               0.000000000               0.000000000               0.000000000               0.000000000               0.000070571               0.001220621               0.000022800              -0.000126113               0.000448907               0.000322794               0.000000000               0.000000000               0.000000000               0.000000000               0.000046337               0.001279814               0.000014673              -0.000142600               0.000474134               0.000331534               0.000000000               0.000000000               0.000000000               0.000000000               0.000022510               0.001333290               0.000007202              -0.000158219               0.000497165               0.000338946               0.000000000               0.000000000               0.000000000               0.000000000               0.000014695               0.001367762               0.000006984              -0.000165459               0.000511069               0.000345610               0.000000000               0.000000000               0.000000000               0.000000000               0.000155963               0.000316812               0.000145379               0.000018884               0.000099308               0.000118192               0.000000000               0.000000000               0.000000000               0.000000000               0.000120201               0.000383215               0.000103566              -0.000002827               0.000128679               0.000125853               0.000000000               0.000000000               0.000000000               0.000000000               0.000118783               0.000522825               0.000057516              -0.000020809               0.000181210               0.000160400               0.000000000               0.000000000               0.000000000               0.000000000               0.000146742               0.000626637               0.000034674              -0.000023301               0.000216644               0.000193343               0.000000000               0.000000000               0.000000000               0.000000000               0.000187228               0.000695838               0.000026955              -0.000016769               0.000237533               0.000220764               0.000000000               0.000000000               0.000000000               0.000000000               0.000221905               0.000754576               0.000029019              -0.000011107               0.000255225               0.000244118               0.000000000               0.000000000               0.000000000               0.000000000               0.000229372               0.000824515               0.000034430              -0.000017050               0.000280519               0.000263469               0.000000000               0.000000000               0.000000000               0.000000000               0.000215134               0.000896521               0.000040692              -0.000031390               0.000309301               0.000277911               0.000000000               0.000000000               0.000000000               0.000000000               0.000197995               0.000969953               0.000045904              -0.000046996               0.000338980               0.000291984               0.000000000               0.000000000               0.000000000               0.000000000               0.000180107               0.001048262               0.000044230              -0.000063493               0.000370581               0.000307089               0.000000000               0.000000000               0.000000000               0.000000000               0.000160075               0.001127538               0.000039018              -0.000080914               0.000402814               0.000321900               0.000000000               0.000000000               0.000000000               0.000000000               0.000137584               0.001204010               0.000033291              -0.000098907               0.000434302               0.000335395               0.000000000               0.000000000               0.000000000               0.000000000               0.000114171               0.001278234               0.000024701              -0.000116965               0.000465062               0.000348097               0.000000000               0.000000000               0.000000000               0.000000000               0.000090882               0.001350288               0.000016024              -0.000134705               0.000494993               0.000360288               0.000000000               0.000000000               0.000000000               0.000000000               0.000067865               0.001417985               0.000008356              -0.000151798               0.000523257               0.000371458               0.000000000               0.000000000               0.000000000               0.000000000               0.000048121               0.001481692               0.000002123              -0.000167166               0.000549614               0.000382448               0.000000000               0.000000000               0.000000000               0.000000000               0.000037218               0.001514968               0.000000041              -0.000175414               0.000563455               0.000388042               0.000000000               0.000000000               0.000000000               0.000000000               0.000162581               0.000281277               0.000139793               0.000025808               0.000085155               0.000110963               0.000000000               0.000000000               0.000000000               0.000000000               0.000130390               0.000366305               0.000111763               0.000003108               0.000121064               0.000124172               0.000000000               0.000000000               0.000000000               0.000000000               0.000125330               0.000525818               0.000074434              -0.000018729               0.000181514               0.000162785               0.000000000               0.000000000               0.000000000               0.000000000               0.000147471               0.000638846               0.000047964              -0.000024554               0.000221131               0.000196577               0.000000000               0.000000000               0.000000000               0.000000000               0.000182578               0.000716378               0.000033320              -0.000021080               0.000245817               0.000224737               0.000000000               0.000000000               0.000000000               0.000000000               0.000222263               0.000784086               0.000026646              -0.000014662               0.000266247               0.000251585               0.000000000               0.000000000               0.000000000               0.000000000               0.000242814               0.000857125               0.000028677              -0.000016085               0.000291067               0.000274982               0.000000000               0.000000000               0.000000000               0.000000000               0.000239005               0.000932508               0.000037366              -0.000026937               0.000319812               0.000292875               0.000000000               0.000000000               0.000000000               0.000000000               0.000226943               0.001007370               0.000043832              -0.000040818               0.000349392               0.000308575               0.000000000               0.000000000               0.000000000               0.000000000               0.000213080               0.001083038               0.000045018              -0.000055474               0.000379500               0.000324026               0.000000000               0.000000000               0.000000000               0.000000000               0.000198136               0.001162398               0.000042687              -0.000070999               0.000411128               0.000340130               0.000000000               0.000000000               0.000000000               0.000000000               0.000180555               0.001240815               0.000036752              -0.000087394               0.000442732               0.000355338               0.000000000               0.000000000               0.000000000               0.000000000               0.000160178               0.001316224               0.000028863              -0.000104461               0.000473557               0.000369096               0.000000000               0.000000000               0.000000000               0.000000000               0.000138952               0.001390543               0.000019784              -0.000121710               0.000504080               0.000382369               0.000000000               0.000000000               0.000000000               0.000000000               0.000118294               0.001465748               0.000010221              -0.000138858               0.000534864               0.000396006               0.000000000               0.000000000               0.000000000               0.000000000               0.000099814               0.001539397               0.000003100              -0.000154994               0.000564792               0.000409798               0.000000000               0.000000000               0.000000000               0.000000000               0.000083775               0.001568762              -0.000002228              -0.000164679               0.000577808               0.000413129               0.000000000               0.000000000               0.000000000               0.000000000               0.000160426               0.000239010               0.000128873               0.000030283               0.000069575               0.000099858               0.000000000               0.000000000               0.000000000               0.000000000               0.000139639               0.000339990               0.000114278               0.000009866               0.000110040               0.000119906               0.000000000               0.000000000               0.000000000               0.000000000               0.000131539               0.000505873               0.000086999              -0.000013907               0.000173259               0.000159351               0.000000000               0.000000000               0.000000000               0.000000000               0.000148039               0.000623103               0.000060944              -0.000022373               0.000215157               0.000192783               0.000000000               0.000000000               0.000000000               0.000000000               0.000178399               0.000715556               0.000041879              -0.000022545               0.000246031               0.000223487               0.000000000               0.000000000               0.000000000               0.000000000               0.000220887               0.000797566               0.000028765              -0.000016863               0.000271474               0.000254611               0.000000000               0.000000000               0.000000000               0.000000000               0.000256117               0.000876506               0.000025321              -0.000013520               0.000296672               0.000283153               0.000000000               0.000000000               0.000000000               0.000000000               0.000267069               0.000952804               0.000031049              -0.000018950               0.000323915               0.000304965               0.000000000               0.000000000               0.000000000               0.000000000               0.000261728               0.001026697               0.000038101              -0.000030189               0.000352292               0.000322103               0.000000000               0.000000000               0.000000000               0.000000000               0.000252317               0.001096582               0.000041766              -0.000042454               0.000379675               0.000337221               0.000000000               0.000000000               0.000000000               0.000000000               0.000240985               0.001169749               0.000042107              -0.000055849               0.000408529               0.000352680               0.000000000               0.000000000               0.000000000               0.000000000               0.000229074               0.001246748               0.000037893              -0.000069941               0.000438892               0.000368951               0.000000000               0.000000000               0.000000000               0.000000000               0.000215634               0.001322360               0.000031516              -0.000084432               0.000468926               0.000384494               0.000000000               0.000000000               0.000000000               0.000000000               0.000199071               0.001393846               0.000023795              -0.000099579               0.000497804               0.000398225               0.000000000               0.000000000               0.000000000               0.000000000               0.000182719               0.001467600               0.000014685              -0.000114930               0.000527505               0.000412575               0.000000000               0.000000000               0.000000000               0.000000000               0.000166358               0.001542827               0.000005895              -0.000130469               0.000557760               0.000427291               0.000000000               0.000000000               0.000000000               0.000000000               0.000148688               0.001572948              -0.000001276              -0.000140860               0.000571264               0.000430404               0.000000000               0.000000000               0.000000000               0.000000000               0.000147446               0.000195949               0.000109819               0.000030798               0.000055050               0.000085848               0.000000000               0.000000000               0.000000000               0.000000000               0.000142738               0.000302021               0.000108833               0.000015774               0.000095414               0.000111188               0.000000000               0.000000000               0.000000000               0.000000000               0.000143503               0.000466265               0.000094250              -0.000004469               0.000156910               0.000152440               0.000000000               0.000000000               0.000000000               0.000000000               0.000158360               0.000596091               0.000072159              -0.000015127               0.000203737               0.000188611               0.000000000               0.000000000               0.000000000               0.000000000               0.000184272               0.000709128               0.000052811              -0.000019539               0.000242887               0.000223348               0.000000000               0.000000000               0.000000000               0.000000000               0.000222796               0.000807407               0.000036339              -0.000017377               0.000274925               0.000257548               0.000000000               0.000000000               0.000000000               0.000000000               0.000261332               0.000891984               0.000025368              -0.000013499               0.000301825               0.000288326               0.000000000               0.000000000               0.000000000               0.000000000               0.000283910               0.000969618               0.000023429              -0.000014736               0.000328115               0.000313379               0.000000000               0.000000000               0.000000000               0.000000000               0.000288180               0.001042607               0.000027832              -0.000022258               0.000354952               0.000332693               0.000000000               0.000000000               0.000000000               0.000000000               0.000285036               0.001109807               0.000033008              -0.000031837               0.000380544               0.000348707               0.000000000               0.000000000               0.000000000               0.000000000               0.000279324               0.001177229               0.000035599              -0.000042407               0.000406542               0.000364134               0.000000000               0.000000000               0.000000000               0.000000000               0.000273551               0.001249810               0.000035051              -0.000053645               0.000434481               0.000380836               0.000000000               0.000000000               0.000000000               0.000000000               0.000268127               0.001325651               0.000031142              -0.000065159               0.000463599               0.000398440               0.000000000               0.000000000               0.000000000               0.000000000               0.000260205               0.001398962               0.000025726              -0.000077293               0.000492080               0.000414787               0.000000000               0.000000000               0.000000000               0.000000000               0.000249692               0.001470346               0.000019191              -0.000090158               0.000520163               0.000430005               0.000000000               0.000000000               0.000000000               0.000000000               0.000237941               0.001544709               0.000010081              -0.000103860               0.000549518               0.000445658               0.000000000               0.000000000               0.000000000               0.000000000               0.000222949               0.001577307               0.000001639              -0.000113557               0.000563616               0.000450059               0.000000000               0.000000000               0.000000000               0.000000000               0.000129090               0.000152274               0.000085458               0.000029374               0.000040966               0.000070340               0.000000000               0.000000000               0.000000000               0.000000000               0.000143161               0.000256584               0.000096016               0.000021612               0.000078323               0.000099935               0.000000000               0.000000000               0.000000000               0.000000000               0.000157663               0.000423438               0.000094169               0.000006194               0.000139080               0.000145274               0.000000000               0.000000000               0.000000000               0.000000000               0.000175075               0.000568022               0.000078160              -0.000005350               0.000191122               0.000185772               0.000000000               0.000000000               0.000000000               0.000000000               0.000198271               0.000695355               0.000060639              -0.000012568               0.000235972               0.000223404               0.000000000               0.000000000               0.000000000               0.000000000               0.000228107               0.000802661               0.000042931              -0.000014792               0.000272482               0.000257689               0.000000000               0.000000000               0.000000000               0.000000000               0.000262411               0.000892979               0.000026661              -0.000013218               0.000302063               0.000288845               0.000000000               0.000000000               0.000000000               0.000000000               0.000291540               0.000975625               0.000017650              -0.000012626               0.000329413               0.000316788               0.000000000               0.000000000               0.000000000               0.000000000               0.000308828               0.001053658               0.000017697              -0.000015897               0.000356515               0.000340618               0.000000000               0.000000000               0.000000000               0.000000000               0.000315921               0.001124516               0.000022302              -0.000022094               0.000382200               0.000360106               0.000000000               0.000000000               0.000000000               0.000000000               0.000317541               0.001189405               0.000026294              -0.000029598               0.000406330               0.000376732               0.000000000               0.000000000               0.000000000               0.000000000               0.000317538               0.001256744               0.000028373              -0.000038016               0.000431583               0.000393566               0.000000000               0.000000000               0.000000000               0.000000000               0.000318217               0.001329438               0.000027077              -0.000046848               0.000458758               0.000411910               0.000000000               0.000000000               0.000000000               0.000000000               0.000319063               0.001405211               0.000023244              -0.000056002               0.000487066               0.000431064               0.000000000               0.000000000               0.000000000               0.000000000               0.000316473               0.001475876               0.000017924              -0.000065807               0.000513889               0.000448082               0.000000000               0.000000000               0.000000000               0.000000000               0.000311357               0.001543848               0.000010537              -0.000076222               0.000540018               0.000463796               0.000000000               0.000000000               0.000000000               0.000000000               0.000302469               0.001574443               0.000003820              -0.000083379               0.000552602               0.000469223               0.000000000               0.000000000               0.000000000               0.000000000               0.000106675               0.000116450               0.000061459               0.000025447               0.000030334               0.000055781               0.000000000               0.000000000               0.000000000               0.000000000               0.000141241               0.000218219               0.000077798               0.000025688               0.000064176               0.000089864               0.000000000               0.000000000               0.000000000               0.000000000               0.000172468               0.000384349               0.000084657               0.000016632               0.000122571               0.000139203               0.000000000               0.000000000               0.000000000               0.000000000               0.000195691               0.000533002               0.000075054               0.000006759               0.000175413               0.000182172               0.000000000               0.000000000               0.000000000               0.000000000               0.000216476               0.000666860               0.000060410              -0.000002179               0.000223011               0.000220832               0.000000000               0.000000000               0.000000000               0.000000000               0.000239657               0.000783054               0.000043448              -0.000008010               0.000263685               0.000255675               0.000000000               0.000000000               0.000000000               0.000000000               0.000269110               0.000885009               0.000026881              -0.000009710               0.000298237               0.000288527               0.000000000               0.000000000               0.000000000               0.000000000               0.000300574               0.000977675               0.000014986              -0.000009494               0.000329053               0.000319559               0.000000000               0.000000000               0.000000000               0.000000000               0.000325745               0.001062090               0.000011413              -0.000010607               0.000357562               0.000346955               0.000000000               0.000000000               0.000000000               0.000000000               0.000342270               0.001138351               0.000012891              -0.000013942               0.000384094               0.000370152               0.000000000               0.000000000               0.000000000               0.000000000               0.000351344               0.001204269               0.000015484              -0.000018780               0.000407679               0.000388899               0.000000000               0.000000000               0.000000000               0.000000000               0.000356545               0.001266292               0.000018058              -0.000024582               0.000430287               0.000405705               0.000000000               0.000000000               0.000000000               0.000000000               0.000362773               0.001334266               0.000018674              -0.000030743               0.000454999               0.000424255               0.000000000               0.000000000               0.000000000               0.000000000               0.000370776               0.001407368               0.000016583              -0.000036880               0.000481411               0.000444532               0.000000000               0.000000000               0.000000000               0.000000000               0.000378310               0.001479383               0.000012448              -0.000043056               0.000507475               0.000464419               0.000000000               0.000000000               0.000000000               0.000000000               0.000384875               0.001548039               0.000007742              -0.000049176               0.000532400               0.000483224               0.000000000               0.000000000               0.000000000               0.000000000               0.000384213               0.001578327               0.000004039              -0.000053211               0.000543841               0.000490630               0.000000000               0.000000000               0.000000000               0.000000000               0.000084726               0.000091353               0.000039029               0.000020353               0.000023666               0.000044019               0.000000000               0.000000000               0.000000000               0.000000000               0.000139279               0.000188244               0.000055099               0.000028699               0.000053181               0.000081880               0.000000000               0.000000000               0.000000000               0.000000000               0.000187538               0.000347917               0.000064604               0.000026837               0.000107026               0.000133863               0.000000000               0.000000000               0.000000000               0.000000000               0.000215226               0.000497406               0.000059084               0.000018534               0.000159623               0.000178156               0.000000000               0.000000000               0.000000000               0.000000000               0.000235046               0.000635343               0.000049195               0.000008724               0.000208871               0.000217595               0.000000000               0.000000000               0.000000000               0.000000000               0.000255296               0.000759856               0.000037292               0.000000754               0.000253032               0.000253785               0.000000000               0.000000000               0.000000000               0.000000000               0.000280262               0.000873419               0.000024740              -0.000004079               0.000292497               0.000288418               0.000000000               0.000000000               0.000000000               0.000000000               0.000309157               0.000974843               0.000013103              -0.000005922               0.000326918               0.000320997               0.000000000               0.000000000               0.000000000               0.000000000               0.000336652               0.001065407               0.000006914              -0.000006931               0.000357443               0.000350511               0.000000000               0.000000000               0.000000000               0.000000000               0.000359153               0.001146188               0.000005873              -0.000008591               0.000384923               0.000376331               0.000000000               0.000000000               0.000000000               0.000000000               0.000376283               0.001216116               0.000006337              -0.000010908               0.000409004               0.000398096               0.000000000               0.000000000               0.000000000               0.000000000               0.000388686               0.001277520               0.000008061              -0.000013933               0.000430480               0.000416547               0.000000000               0.000000000               0.000000000               0.000000000               0.000400525               0.001340568               0.000009445              -0.000017374               0.000452643               0.000435269               0.000000000               0.000000000               0.000000000               0.000000000               0.000413430               0.001406969               0.000008593              -0.000020835               0.000475930               0.000455095               0.000000000               0.000000000               0.000000000               0.000000000               0.000428952               0.001479115               0.000006214              -0.000024032               0.000501044               0.000477012               0.000000000               0.000000000               0.000000000               0.000000000               0.000446017               0.001553059               0.000003555              -0.000026876               0.000526640               0.000499764               0.000000000               0.000000000               0.000000000               0.000000000               0.000452593               0.001586084               0.000001743              -0.000028538               0.000538202               0.000509664               0.000000000               0.000000000               0.000000000               0.000000000               0.000070406               0.000075319               0.000018377               0.000016987               0.000019444               0.000036431               0.000000000               0.000000000               0.000000000               0.000000000               0.000138794               0.000168179               0.000028235               0.000031025               0.000045717               0.000076742               0.000000000               0.000000000               0.000000000               0.000000000               0.000197595               0.000322317               0.000034757               0.000033808               0.000096168               0.000129977               0.000000000               0.000000000               0.000000000               0.000000000               0.000229262               0.000471475               0.000032511               0.000027039               0.000148144               0.000175182               0.000000000               0.000000000               0.000000000               0.000000000               0.000250835               0.000611448               0.000027905               0.000017632               0.000197936               0.000215568               0.000000000               0.000000000               0.000000000               0.000000000               0.000269478               0.000741998               0.000021700               0.000008304               0.000244562               0.000252866               0.000000000               0.000000000               0.000000000               0.000000000               0.000289939               0.000862484               0.000014585               0.000000917               0.000287186               0.000288103               0.000000000               0.000000000               0.000000000               0.000000000               0.000314163               0.000968685               0.000007638              -0.000003275               0.000323983               0.000320709               0.000000000               0.000000000               0.000000000               0.000000000               0.000342320               0.001065182               0.000003407              -0.000004778               0.000356650               0.000351872               0.000000000               0.000000000               0.000000000               0.000000000               0.000368736               0.001149979               0.000002284              -0.000005471               0.000385146               0.000379675               0.000000000               0.000000000               0.000000000               0.000000000               0.000391270               0.001222595               0.000001903              -0.000006098               0.000409560               0.000403462               0.000000000               0.000000000               0.000000000               0.000000000               0.000409944               0.001285168               0.000002273              -0.000006917               0.000430691               0.000423774               0.000000000               0.000000000               0.000000000               0.000000000               0.000426245               0.001344326               0.000002960              -0.000008199               0.000450837               0.000442638               0.000000000               0.000000000               0.000000000               0.000000000               0.000442557               0.001405751               0.000002625              -0.000009760               0.000471832               0.000462072               0.000000000               0.000000000               0.000000000               0.000000000               0.000462224               0.001477260               0.000001723              -0.000011323               0.000496190               0.000484866               0.000000000               0.000000000               0.000000000               0.000000000               0.000483656               0.001553493               0.000000591              -0.000012815               0.000522098               0.000509282               0.000000000               0.000000000               0.000000000               0.000000000               0.000492866               0.001588204              -0.000000223              -0.000013701               0.000533963               0.000520262               0.000000000               0.000000000               0.000000000               0.000000000               0.000065702               0.000069741               0.000000000               0.000015920               0.000017940               0.000033860               0.000000000               0.000000000               0.000000000               0.000000000               0.000138504               0.000161341               0.000000000               0.000031771               0.000043189               0.000074961               0.000000000               0.000000000               0.000000000               0.000000000               0.000200379               0.000313457               0.000000000               0.000035960               0.000092498               0.000128458               0.000000000               0.000000000               0.000000000               0.000000000               0.000234834               0.000462245              -0.000000000               0.000030282               0.000143986               0.000174268               0.000000000               0.000000000               0.000000000               0.000000000               0.000256964               0.000602029               0.000000000               0.000021108               0.000193638               0.000214746               0.000000000               0.000000000               0.000000000               0.000000000               0.000274110               0.000733707              -0.000000000               0.000011078               0.000240874               0.000251952               0.000000000               0.000000000               0.000000000               0.000000000               0.000293531               0.000857164              -0.000000000               0.000002929               0.000284742               0.000287671               0.000000000               0.000000000               0.000000000               0.000000000               0.000316953               0.000966892              -0.000000000              -0.000002004               0.000322962               0.000320958               0.000000000               0.000000000               0.000000000               0.000000000               0.000345097               0.001066015              -0.000000000              -0.000003841               0.000356615               0.000352774               0.000000000               0.000000000               0.000000000               0.000000000               0.000372161               0.001151113              -0.000000000              -0.000004329               0.000385143               0.000380815               0.000000000               0.000000000               0.000000000               0.000000000               0.000396067               0.001224281               0.000000000              -0.000004510               0.000409593               0.000405083               0.000000000               0.000000000               0.000000000               0.000000000               0.000417112               0.001287748               0.000000000              -0.000004551               0.000430762               0.000426211               0.000000000               0.000000000               0.000000000               0.000000000               0.000435240               0.001345016               0.000000000              -0.000004912               0.000449971               0.000445059               0.000000000               0.000000000               0.000000000               0.000000000               0.000452992               0.001404677               0.000000000              -0.000005713               0.000470125               0.000464413               0.000000000               0.000000000               0.000000000               0.000000000               0.000473789               0.001475981               0.000000000              -0.000006827               0.000494265               0.000487438               0.000000000               0.000000000               0.000000000               0.000000000               0.000495752               0.001552457               0.000000000              -0.000008150               0.000520197               0.000512047               0.000000000               0.000000000               0.000000000               0.000000000               0.000504961               0.001587552              -0.000000000              -0.000009084               0.000532207               0.000523123               0.000000000               0.000000000               0.000000000               0.000000000               0.000058900               0.000471382               0.000000000              -0.000036835               0.000169404               0.000132569               0.000000000               0.000000000               0.000000000               0.000000000               0.000077856               0.000403016               0.000000000              -0.000021181               0.000141397               0.000120217               0.000000000               0.000000000               0.000000000               0.000000000               0.000113829               0.000358311               0.000000000              -0.000002103               0.000120137               0.000118034               0.000000000               0.000000000               0.000000000               0.000000000               0.000123605               0.000348126               0.000000000               0.000002836               0.000115096               0.000117932               0.000000000               0.000000000               0.000000000               0.000000000               0.000119829               0.000355985               0.000000000               0.000000438               0.000118515               0.000118952               0.000000000               0.000000000               0.000000000               0.000000000               0.000111820               0.000360452              -0.000000000              -0.000003124               0.000121191               0.000118067               0.000000000               0.000000000               0.000000000               0.000000000               0.000107557               0.000354213              -0.000000000              -0.000003943               0.000119384               0.000115441               0.000000000               0.000000000               0.000000000               0.000000000               0.000107634               0.000347276              -0.000000000              -0.000003047               0.000116773               0.000113726               0.000000000               0.000000000               0.000000000               0.000000000               0.000109317               0.000336752              -0.000000000              -0.000001100               0.000112616               0.000111516               0.000000000               0.000000000               0.000000000               0.000000000               0.000112699               0.000322361              -0.000000000               0.000001967               0.000106797               0.000108764               0.000000000               0.000000000               0.000000000               0.000000000               0.000115998               0.000308877              -0.000000000               0.000004890               0.000101328               0.000106218               0.000000000               0.000000000               0.000000000               0.000000000               0.000114489               0.000298123               0.000000000               0.000005668               0.000097484               0.000103152               0.000000000               0.000000000               0.000000000               0.000000000               0.000105949               0.000293062               0.000000000               0.000003098               0.000096654               0.000099752               0.000000000               0.000000000               0.000000000               0.000000000               0.000090093               0.000295679               0.000000000              -0.000003175               0.000099617               0.000096442               0.000000000               0.000000000               0.000000000               0.000000000               0.000066065               0.000305538              -0.000000000              -0.000013418               0.000106318               0.000092900               0.000000000               0.000000000               0.000000000               0.000000000               0.000034719               0.000321328              -0.000000000              -0.000027146               0.000116157               0.000089011               0.000000000               0.000000000               0.000000000               0.000000000               0.000020081               0.000336831              -0.000000000              -0.000034573               0.000123800               0.000089227               0.000000000               0.000000000               0.000000000               0.000000000               0.000060626               0.000464485              -0.000037835              -0.000035326               0.000166602               0.000131276               0.000000000               0.000000000               0.000000000               0.000000000               0.000078415               0.000398466              -0.000025221              -0.000020403               0.000139622               0.000119219               0.000000000               0.000000000               0.000000000               0.000000000               0.000112472               0.000355630              -0.000008728              -0.000002277               0.000119301               0.000117024               0.000000000               0.000000000               0.000000000               0.000000000               0.000121614               0.000349263               0.000001194               0.000001948               0.000115770               0.000117718               0.000000000               0.000000000               0.000000000               0.000000000               0.000119828               0.000356338               0.000003267               0.000000393               0.000118647               0.000119040               0.000000000               0.000000000               0.000000000               0.000000000               0.000115032               0.000360804              -0.000001479              -0.000001963               0.000120921               0.000118958               0.000000000               0.000000000               0.000000000               0.000000000               0.000109847               0.000354371              -0.000003716              -0.000003104               0.000119157               0.000116053               0.000000000               0.000000000               0.000000000               0.000000000               0.000109991               0.000349049              -0.000003118              -0.000002385               0.000117143               0.000114759               0.000000000               0.000000000               0.000000000               0.000000000               0.000112635               0.000342339              -0.000004974              -0.000000554               0.000114297               0.000113742               0.000000000               0.000000000               0.000000000               0.000000000               0.000113673               0.000333060              -0.000006546               0.000000995               0.000110687               0.000111682               0.000000000               0.000000000               0.000000000               0.000000000               0.000113980               0.000325694              -0.000007427               0.000002031               0.000107887               0.000109917               0.000000000               0.000000000               0.000000000               0.000000000               0.000111264               0.000321745              -0.000007535               0.000001506               0.000106745               0.000108251               0.000000000               0.000000000               0.000000000               0.000000000               0.000101664               0.000322671              -0.000006032              -0.000002210               0.000108293               0.000106083               0.000000000               0.000000000               0.000000000               0.000000000               0.000085441               0.000330006              -0.000003842              -0.000009210               0.000113071               0.000103860               0.000000000               0.000000000               0.000000000               0.000000000               0.000062752               0.000344129              -0.000001571              -0.000019484               0.000121203               0.000101719               0.000000000               0.000000000               0.000000000               0.000000000               0.000033114               0.000364620               0.000000037              -0.000033160               0.000132592               0.000099432               0.000000000               0.000000000               0.000000000               0.000000000               0.000020161               0.000384469              -0.000000955              -0.000040498               0.000141654               0.000101156               0.000000000               0.000000000               0.000000000               0.000000000               0.000073013               0.000452492              -0.000073202              -0.000029182               0.000160556               0.000131375               0.000000000               0.000000000               0.000000000               0.000000000               0.000084925               0.000389528              -0.000046699              -0.000016844               0.000135456               0.000118612               0.000000000               0.000000000               0.000000000               0.000000000               0.000113222               0.000355426              -0.000014266              -0.000001970               0.000119131               0.000117161               0.000000000               0.000000000               0.000000000               0.000000000               0.000117208               0.000354235               0.000003005              -0.000000326               0.000118186               0.000117860               0.000000000               0.000000000               0.000000000               0.000000000               0.000114827               0.000361730               0.000006373              -0.000002156               0.000121294               0.000119138               0.000000000               0.000000000               0.000000000               0.000000000               0.000117164               0.000366326              -0.000002301              -0.000001854               0.000122726               0.000120871               0.000000000               0.000000000               0.000000000               0.000000000               0.000120794               0.000364738              -0.000006874              -0.000000294               0.000121676               0.000121382               0.000000000               0.000000000               0.000000000               0.000000000               0.000125079               0.000365781              -0.000006492               0.000001182               0.000121532               0.000122714               0.000000000               0.000000000               0.000000000               0.000000000               0.000125654               0.000366877              -0.000011098               0.000001261               0.000121871               0.000123132               0.000000000               0.000000000               0.000000000               0.000000000               0.000120356               0.000370423              -0.000015109              -0.000001169               0.000123863               0.000122693               0.000000000               0.000000000               0.000000000               0.000000000               0.000112816               0.000378490              -0.000017717              -0.000005005               0.000127830               0.000122825               0.000000000               0.000000000               0.000000000               0.000000000               0.000103562               0.000391837              -0.000019150              -0.000010144               0.000133992               0.000123848               0.000000000               0.000000000               0.000000000               0.000000000               0.000089320               0.000409018              -0.000018101              -0.000017632               0.000142216               0.000124583               0.000000000               0.000000000               0.000000000               0.000000000               0.000071173               0.000429941              -0.000015430              -0.000027053               0.000152330               0.000125277               0.000000000               0.000000000               0.000000000               0.000000000               0.000050740               0.000455548              -0.000011429              -0.000037916               0.000164487               0.000126571               0.000000000               0.000000000               0.000000000               0.000000000               0.000026650               0.000486208              -0.000006119              -0.000050782               0.000178995               0.000128213               0.000000000               0.000000000               0.000000000               0.000000000               0.000018368               0.000512660              -0.000005869              -0.000057194               0.000189950               0.000132756               0.000000000               0.000000000               0.000000000               0.000000000               0.000091600               0.000437955              -0.000099705              -0.000020394               0.000152782               0.000132387               0.000000000               0.000000000               0.000000000               0.000000000               0.000090819               0.000377989              -0.000061246              -0.000013192               0.000130392               0.000117201               0.000000000               0.000000000               0.000000000               0.000000000               0.000108750               0.000360424              -0.000017859              -0.000004272               0.000121564               0.000117292               0.000000000               0.000000000               0.000000000               0.000000000               0.000111077               0.000367960               0.000004876              -0.000004341               0.000124099               0.000119758               0.000000000               0.000000000               0.000000000               0.000000000               0.000114534               0.000382779               0.000007882              -0.000004897               0.000129224               0.000124327               0.000000000               0.000000000               0.000000000               0.000000000               0.000125273               0.000390510              -0.000004425              -0.000001836               0.000130781               0.000128944               0.000000000               0.000000000               0.000000000               0.000000000               0.000136313               0.000400098              -0.000012608               0.000001105               0.000132996               0.000134101               0.000000000               0.000000000               0.000000000               0.000000000               0.000140616               0.000410781              -0.000015404               0.000001383               0.000136465               0.000137848               0.000000000               0.000000000               0.000000000               0.000000000               0.000140880               0.000426223              -0.000022359              -0.000000448               0.000142222               0.000141774               0.000000000               0.000000000               0.000000000               0.000000000               0.000133110               0.000447552              -0.000027901              -0.000006028               0.000151192               0.000145164               0.000000000               0.000000000               0.000000000               0.000000000               0.000120003               0.000475178              -0.000031461              -0.000014396               0.000163190               0.000148794               0.000000000               0.000000000               0.000000000               0.000000000               0.000105670               0.000509113              -0.000032902              -0.000024013               0.000177707               0.000153694               0.000000000               0.000000000               0.000000000               0.000000000               0.000086500               0.000545468              -0.000031711              -0.000035746               0.000193736               0.000157990               0.000000000               0.000000000               0.000000000               0.000000000               0.000064239               0.000582918              -0.000028048              -0.000048775               0.000210562               0.000161787               0.000000000               0.000000000               0.000000000               0.000000000               0.000043012               0.000621581              -0.000021656              -0.000061568               0.000227714               0.000166146               0.000000000               0.000000000               0.000000000               0.000000000               0.000021717               0.000660535              -0.000012172              -0.000074423               0.000244984               0.000170561               0.000000000               0.000000000               0.000000000               0.000000000               0.000016085               0.000689143              -0.000009749              -0.000080111               0.000256415               0.000176305               0.000000000               0.000000000               0.000000000               0.000000000               0.000107645               0.000412903              -0.000123388              -0.000011246               0.000141382               0.000130136               0.000000000               0.000000000               0.000000000               0.000000000               0.000095077               0.000366206              -0.000072860              -0.000010122               0.000125442               0.000115319               0.000000000               0.000000000               0.000000000               0.000000000               0.000103388               0.000372987              -0.000019887              -0.000007853               0.000126945               0.000119093               0.000000000               0.000000000               0.000000000               0.000000000               0.000107030               0.000397437               0.000003755              -0.000009543               0.000135659               0.000126115               0.000000000               0.000000000               0.000000000               0.000000000               0.000116509               0.000422168               0.000004317              -0.000009080               0.000143748               0.000134668               0.000000000               0.000000000               0.000000000               0.000000000               0.000136318               0.000444794              -0.000009940              -0.000004480               0.000149756               0.000145276               0.000000000               0.000000000               0.000000000               0.000000000               0.000154304               0.000471927              -0.000020403              -0.000001127               0.000157683               0.000156556               0.000000000               0.000000000               0.000000000               0.000000000               0.000160564               0.000499826              -0.000025149              -0.000002267               0.000167362               0.000165096               0.000000000               0.000000000               0.000000000               0.000000000               0.000158977               0.000533653              -0.000032502              -0.000007090               0.000180246               0.000173156               0.000000000               0.000000000               0.000000000               0.000000000               0.000146881               0.000571117              -0.000038592              -0.000016309               0.000195807               0.000179498               0.000000000               0.000000000               0.000000000               0.000000000               0.000131293               0.000614544              -0.000041265              -0.000027583               0.000214040               0.000186457               0.000000000               0.000000000               0.000000000               0.000000000               0.000114913               0.000662168              -0.000041441              -0.000039678               0.000233947               0.000194268               0.000000000               0.000000000               0.000000000               0.000000000               0.000093185               0.000710038              -0.000038723              -0.000053810               0.000254614               0.000200804               0.000000000               0.000000000               0.000000000               0.000000000               0.000068496               0.000756690              -0.000033282              -0.000068900               0.000275194               0.000206294               0.000000000               0.000000000               0.000000000               0.000000000               0.000045075               0.000801332              -0.000024967              -0.000083263               0.000294862               0.000211599               0.000000000               0.000000000               0.000000000               0.000000000               0.000022302               0.000842294              -0.000013576              -0.000096923               0.000313069               0.000216146               0.000000000               0.000000000               0.000000000               0.000000000               0.000016064               0.000869750              -0.000010178              -0.000102694               0.000324145               0.000221451               0.000000000               0.000000000               0.000000000               0.000000000               0.000122577               0.000384789              -0.000138635              -0.000002132               0.000128973               0.000126840               0.000000000               0.000000000               0.000000000               0.000000000               0.000100021               0.000363203              -0.000081511              -0.000007893               0.000123697               0.000115805               0.000000000               0.000000000               0.000000000               0.000000000               0.000099769               0.000398617              -0.000024868              -0.000012414               0.000137009               0.000124595               0.000000000               0.000000000               0.000000000               0.000000000               0.000107183               0.000446726              -0.000002972              -0.000015647               0.000154123               0.000138476               0.000000000               0.000000000               0.000000000               0.000000000               0.000129058               0.000490978              -0.000001347              -0.000012975               0.000167983               0.000155007               0.000000000               0.000000000               0.000000000               0.000000000               0.000159451               0.000532159              -0.000015746              -0.000006726               0.000179626               0.000172901               0.000000000               0.000000000               0.000000000               0.000000000               0.000177194               0.000571244              -0.000027616              -0.000004958               0.000192065               0.000187107               0.000000000               0.000000000               0.000000000               0.000000000               0.000180627               0.000616105              -0.000033923              -0.000009278               0.000208459               0.000199181               0.000000000               0.000000000               0.000000000               0.000000000               0.000173696               0.000663574              -0.000041861              -0.000017811               0.000227126               0.000209315               0.000000000               0.000000000               0.000000000               0.000000000               0.000157466               0.000713433              -0.000047744              -0.000030129               0.000247852               0.000217722               0.000000000               0.000000000               0.000000000               0.000000000               0.000139405               0.000765936              -0.000048266              -0.000043465               0.000269798               0.000226333               0.000000000               0.000000000               0.000000000               0.000000000               0.000120532               0.000819696              -0.000045796              -0.000057262               0.000292317               0.000235054               0.000000000               0.000000000               0.000000000               0.000000000               0.000096899               0.000870639              -0.000040658              -0.000072492               0.000314374               0.000241882               0.000000000               0.000000000               0.000000000               0.000000000               0.000071394               0.000918062              -0.000033240              -0.000087985               0.000335346               0.000247361               0.000000000               0.000000000               0.000000000               0.000000000               0.000047479               0.000962443              -0.000023635              -0.000102500               0.000354978               0.000252478               0.000000000               0.000000000               0.000000000               0.000000000               0.000023586               0.001002051              -0.000012249              -0.000116411               0.000372817               0.000256406               0.000000000               0.000000000               0.000000000               0.000000000               0.000016500               0.001028552              -0.000009299              -0.000122381               0.000383641               0.000261260               0.000000000               0.000000000               0.000000000               0.000000000               0.000134855               0.000359215              -0.000144975               0.000005668               0.000117848               0.000123516               0.000000000               0.000000000               0.000000000               0.000000000               0.000104263               0.000367980              -0.000090364              -0.000006899               0.000124959               0.000118060               0.000000000               0.000000000               0.000000000               0.000000000               0.000100770               0.000440052              -0.000033973              -0.000017218               0.000152422               0.000135204               0.000000000               0.000000000               0.000000000               0.000000000               0.000118692               0.000511898              -0.000010663              -0.000019478               0.000177124               0.000157646               0.000000000               0.000000000               0.000000000               0.000000000               0.000151697               0.000572736              -0.000010214              -0.000014706               0.000195812               0.000181106               0.000000000               0.000000000               0.000000000               0.000000000               0.000186446               0.000621664              -0.000026093              -0.000007791               0.000209816               0.000202026               0.000000000               0.000000000               0.000000000               0.000000000               0.000203308               0.000671342              -0.000037328              -0.000007677               0.000226338               0.000218660               0.000000000               0.000000000               0.000000000               0.000000000               0.000200159               0.000727577              -0.000042327              -0.000015887               0.000247819               0.000231932               0.000000000               0.000000000               0.000000000               0.000000000               0.000185199               0.000782901              -0.000048936              -0.000028413               0.000270436               0.000242023               0.000000000               0.000000000               0.000000000               0.000000000               0.000163994               0.000840353              -0.000052208              -0.000043546               0.000294630               0.000251084               0.000000000               0.000000000               0.000000000               0.000000000               0.000143772               0.000900583              -0.000049902              -0.000058658               0.000319744               0.000261086               0.000000000               0.000000000               0.000000000               0.000000000               0.000121588               0.000959013              -0.000044693              -0.000074281               0.000344428               0.000270147               0.000000000               0.000000000               0.000000000               0.000000000               0.000094982               0.001013608              -0.000038173              -0.000091083               0.000368227               0.000277144               0.000000000               0.000000000               0.000000000               0.000000000               0.000069299               0.001065411              -0.000029604              -0.000107189               0.000390863               0.000283674               0.000000000               0.000000000               0.000000000               0.000000000               0.000045738               0.001114222              -0.000020032              -0.000122126               0.000412112               0.000289987               0.000000000               0.000000000               0.000000000               0.000000000               0.000021962               0.001158358              -0.000010322              -0.000136559               0.000431635               0.000295076               0.000000000               0.000000000               0.000000000               0.000000000               0.000015268               0.001187752              -0.000008616              -0.000142743               0.000443495               0.000300751               0.000000000               0.000000000               0.000000000               0.000000000               0.000146343               0.000337039              -0.000147499               0.000012748               0.000108096               0.000120844               0.000000000               0.000000000               0.000000000               0.000000000               0.000112182               0.000377063              -0.000097334              -0.000005065               0.000127374               0.000122310               0.000000000               0.000000000               0.000000000               0.000000000               0.000108178               0.000487005              -0.000044729              -0.000020309               0.000169103               0.000148794               0.000000000               0.000000000               0.000000000               0.000000000               0.000134072               0.000577300              -0.000023007              -0.000021886               0.000199727               0.000177841               0.000000000               0.000000000               0.000000000               0.000000000               0.000175546               0.000645008              -0.000021671              -0.000014796               0.000219932               0.000205136               0.000000000               0.000000000               0.000000000               0.000000000               0.000211067               0.000698922              -0.000032563              -0.000008215               0.000235710               0.000227495               0.000000000               0.000000000               0.000000000               0.000000000               0.000223385               0.000760824              -0.000040432              -0.000011334               0.000257383               0.000246050               0.000000000               0.000000000               0.000000000               0.000000000               0.000211614               0.000824487              -0.000044355              -0.000023705               0.000282728               0.000259023               0.000000000               0.000000000               0.000000000               0.000000000               0.000190795               0.000888125              -0.000050277              -0.000039467               0.000309195               0.000269727               0.000000000               0.000000000               0.000000000               0.000000000               0.000168036               0.000954765              -0.000049577              -0.000056332               0.000337029               0.000280697               0.000000000               0.000000000               0.000000000               0.000000000               0.000146077               0.001024809              -0.000044715              -0.000073322               0.000366040               0.000292718               0.000000000               0.000000000               0.000000000               0.000000000               0.000121114               0.001092212              -0.000038942              -0.000091108               0.000394436               0.000303328               0.000000000               0.000000000               0.000000000               0.000000000               0.000095239               0.001157195              -0.000031196              -0.000108934               0.000422039               0.000313105               0.000000000               0.000000000               0.000000000               0.000000000               0.000070571               0.001220621              -0.000022800              -0.000126113               0.000448907               0.000322794               0.000000000               0.000000000               0.000000000               0.000000000               0.000046337               0.001279814              -0.000014673              -0.000142600               0.000474134               0.000331534               0.000000000               0.000000000               0.000000000               0.000000000               0.000022510               0.001333290              -0.000007202              -0.000158219               0.000497165               0.000338946               0.000000000               0.000000000               0.000000000               0.000000000               0.000014695               0.001367762              -0.000006984              -0.000165459               0.000511069               0.000345610               0.000000000               0.000000000               0.000000000               0.000000000               0.000155963               0.000316812              -0.000145379               0.000018884               0.000099308               0.000118192               0.000000000               0.000000000               0.000000000               0.000000000               0.000120201               0.000383215              -0.000103566              -0.000002827               0.000128679               0.000125853               0.000000000               0.000000000               0.000000000               0.000000000               0.000118783               0.000522825              -0.000057516              -0.000020809               0.000181210               0.000160400               0.000000000               0.000000000               0.000000000               0.000000000               0.000146742               0.000626637              -0.000034674              -0.000023301               0.000216644               0.000193343               0.000000000               0.000000000               0.000000000               0.000000000               0.000187228               0.000695838              -0.000026955              -0.000016769               0.000237533               0.000220764               0.000000000               0.000000000               0.000000000               0.000000000               0.000221905               0.000754576              -0.000029019              -0.000011107               0.000255225               0.000244118               0.000000000               0.000000000               0.000000000               0.000000000               0.000229372               0.000824515              -0.000034430              -0.000017050               0.000280519               0.000263469               0.000000000               0.000000000               0.000000000               0.000000000               0.000215134               0.000896521              -0.000040692              -0.000031390               0.000309301               0.000277911               0.000000000               0.000000000               0.000000000               0.000000000               0.000197995               0.000969953              -0.000045904              -0.000046996               0.000338980               0.000291984               0.000000000               0.000000000               0.000000000               0.000000000               0.000180107               0.001048262              -0.000044230              -0.000063493               0.000370581               0.000307089               0.000000000               0.000000000               0.000000000               0.000000000               0.000160075               0.001127538              -0.000039018              -0.000080914               0.000402814               0.000321900               0.000000000               0.000000000               0.000000000               0.000000000               0.000137584               0.001204010              -0.000033291              -0.000098907               0.000434302               0.000335395               0.000000000               0.000000000               0.000000000               0.000000000               0.000114171               0.001278234              -0.000024701              -0.000116965               0.000465062               0.000348097               0.000000000               0.000000000               0.000000000               0.000000000               0.000090882               0.001350288              -0.000016024              -0.000134705               0.000494993               0.000360288               0.000000000               0.000000000               0.000000000               0.000000000               0.000067865               0.001417985              -0.000008356              -0.000151798               0.000523257               0.000371458               0.000000000               0.000000000               0.000000000               0.000000000               0.000048121               0.001481692              -0.000002123              -0.000167166               0.000549614               0.000382448               0.000000000               0.000000000               0.000000000               0.000000000               0.000037218               0.001514968              -0.000000041              -0.000175414               0.000563455               0.000388042               0.000000000               0.000000000               0.000000000               0.000000000               0.000162581               0.000281277              -0.000139793               0.000025808               0.000085155               0.000110963               0.000000000               0.000000000               0.000000000               0.000000000               0.000130390               0.000366305              -0.000111763               0.000003108               0.000121064               0.000124172               0.000000000               0.000000000               0.000000000               0.000000000               0.000125330               0.000525818              -0.000074434              -0.000018729               0.000181514               0.000162785               0.000000000               0.000000000               0.000000000               0.000000000               0.000147471               0.000638846              -0.000047964              -0.000024554               0.000221131               0.000196577               0.000000000               0.000000000               0.000000000               0.000000000               0.000182578               0.000716378              -0.000033320              -0.000021080               0.000245817               0.000224737               0.000000000               0.000000000               0.000000000               0.000000000               0.000222263               0.000784086              -0.000026646              -0.000014662               0.000266247               0.000251585               0.000000000               0.000000000               0.000000000               0.000000000               0.000242814               0.000857125              -0.000028677              -0.000016085               0.000291067               0.000274982               0.000000000               0.000000000               0.000000000               0.000000000               0.000239005               0.000932508              -0.000037366              -0.000026937               0.000319812               0.000292875               0.000000000               0.000000000               0.000000000               0.000000000               0.000226943               0.001007370              -0.000043832              -0.000040818               0.000349392               0.000308575               0.000000000               0.000000000               0.000000000               0.000000000               0.000213080               0.001083038              -0.000045018              -0.000055474               0.000379500               0.000324026               0.000000000               0.000000000               0.000000000               0.000000000               0.000198136               0.001162398              -0.000042687              -0.000070999               0.000411128               0.000340130               0.000000000               0.000000000               0.000000000               0.000000000               0.000180555               0.001240815              -0.000036752              -0.000087394               0.000442732               0.000355338               0.000000000               0.000000000               0.000000000               0.000000000               0.000160178               0.001316224              -0.000028863              -0.000104461               0.000473557               0.000369096               0.000000000               0.000000000               0.000000000               0.000000000               0.000138952               0.001390543              -0.000019784              -0.000121710               0.000504080               0.000382369               0.000000000               0.000000000               0.000000000               0.000000000               0.000118294               0.001465748              -0.000010221              -0.000138858               0.000534864               0.000396006               0.000000000               0.000000000               0.000000000               0.000000000               0.000099814               0.001539397              -0.000003100              -0.000154994               0.000564792               0.000409798               0.000000000               0.000000000               0.000000000               0.000000000               0.000083775               0.001568762               0.000002228              -0.000164679               0.000577808               0.000413129               0.000000000               0.000000000               0.000000000               0.000000000               0.000160426               0.000239010              -0.000128873               0.000030283               0.000069575               0.000099858               0.000000000               0.000000000               0.000000000               0.000000000               0.000139639               0.000339990              -0.000114278               0.000009866               0.000110040               0.000119906               0.000000000               0.000000000               0.000000000               0.000000000               0.000131539               0.000505873              -0.000086999              -0.000013907               0.000173259               0.000159351               0.000000000               0.000000000               0.000000000               0.000000000               0.000148039               0.000623103              -0.000060944              -0.000022373               0.000215157               0.000192783               0.000000000               0.000000000               0.000000000               0.000000000               0.000178399               0.000715556              -0.000041879              -0.000022545               0.000246031               0.000223487               0.000000000               0.000000000               0.000000000               0.000000000               0.000220887               0.000797566              -0.000028765              -0.000016863               0.000271474               0.000254611               0.000000000               0.000000000               0.000000000               0.000000000               0.000256117               0.000876506              -0.000025321              -0.000013520               0.000296672               0.000283153               0.000000000               0.000000000               0.000000000               0.000000000               0.000267069               0.000952804              -0.000031049              -0.000018950               0.000323915               0.000304965               0.000000000               0.000000000               0.000000000               0.000000000               0.000261728               0.001026697              -0.000038101              -0.000030189               0.000352292               0.000322103               0.000000000               0.000000000               0.000000000               0.000000000               0.000252317               0.001096582              -0.000041766              -0.000042454               0.000379675               0.000337221               0.000000000               0.000000000               0.000000000               0.000000000               0.000240985               0.001169749              -0.000042107              -0.000055849               0.000408529               0.000352680               0.000000000               0.000000000               0.000000000               0.000000000               0.000229074               0.001246748              -0.000037893              -0.000069941               0.000438892               0.000368951               0.000000000               0.000000000               0.000000000               0.000000000               0.000215634               0.001322360              -0.000031516              -0.000084432               0.000468926               0.000384494               0.000000000               0.000000000               0.000000000               0.000000000               0.000199071               0.001393846              -0.000023795              -0.000099579               0.000497804               0.000398225               0.000000000               0.000000000               0.000000000               0.000000000               0.000182719               0.001467600              -0.000014685              -0.000114930               0.000527505               0.000412575               0.000000000               0.000000000               0.000000000               0.000000000               0.000166358               0.001542827              -0.000005895              -0.000130469               0.000557760               0.000427291               0.000000000               0.000000000               0.000000000               0.000000000               0.000148688               0.001572948               0.000001276              -0.000140860               0.000571264               0.000430404               0.000000000               0.000000000               0.000000000               0.000000000               0.000147446               0.000195949              -0.000109819               0.000030798               0.000055050               0.000085848               0.000000000               0.000000000               0.000000000               0.000000000               0.000142738               0.000302021              -0.000108833               0.000015774               0.000095414               0.000111188               0.000000000               0.000000000               0.000000000               0.000000000               0.000143503               0.000466265              -0.000094250              -0.000004469               0.000156910               0.000152440               0.000000000               0.000000000               0.000000000               0.000000000               0.000158360               0.000596091              -0.000072159              -0.000015127               0.000203737               0.000188611               0.000000000               0.000000000               0.000000000               0.000000000               0.000184272               0.000709128              -0.000052811              -0.000019539               0.000242887               0.000223348               0.000000000               0.000000000               0.000000000               0.000000000               0.000222796               0.000807407              -0.000036339              -0.000017377               0.000274925               0.000257548               0.000000000               0.000000000               0.000000000               0.000000000               0.000261332               0.000891984              -0.000025368              -0.000013499               0.000301825               0.000288326               0.000000000               0.000000000               0.000000000               0.000000000               0.000283910               0.000969618              -0.000023429              -0.000014736               0.000328115               0.000313379               0.000000000               0.000000000               0.000000000               0.000000000               0.000288180               0.001042607              -0.000027832              -0.000022258               0.000354952               0.000332693               0.000000000               0.000000000               0.000000000               0.000000000               0.000285036               0.001109807              -0.000033008              -0.000031837               0.000380544               0.000348707               0.000000000               0.000000000               0.000000000               0.000000000               0.000279324               0.001177229              -0.000035599              -0.000042407               0.000406542               0.000364134               0.000000000               0.000000000               0.000000000               0.000000000               0.000273551               0.001249810              -0.000035051              -0.000053645               0.000434481               0.000380836               0.000000000               0.000000000               0.000000000               0.000000000               0.000268127               0.001325651              -0.000031142              -0.000065159               0.000463599               0.000398440               0.000000000               0.000000000               0.000000000               0.000000000               0.000260205               0.001398962              -0.000025726              -0.000077293               0.000492080               0.000414787               0.000000000               0.000000000               0.000000000               0.000000000               0.000249692               0.001470346              -0.000019191              -0.000090158               0.000520163               0.000430005               0.000000000               0.000000000               0.000000000               0.000000000               0.000237941               0.001544709              -0.000010081              -0.000103860               0.000549518               0.000445658               0.000000000               0.000000000               0.000000000               0.000000000               0.000222949               0.001577307              -0.000001639              -0.000113557               0.000563616               0.000450059               0.000000000               0.000000000               0.000000000               0.000000000               0.000129090               0.000152274              -0.000085458               0.000029374               0.000040966               0.000070340               0.000000000               0.000000000               0.000000000               0.000000000               0.000143161               0.000256584              -0.000096016               0.000021612               0.000078323               0.000099935               0.000000000               0.000000000               0.000000000               0.000000000               0.000157663               0.000423438              -0.000094169               0.000006194               0.000139080               0.000145274               0.000000000               0.000000000               0.000000000               0.000000000               0.000175075               0.000568022              -0.000078160              -0.000005350               0.000191122               0.000185772               0.000000000               0.000000000               0.000000000               0.000000000               0.000198271               0.000695355              -0.000060639              -0.000012568               0.000235972               0.000223404               0.000000000               0.000000000               0.000000000               0.000000000               0.000228107               0.000802661              -0.000042931              -0.000014792               0.000272482               0.000257689               0.000000000               0.000000000               0.000000000               0.000000000               0.000262411               0.000892979              -0.000026661              -0.000013218               0.000302063               0.000288845               0.000000000               0.000000000               0.000000000               0.000000000               0.000291540               0.000975625              -0.000017650              -0.000012626               0.000329413               0.000316788               0.000000000               0.000000000               0.000000000               0.000000000               0.000308828               0.001053658              -0.000017697              -0.000015897               0.000356515               0.000340618               0.000000000               0.000000000               0.000000000               0.000000000               0.000315921               0.001124516              -0.000022302              -0.000022094               0.000382200               0.000360106               0.000000000               0.000000000               0.000000000               0.000000000               0.000317541               0.001189405              -0.000026294              -0.000029598               0.000406330               0.000376732               0.000000000               0.000000000               0.000000000               0.000000000               0.000317538               0.001256744              -0.000028373              -0.000038016               0.000431583               0.000393566               0.000000000               0.000000000               0.000000000               0.000000000               0.000318217               0.001329438              -0.000027077              -0.000046848               0.000458758               0.000411910               0.000000000               0.000000000               0.000000000               0.000000000               0.000319063               0.001405211              -0.000023244              -0.000056002               0.000487066               0.000431064               0.000000000               0.000000000               0.000000000               0.000000000               0.000316473               0.001475876              -0.000017924              -0.000065807               0.000513889               0.000448082               0.000000000               0.000000000               0.000000000               0.000000000               0.000311357               0.001543848              -0.000010537              -0.000076222               0.000540018               0.000463796               0.000000000               0.000000000               0.000000000               0.000000000               0.000302469               0.001574443              -0.000003820              -0.000083379               0.000552602               0.000469223               0.000000000               0.000000000               0.000000000               0.000000000               0.000106675               0.000116450              -0.000061459               0.000025447               0.000030334               0.000055781               0.000000000               0.000000000               0.000000000               0.000000000               0.000141241               0.000218219              -0.000077798               0.000025688               0.000064176               0.000089864               0.000000000               0.000000000               0.000000000               0.000000000               0.000172468               0.000384349              -0.000084657               0.000016632               0.000122571               0.000139203               0.000000000               0.000000000               0.000000000               0.000000000               0.000195691               0.000533002              -0.000075054               0.000006759               0.000175413               0.000182172               0.000000000               0.000000000               0.000000000               0.000000000               0.000216476               0.000666860              -0.000060410              -0.000002179               0.000223011               0.000220832               0.000000000               0.000000000               0.000000000               0.000000000               0.000239657               0.000783054              -0.000043448              -0.000008010               0.000263685               0.000255675               0.000000000               0.000000000               0.000000000               0.000000000               0.000269110               0.000885009              -0.000026881              -0.000009710               0.000298237               0.000288527               0.000000000               0.000000000               0.000000000               0.000000000               0.000300574               0.000977675              -0.000014986              -0.000009494               0.000329053               0.000319559               0.000000000               0.000000000               0.000000000               0.000000000               0.000325745               0.001062090              -0.000011413              -0.000010607               0.000357562               0.000346955               0.000000000               0.000000000               0.000000000               0.000000000               0.000342270               0.001138351              -0.000012891              -0.000013942               0.000384094               0.000370152               0.000000000               0.000000000               0.000000000               0.000000000               0.000351344               0.001204269              -0.000015484              -0.000018780               0.000407679               0.000388899               0.000000000               0.000000000               0.000000000               0.000000000               0.000356545               0.001266292              -0.000018058              -0.000024582               0.000430287               0.000405705               0.000000000               0.000000000               0.000000000               0.000000000               0.000362773               0.001334266              -0.000018674              -0.000030743               0.000454999               0.000424255               0.000000000               0.000000000               0.000000000               0.000000000               0.000370776               0.001407368              -0.000016583              -0.000036880               0.000481411               0.000444532               0.000000000               0.000000000               0.000000000               0.000000000               0.000378310               0.001479383              -0.000012448              -0.000043056               0.000507475               0.000464419               0.000000000               0.000000000               0.000000000               0.000000000               0.000384875               0.001548039              -0.000007742              -0.000049176               0.000532400               0.000483224               0.000000000               0.000000000               0.000000000               0.000000000               0.000384213               0.001578327              -0.000004039              -0.000053211               0.000543841               0.000490630               0.000000000               0.000000000               0.000000000               0.000000000               0.000084726               0.000091353              -0.000039029               0.000020353               0.000023666               0.000044019               0.000000000               0.000000000               0.000000000               0.000000000               0.000139279               0.000188244              -0.000055099               0.000028699               0.000053181               0.000081880               0.000000000               0.000000000               0.000000000               0.000000000               0.000187538               0.000347917              -0.000064604               0.000026837               0.000107026               0.000133863               0.000000000               0.000000000               0.000000000               0.000000000               0.000215226               0.000497406              -0.000059084               0.000018534               0.000159623               0.000178156               0.000000000               0.000000000               0.000000000               0.000000000               0.000235046               0.000635343              -0.000049195               0.000008724               0.000208871               0.000217595               0.000000000               0.000000000               0.000000000               0.000000000               0.000255296               0.000759856              -0.000037292               0.000000754               0.000253032               0.000253785               0.000000000               0.000000000               0.000000000               0.000000000               0.000280262               0.000873419              -0.000024740              -0.000004079               0.000292497               0.000288418               0.000000000               0.000000000               0.000000000               0.000000000               0.000309157               0.000974843              -0.000013103              -0.000005922               0.000326918               0.000320997               0.000000000               0.000000000               0.000000000               0.000000000               0.000336652               0.001065407              -0.000006914              -0.000006931               0.000357443               0.000350511               0.000000000               0.000000000               0.000000000               0.000000000               0.000359153               0.001146188              -0.000005873              -0.000008591               0.000384923               0.000376331               0.000000000               0.000000000               0.000000000               0.000000000               0.000376283               0.001216116              -0.000006337              -0.000010908               0.000409004               0.000398096               0.000000000               0.000000000               0.000000000               0.000000000               0.000388686               0.001277520              -0.000008061              -0.000013933               0.000430480               0.000416547               0.000000000               0.000000000               0.000000000               0.000000000               0.000400525               0.001340568              -0.000009445              -0.000017374               0.000452643               0.000435269               0.000000000               0.000000000               0.000000000               0.000000000               0.000413430               0.001406969              -0.000008593              -0.000020835               0.000475930               0.000455095               0.000000000               0.000000000               0.000000000               0.000000000               0.000428952               0.001479115              -0.000006214              -0.000024032               0.000501044               0.000477012               0.000000000               0.000000000               0.000000000               0.000000000               0.000446017               0.001553059              -0.000003555              -0.000026876               0.000526640               0.000499764               0.000000000               0.000000000               0.000000000               0.000000000               0.000452593               0.001586084              -0.000001743              -0.000028538               0.000538202               0.000509664               0.000000000               0.000000000               0.000000000               0.000000000               0.000070406               0.000075319              -0.000018377               0.000016987               0.000019444               0.000036431               0.000000000               0.000000000               0.000000000               0.000000000               0.000138794               0.000168179              -0.000028235               0.000031025               0.000045717               0.000076742               0.000000000               0.000000000               0.000000000               0.000000000               0.000197595               0.000322317              -0.000034757               0.000033808               0.000096168               0.000129977               0.000000000               0.000000000               0.000000000               0.000000000               0.000229262               0.000471475              -0.000032511               0.000027039               0.000148144               0.000175182               0.000000000               0.000000000               0.000000000               0.000000000               0.000250835               0.000611448              -0.000027905               0.000017632               0.000197936               0.000215568               0.000000000               0.000000000               0.000000000               0.000000000               0.000269478               0.000741998              -0.000021700               0.000008304               0.000244562               0.000252866               0.000000000               0.000000000               0.000000000               0.000000000               0.000289939               0.000862484              -0.000014585               0.000000917               0.000287186               0.000288103               0.000000000               0.000000000               0.000000000               0.000000000               0.000314163               0.000968685              -0.000007638              -0.000003275               0.000323983               0.000320709               0.000000000               0.000000000               0.000000000               0.000000000               0.000342320               0.001065182              -0.000003407              -0.000004778               0.000356650               0.000351872               0.000000000               0.000000000               0.000000000               0.000000000               0.000368736               0.001149979              -0.000002284              -0.000005471               0.000385146               0.000379675               0.000000000               0.000000000               0.000000000               0.000000000               0.000391270               0.001222595              -0.000001903              -0.000006098               0.000409560               0.000403462               0.000000000               0.000000000               0.000000000               0.000000000               0.000409944               0.001285168              -0.000002273              -0.000006917               0.000430691               0.000423774               0.000000000               0.000000000               0.000000000               0.000000000               0.000426245               0.001344326              -0.000002960              -0.000008199               0.000450837               0.000442638               0.000000000               0.000000000               0.000000000               0.000000000               0.000442557               0.001405751              -0.000002625              -0.000009760               0.000471832               0.000462072               0.000000000               0.000000000               0.000000000               0.000000000               0.000462224               0.001477260              -0.000001723              -0.000011323               0.000496190               0.000484866               0.000000000               0.000000000               0.000000000               0.000000000               0.000483656               0.001553493              -0.000000591              -0.000012815               0.000522098               0.000509282               0.000000000               0.000000000               0.000000000               0.000000000               0.000492866               0.001588204               0.000000223              -0.000013701               0.000533963               0.000520262               0.000000000               0.000000000               0.000000000               0.000000000               0.000000000               0.000000000               0.000000000               0.000000000               0.000000000               0.000000000               0.000000000               0.000000000               0.000000000               0.000000000               0.000000000               0.000000000               0.000000000               0.000000000               0.000000000               0.000000000               0.000000000               0.000000000               0.000000000               0.000000000               0.000000000               0.000000000               0.000000000               0.000000000               0.000000000               0.000000000               0.000000000               0.000000000               0.000000000               0.000000000               0.000000000               0.000000000               0.000000000               0.000000000               0.000000000               0.000000000               0.000000000               0.000000000               0.000000000               0.000000000               0.000000000               0.000000000               0.000000000               0.000000000               0.000000000               0.000000000               0.000000000               0.000000000               0.000000000               0.000000000               0.000000000               0.000000000               0.000000000               0.000000000               0.000000000               0.000000000               0.000000000               0.000000000               0.000000000               0.000000000               0.000000000               0.000000000               0.000000000               0.000000000               0.000000000               0.000000000               0.000000000               0.000000000               0.000000000               0.000000000               0.000000000               0.000000000               0.000000000               0.000000000               0.000000000               0.000000000               0.000000000               0.000000000               0.000000000               0.000000000               0.000000000               0.000000000               0.000000000               0.000000000               0.000000000               0.000000000               0.000000000               0.000000000               0.000000000               0.000000000               0.000000000               0.000000000               0.000000000               0.000000000               0.000000000               0.000000000               0.000000000               0.000000000               0.000000000               0.000000000               0.000000000               0.000000000               0.000000000               0.000000000               0.000000000               0.000000000               0.000000000               0.000000000               0.000000000               0.000000000               0.000000000               0.000000000               0.000000000               0.000000000               0.000000000               0.000000000               0.000000000               0.000000000               0.000000000               0.000000000               0.000000000               0.000000000               0.000000000               0.000000000               0.000000000               0.000000000               0.000000000               0.000000000               0.000000000               0.000000000               0.000000000               0.000000000               0.000000000               0.000000000               0.000000000               0.000000000               0.000000000               0.000000000               0.000000000               0.000000000               0.000000000               0.000000000               0.000000000               0.000000000               0.000000000               0.000000000               0.000000000               0.000000000               0.000000000               0.000000000               0.000000000               0.000000000               0.000000000               0.000000000               0.000000000               0.000000000               0.000000000               0.000000000               0.000000000               0.000000000               0.000000000               0.000000000               0.000000000               0.000000000               0.000000000               0.000000000               0.000000000               0.000000000               0.000000000               0.000000000               0.000000000               0.000000000               0.000000000               0.000000000               0.000000000               0.000000000               0.000000000               0.000000000               0.000000000               0.000000000               0.000000000               0.000000000               0.000000000               0.000000000               0.000000000               0.000000000               0.000000000               0.000000000               0.000000000               0.000000000               0.000000000               0.000000000               0.000000000               0.000000000               0.000000000               0.000000000               0.000000000               0.000000000               0.000000000               0.000000000               0.000000000               0.000000000               0.000000000               0.000000000               0.000000000               0.000000000               0.000000000               0.000000000               0.000000000               0.000000000               0.000000000               0.000000000               0.000000000               0.000000000               0.000000000               0.000000000               0.000000000               0.000000000               0.000000000               0.000000000               0.000000000               0.000000000               0.000000000               0.000000000               0.000000000               0.000000000               0.000000000               0.000000000               0.000000000               0.000000000               0.000000000               0.000000000               0.000000000               0.000000000               0.000000000               0.000000000               0.000000000               0.000000000               0.000000000               0.000000000               0.000000000               0.000000000               0.000000000               0.000000000               0.000000000               0.000000000               0.000000000               0.000000000               0.000000000               0.000000000               0.000000000               0.000000000               0.000000000               0.000000000               0.000000000               0.000000000               0.000000000               0.000000000               0.000000000               0.000000000               0.000000000               0.000000000               0.000000000               0.000000000               0.000000000               0.000000000               0.000000000               0.000000000               0.000000000               0.000000000               0.000000000               0.000000000               0.000000000               0.000000000               0.000000000               0.000000000               0.000000000               0.000000000               0.000000000               0.000000000               0.000000000               0.000000000               0.000000000               0.000000000               0.000000000               0.000000000               0.000000000               0.000000000               0.000000000               0.000000000               0.000000000               0.000000000               0.000000000               0.000000000               0.000000000               0.000000000               0.000000000               0.000000000               0.000000000               0.000000000               0.000000000               0.000000000               0.000000000               0.000000000               0.000000000               0.000000000               0.000000000               0.000000000               0.000000000               0.000000000               0.000000000               0.000000000               0.000000000               0.000000000               0.000000000               0.000000000               0.000000000               0.000000000               0.000000000               0.000000000               0.000000000               0.000000000               0.000000000               0.000000000               0.000000000               0.000000000               0.000000000               0.000000000               0.000000000               0.000000000               0.000000000               0.000000000               0.000000000               0.000000000               0.000000000               0.000000000               0.000000000               0.000000000               0.000000000               0.000000000               0.000060626               0.000464485               0.000037835              -0.000035326               0.000166602               0.000131276               0.000000000               0.000000000               0.000000000               0.000000000               0.000078415               0.000398466               0.000025221              -0.000020403               0.000139622               0.000119219               0.000000000               0.000000000               0.000000000               0.000000000               0.000112472               0.000355630               0.000008728              -0.000002277               0.000119301               0.000117024               0.000000000               0.000000000               0.000000000               0.000000000               0.000121614               0.000349263              -0.000001194               0.000001948               0.000115770               0.000117718               0.000000000               0.000000000               0.000000000               0.000000000               0.000119828               0.000356338              -0.000003267               0.000000393               0.000118647               0.000119040               0.000000000               0.000000000               0.000000000               0.000000000               0.000115032               0.000360804               0.000001479              -0.000001963               0.000120921               0.000118958               0.000000000               0.000000000               0.000000000               0.000000000               0.000109847               0.000354371               0.000003716              -0.000003104               0.000119157               0.000116053               0.000000000               0.000000000               0.000000000               0.000000000               0.000109991               0.000349049               0.000003118              -0.000002385               0.000117143               0.000114759               0.000000000               0.000000000               0.000000000               0.000000000               0.000112635               0.000342339               0.000004974              -0.000000554               0.000114297               0.000113742               0.000000000               0.000000000               0.000000000               0.000000000               0.000113673               0.000333060               0.000006546               0.000000995               0.000110687               0.000111682               0.000000000               0.000000000               0.000000000               0.000000000               0.000113980               0.000325694               0.000007427               0.000002031               0.000107887               0.000109917               0.000000000               0.000000000               0.000000000               0.000000000               0.000111264               0.000321745               0.000007535               0.000001506               0.000106745               0.000108251               0.000000000               0.000000000               0.000000000               0.000000000               0.000101664               0.000322671               0.000006032              -0.000002210               0.000108293               0.000106083               0.000000000               0.000000000               0.000000000               0.000000000               0.000085441               0.000330006               0.000003842              -0.000009210               0.000113071               0.000103860               0.000000000               0.000000000               0.000000000               0.000000000               0.000062752               0.000344129               0.000001571              -0.000019484               0.000121203               0.000101719               0.000000000               0.000000000               0.000000000               0.000000000               0.000033114               0.000364620              -0.000000037              -0.000033160               0.000132592               0.000099432               0.000000000               0.000000000               0.000000000               0.000000000               0.000020161               0.000384469               0.000000955              -0.000040498               0.000141654               0.000101156               0.000000000               0.000000000               0.000000000               0.000000000               0.000073013               0.000452492               0.000073202              -0.000029182               0.000160556               0.000131375               0.000000000               0.000000000               0.000000000               0.000000000               0.000084925               0.000389528               0.000046699              -0.000016844               0.000135456               0.000118612               0.000000000               0.000000000               0.000000000               0.000000000               0.000113222               0.000355426               0.000014266              -0.000001970               0.000119131               0.000117161               0.000000000               0.000000000               0.000000000               0.000000000               0.000117208               0.000354235              -0.000003005              -0.000000326               0.000118186               0.000117860               0.000000000               0.000000000               0.000000000               0.000000000               0.000114827               0.000361730              -0.000006373              -0.000002156               0.000121294               0.000119138               0.000000000               0.000000000               0.000000000               0.000000000               0.000117164               0.000366326               0.000002301              -0.000001854               0.000122726               0.000120871               0.000000000               0.000000000               0.000000000               0.000000000               0.000120794               0.000364738               0.000006874              -0.000000294               0.000121676               0.000121382               0.000000000               0.000000000               0.000000000               0.000000000               0.000125079               0.000365781               0.000006492               0.000001182               0.000121532               0.000122714               0.000000000               0.000000000               0.000000000               0.000000000               0.000125654               0.000366877               0.000011098               0.000001261               0.000121871               0.000123132               0.000000000               0.000000000               0.000000000               0.000000000               0.000120356               0.000370423               0.000015109              -0.000001169               0.000123863               0.000122693               0.000000000               0.000000000               0.000000000               0.000000000               0.000112816               0.000378490               0.000017717              -0.000005005               0.000127830               0.000122825               0.000000000               0.000000000               0.000000000               0.000000000               0.000103562               0.000391837               0.000019150              -0.000010144               0.000133992               0.000123848               0.000000000               0.000000000               0.000000000               0.000000000               0.000089320               0.000409018               0.000018101              -0.000017632               0.000142216               0.000124583               0.000000000               0.000000000               0.000000000               0.000000000               0.000071173               0.000429941               0.000015430              -0.000027053               0.000152330               0.000125277               0.000000000               0.000000000               0.000000000               0.000000000               0.000050740               0.000455548               0.000011429              -0.000037916               0.000164487               0.000126571               0.000000000               0.000000000               0.000000000               0.000000000               0.000026650               0.000486208               0.000006119              -0.000050782               0.000178995               0.000128213               0.000000000               0.000000000               0.000000000               0.000000000               0.000018368               0.000512660               0.000005869              -0.000057194               0.000189950               0.000132756               0.000000000               0.000000000               0.000000000               0.000000000               0.000091600               0.000437955               0.000099705              -0.000020394               0.000152782               0.000132387               0.000000000               0.000000000               0.000000000               0.000000000               0.000090819               0.000377989               0.000061246              -0.000013192               0.000130392               0.000117201               0.000000000               0.000000000               0.000000000               0.000000000               0.000108750               0.000360424               0.000017859              -0.000004272               0.000121564               0.000117292               0.000000000               0.000000000               0.000000000               0.000000000               0.000111077               0.000367960              -0.000004876              -0.000004341               0.000124099               0.000119758               0.000000000               0.000000000               0.000000000               0.000000000               0.000114534               0.000382779              -0.000007882              -0.000004897               0.000129224               0.000124327               0.000000000               0.000000000               0.000000000               0.000000000               0.000125273               0.000390510               0.000004425              -0.000001836               0.000130781               0.000128944               0.000000000               0.000000000               0.000000000               0.000000000               0.000136313               0.000400098               0.000012608               0.000001105               0.000132996               0.000134101               0.000000000               0.000000000               0.000000000               0.000000000               0.000140616               0.000410781               0.000015404               0.000001383               0.000136465               0.000137848               0.000000000               0.000000000               0.000000000               0.000000000               0.000140880               0.000426223               0.000022359              -0.000000448               0.000142222               0.000141774               0.000000000               0.000000000               0.000000000               0.000000000               0.000133110               0.000447552               0.000027901              -0.000006028               0.000151192               0.000145164               0.000000000               0.000000000               0.000000000               0.000000000               0.000120003               0.000475178               0.000031461              -0.000014396               0.000163190               0.000148794               0.000000000               0.000000000               0.000000000               0.000000000               0.000105670               0.000509113               0.000032902              -0.000024013               0.000177707               0.000153694               0.000000000               0.000000000               0.000000000               0.000000000               0.000086500               0.000545468               0.000031711              -0.000035746               0.000193736               0.000157990               0.000000000               0.000000000               0.000000000               0.000000000               0.000064239               0.000582918               0.000028048              -0.000048775               0.000210562               0.000161787               0.000000000               0.000000000               0.000000000               0.000000000               0.000043012               0.000621581               0.000021656              -0.000061568               0.000227714               0.000166146               0.000000000               0.000000000               0.000000000               0.000000000               0.000021717               0.000660535               0.000012172              -0.000074423               0.000244984               0.000170561               0.000000000               0.000000000               0.000000000               0.000000000               0.000016085               0.000689143               0.000009749              -0.000080111               0.000256415               0.000176305               0.000000000               0.000000000               0.000000000               0.000000000               0.000107645               0.000412903               0.000123388              -0.000011246               0.000141382               0.000130136               0.000000000               0.000000000               0.000000000               0.000000000               0.000095077               0.000366206               0.000072860              -0.000010122               0.000125442               0.000115319               0.000000000               0.000000000               0.000000000               0.000000000               0.000103388               0.000372987               0.000019887              -0.000007853               0.000126945               0.000119093               0.000000000               0.000000000               0.000000000               0.000000000               0.000107030               0.000397437              -0.000003755              -0.000009543               0.000135659               0.000126115               0.000000000               0.000000000               0.000000000               0.000000000               0.000116509               0.000422168              -0.000004317              -0.000009080               0.000143748               0.000134668               0.000000000               0.000000000               0.000000000               0.000000000               0.000136318               0.000444794               0.000009940              -0.000004480               0.000149756               0.000145276               0.000000000               0.000000000               0.000000000               0.000000000               0.000154304               0.000471927               0.000020403              -0.000001127               0.000157683               0.000156556               0.000000000               0.000000000               0.000000000               0.000000000               0.000160564               0.000499826               0.000025149              -0.000002267               0.000167362               0.000165096               0.000000000               0.000000000               0.000000000               0.000000000               0.000158977               0.000533653               0.000032502              -0.000007090               0.000180246               0.000173156               0.000000000               0.000000000               0.000000000               0.000000000               0.000146881               0.000571117               0.000038592              -0.000016309               0.000195807               0.000179498               0.000000000               0.000000000               0.000000000               0.000000000               0.000131293               0.000614544               0.000041265              -0.000027583               0.000214040               0.000186457               0.000000000               0.000000000               0.000000000               0.000000000               0.000114913               0.000662168               0.000041441              -0.000039678               0.000233947               0.000194268               0.000000000               0.000000000               0.000000000               0.000000000               0.000093185               0.000710038               0.000038723              -0.000053810               0.000254614               0.000200804               0.000000000               0.000000000               0.000000000               0.000000000               0.000068496               0.000756690               0.000033282              -0.000068900               0.000275194               0.000206294               0.000000000               0.000000000               0.000000000               0.000000000               0.000045075               0.000801332               0.000024967              -0.000083263               0.000294862               0.000211599               0.000000000               0.000000000               0.000000000               0.000000000               0.000022302               0.000842294               0.000013576              -0.000096923               0.000313069               0.000216146               0.000000000               0.000000000               0.000000000               0.000000000               0.000016064               0.000869750               0.000010178              -0.000102694               0.000324145               0.000221451               0.000000000               0.000000000               0.000000000               0.000000000               0.000122577               0.000384789               0.000138635              -0.000002132               0.000128973               0.000126840               0.000000000               0.000000000               0.000000000               0.000000000               0.000100021               0.000363203               0.000081511              -0.000007893               0.000123697               0.000115805               0.000000000               0.000000000               0.000000000               0.000000000               0.000099769               0.000398617               0.000024868              -0.000012414               0.000137009               0.000124595               0.000000000               0.000000000               0.000000000               0.000000000               0.000107183               0.000446726               0.000002972              -0.000015647               0.000154123               0.000138476               0.000000000               0.000000000               0.000000000               0.000000000               0.000129058               0.000490978               0.000001347              -0.000012975               0.000167983               0.000155007               0.000000000               0.000000000               0.000000000               0.000000000               0.000159451               0.000532159               0.000015746              -0.000006726               0.000179626               0.000172901               0.000000000               0.000000000               0.000000000               0.000000000               0.000177194               0.000571244               0.000027616              -0.000004958               0.000192065               0.000187107               0.000000000               0.000000000               0.000000000               0.000000000               0.000180627               0.000616105               0.000033923              -0.000009278               0.000208459               0.000199181               0.000000000               0.000000000               0.000000000               0.000000000               0.000173696               0.000663574               0.000041861              -0.000017811               0.000227126               0.000209315               0.000000000               0.000000000               0.000000000               0.000000000               0.000157466               0.000713433               0.000047744              -0.000030129               0.000247852               0.000217722               0.000000000               0.000000000               0.000000000               0.000000000               0.000139405               0.000765936               0.000048266              -0.000043465               0.000269798               0.000226333               0.000000000               0.000000000               0.000000000               0.000000000               0.000120532               0.000819696               0.000045796              -0.000057262               0.000292317               0.000235054               0.000000000               0.000000000               0.000000000               0.000000000               0.000096899               0.000870639               0.000040658              -0.000072492               0.000314374               0.000241882               0.000000000               0.000000000               0.000000000               0.000000000               0.000071394               0.000918062               0.000033240              -0.000087985               0.000335346               0.000247361               0.000000000               0.000000000               0.000000000               0.000000000               0.000047479               0.000962443               0.000023635              -0.000102500               0.000354978               0.000252478               0.000000000               0.000000000               0.000000000               0.000000000               0.000023586               0.001002051               0.000012249              -0.000116411               0.000372817               0.000256406               0.000000000               0.000000000               0.000000000               0.000000000               0.000016500               0.001028552               0.000009299              -0.000122381               0.000383641               0.000261260               0.000000000               0.000000000               0.000000000               0.000000000               0.000134855               0.000359215               0.000144975               0.000005668               0.000117848               0.000123516               0.000000000               0.000000000               0.000000000               0.000000000               0.000104263               0.000367980               0.000090364              -0.000006899               0.000124959               0.000118060               0.000000000               0.000000000               0.000000000               0.000000000               0.000100770               0.000440052               0.000033973              -0.000017218               0.000152422               0.000135204               0.000000000               0.000000000               0.000000000               0.000000000               0.000118692               0.000511898               0.000010663              -0.000019478               0.000177124               0.000157646               0.000000000               0.000000000               0.000000000               0.000000000               0.000151697               0.000572736               0.000010214              -0.000014706               0.000195812               0.000181106               0.000000000               0.000000000               0.000000000               0.000000000               0.000186446               0.000621664               0.000026093              -0.000007791               0.000209816               0.000202026               0.000000000               0.000000000               0.000000000               0.000000000               0.000203308               0.000671342               0.000037328              -0.000007677               0.000226338               0.000218660               0.000000000               0.000000000               0.000000000               0.000000000               0.000200159               0.000727577               0.000042327              -0.000015887               0.000247819               0.000231932               0.000000000               0.000000000               0.000000000               0.000000000               0.000185199               0.000782901               0.000048936              -0.000028413               0.000270436               0.000242023               0.000000000               0.000000000               0.000000000               0.000000000               0.000163994               0.000840353               0.000052208              -0.000043546               0.000294630               0.000251084               0.000000000               0.000000000               0.000000000               0.000000000               0.000143772               0.000900583               0.000049902              -0.000058658               0.000319744               0.000261086               0.000000000               0.000000000               0.000000000               0.000000000               0.000121588               0.000959013               0.000044693              -0.000074281               0.000344428               0.000270147               0.000000000               0.000000000               0.000000000               0.000000000               0.000094982               0.001013608               0.000038173              -0.000091083               0.000368227               0.000277144               0.000000000               0.000000000               0.000000000               0.000000000               0.000069299               0.001065411               0.000029604              -0.000107189               0.000390863               0.000283674               0.000000000               0.000000000               0.000000000               0.000000000               0.000045738               0.001114222               0.000020032              -0.000122126               0.000412112               0.000289987               0.000000000               0.000000000               0.000000000               0.000000000               0.000021962               0.001158358               0.000010322              -0.000136559               0.000431635               0.000295076               0.000000000               0.000000000               0.000000000               0.000000000               0.000015268               0.001187752               0.000008616              -0.000142743               0.000443495               0.000300751               0.000000000               0.000000000               0.000000000               0.000000000               0.000146343               0.000337039               0.000147499               0.000012748               0.000108096               0.000120844               0.000000000               0.000000000               0.000000000               0.000000000               0.000112182               0.000377063               0.000097334              -0.000005065               0.000127374               0.000122310               0.000000000               0.000000000               0.000000000               0.000000000               0.000108178               0.000487005               0.000044729              -0.000020309               0.000169103               0.000148794               0.000000000               0.000000000               0.000000000               0.000000000               0.000134072               0.000577300               0.000023007              -0.000021886               0.000199727               0.000177841               0.000000000               0.000000000               0.000000000               0.000000000               0.000175546               0.000645008               0.000021671              -0.000014796               0.000219932               0.000205136               0.000000000               0.000000000               0.000000000               0.000000000               0.000211067               0.000698922               0.000032563              -0.000008215               0.000235710               0.000227495               0.000000000               0.000000000               0.000000000               0.000000000               0.000223385               0.000760824               0.000040432              -0.000011334               0.000257383               0.000246050               0.000000000               0.000000000               0.000000000               0.000000000               0.000211614               0.000824487               0.000044355              -0.000023705               0.000282728               0.000259023               0.000000000               0.000000000               0.000000000               0.000000000               0.000190795               0.000888125               0.000050277              -0.000039467               0.000309195               0.000269727               0.000000000               0.000000000               0.000000000               0.000000000               0.000168036               0.000954765               0.000049577              -0.000056332               0.000337029               0.000280697               0.000000000               0.000000000               0.000000000               0.000000000               0.000146077               0.001024809               0.000044715              -0.000073322               0.000366040               0.000292718               0.000000000               0.000000000               0.000000000               0.000000000               0.000121114               0.001092212               0.000038942              -0.000091108               0.000394436               0.000303328               0.000000000               0.000000000               0.000000000               0.000000000               0.000095239               0.001157195               0.000031196              -0.000108934               0.000422039               0.000313105               0.000000000               0.000000000               0.000000000               0.000000000               0.000070571               0.001220621               0.000022800              -0.000126113               0.000448907               0.000322794               0.000000000               0.000000000               0.000000000               0.000000000               0.000046337               0.001279814               0.000014673              -0.000142600               0.000474134               0.000331534               0.000000000               0.000000000               0.000000000               0.000000000               0.000022510               0.001333290               0.000007202              -0.000158219               0.000497165               0.000338946               0.000000000               0.000000000               0.000000000               0.000000000               0.000014695               0.001367762               0.000006984              -0.000165459               0.000511069               0.000345610               0.000000000               0.000000000               0.000000000               0.000000000               0.000155963               0.000316812               0.000145379               0.000018884               0.000099308               0.000118192               0.000000000               0.000000000               0.000000000               0.000000000               0.000120201               0.000383215               0.000103566              -0.000002827               0.000128679               0.000125853               0.000000000               0.000000000               0.000000000               0.000000000               0.000118783               0.000522825               0.000057516              -0.000020809               0.000181210               0.000160400               0.000000000               0.000000000               0.000000000               0.000000000               0.000146742               0.000626637               0.000034674              -0.000023301               0.000216644               0.000193343               0.000000000               0.000000000               0.000000000               0.000000000               0.000187228               0.000695838               0.000026955              -0.000016769               0.000237533               0.000220764               0.000000000               0.000000000               0.000000000               0.000000000               0.000221905               0.000754576               0.000029019              -0.000011107               0.000255225               0.000244118               0.000000000               0.000000000               0.000000000               0.000000000               0.000229372               0.000824515               0.000034430              -0.000017050               0.000280519               0.000263469               0.000000000               0.000000000               0.000000000               0.000000000               0.000215134               0.000896521               0.000040692              -0.000031390               0.000309301               0.000277911               0.000000000               0.000000000               0.000000000               0.000000000               0.000197995               0.000969953               0.000045904              -0.000046996               0.000338980               0.000291984               0.000000000               0.000000000               0.000000000               0.000000000               0.000180107               0.001048262               0.000044230              -0.000063493               0.000370581               0.000307089               0.000000000               0.000000000               0.000000000               0.000000000               0.000160075               0.001127538               0.000039018              -0.000080914               0.000402814               0.000321900               0.000000000               0.000000000               0.000000000               0.000000000               0.000137584               0.001204010               0.000033291              -0.000098907               0.000434302               0.000335395               0.000000000               0.000000000               0.000000000               0.000000000               0.000114171               0.001278234               0.000024701              -0.000116965               0.000465062               0.000348097               0.000000000               0.000000000               0.000000000               0.000000000               0.000090882               0.001350288               0.000016024              -0.000134705               0.000494993               0.000360288               0.000000000               0.000000000               0.000000000               0.000000000               0.000067865               0.001417985               0.000008356              -0.000151798               0.000523257               0.000371458               0.000000000               0.000000000               0.000000000               0.000000000               0.000048121               0.001481692               0.000002123              -0.000167166               0.000549614               0.000382448               0.000000000               0.000000000               0.000000000               0.000000000               0.000037218               0.001514968               0.000000041              -0.000175414               0.000563455               0.000388042               0.000000000               0.000000000               0.000000000               0.000000000               0.000162581               0.000281277               0.000139793               0.000025808               0.000085155               0.000110963               0.000000000               0.000000000               0.000000000               0.000000000               0.000130390               0.000366305               0.000111763               0.000003108               0.000121064               0.000124172               0.000000000               0.000000000               0.000000000               0.000000000               0.000125330               0.000525818               0.000074434              -0.000018729               0.000181514               0.000162785               0.000000000               0.000000000               0.000000000               0.000000000               0.000147471               0.000638846               0.000047964              -0.000024554               0.000221131               0.000196577               0.000000000               0.000000000               0.000000000               0.000000000               0.000182578               0.000716378               0.000033320              -0.000021080               0.000245817               0.000224737               0.000000000               0.000000000               0.000000000               0.000000000               0.000222263               0.000784086               0.000026646              -0.000014662               0.000266247               0.000251585               0.000000000               0.000000000               0.000000000               0.000000000               0.000242814               0.000857125               0.000028677              -0.000016085               0.000291067               0.000274982               0.000000000               0.000000000               0.000000000               0.000000000               0.000239005               0.000932508               0.000037366              -0.000026937               0.000319812               0.000292875               0.000000000               0.000000000               0.000000000               0.000000000               0.000226943               0.001007370               0.000043832              -0.000040818               0.000349392               0.000308575               0.000000000               0.000000000               0.000000000               0.000000000               0.000213080               0.001083038               0.000045018              -0.000055474               0.000379500               0.000324026               0.000000000               0.000000000               0.000000000               0.000000000               0.000198136               0.001162398               0.000042687              -0.000070999               0.000411128               0.000340130               0.000000000               0.000000000               0.000000000               0.000000000               0.000180555               0.001240815               0.000036752              -0.000087394               0.000442732               0.000355338               0.000000000               0.000000000               0.000000000               0.000000000               0.000160178               0.001316224               0.000028863              -0.000104461               0.000473557               0.000369096               0.000000000               0.000000000               0.000000000               0.000000000               0.000138952               0.001390543               0.000019784              -0.000121710               0.000504080               0.000382369               0.000000000               0.000000000               0.000000000               0.000000000               0.000118294               0.001465748               0.000010221              -0.000138858               0.000534864               0.000396006               0.000000000               0.000000000               0.000000000               0.000000000               0.000099814               0.001539397               0.000003100              -0.000154994               0.000564792               0.000409798               0.000000000               0.000000000               0.000000000               0.000000000               0.000083775               0.001568762              -0.000002228              -0.000164679               0.000577808               0.000413129               0.000000000               0.000000000               0.000000000               0.000000000               0.000160426               0.000239010               0.000128873               0.000030283               0.000069575               0.000099858               0.000000000               0.000000000               0.000000000               0.000000000               0.000139639               0.000339990               0.000114278               0.000009866               0.000110040               0.000119906               0.000000000               0.000000000               0.000000000               0.000000000               0.000131539               0.000505873               0.000086999              -0.000013907               0.000173259               0.000159351               0.000000000               0.000000000               0.000000000               0.000000000               0.000148039               0.000623103               0.000060944              -0.000022373               0.000215157               0.000192783               0.000000000               0.000000000               0.000000000               0.000000000               0.000178399               0.000715556               0.000041879              -0.000022545               0.000246031               0.000223487               0.000000000               0.000000000               0.000000000               0.000000000               0.000220887               0.000797566               0.000028765              -0.000016863               0.000271474               0.000254611               0.000000000               0.000000000               0.000000000               0.000000000               0.000256117               0.000876506               0.000025321              -0.000013520               0.000296672               0.000283153               0.000000000               0.000000000               0.000000000               0.000000000               0.000267069               0.000952804               0.000031049              -0.000018950               0.000323915               0.000304965               0.000000000               0.000000000               0.000000000               0.000000000               0.000261728               0.001026697               0.000038101              -0.000030189               0.000352292               0.000322103               0.000000000               0.000000000               0.000000000               0.000000000               0.000252317               0.001096582               0.000041766              -0.000042454               0.000379675               0.000337221               0.000000000               0.000000000               0.000000000               0.000000000               0.000240985               0.001169749               0.000042107              -0.000055849               0.000408529               0.000352680               0.000000000               0.000000000               0.000000000               0.000000000               0.000229074               0.001246748               0.000037893              -0.000069941               0.000438892               0.000368951               0.000000000               0.000000000               0.000000000               0.000000000               0.000215634               0.001322360               0.000031516              -0.000084432               0.000468926               0.000384494               0.000000000               0.000000000               0.000000000               0.000000000               0.000199071               0.001393846               0.000023795              -0.000099579               0.000497804               0.000398225               0.000000000               0.000000000               0.000000000               0.000000000               0.000182719               0.001467600               0.000014685              -0.000114930               0.000527505               0.000412575               0.000000000               0.000000000               0.000000000               0.000000000               0.000166358               0.001542827               0.000005895              -0.000130469               0.000557760               0.000427291               0.000000000               0.000000000               0.000000000               0.000000000               0.000148688               0.001572948              -0.000001276              -0.000140860               0.000571264               0.000430404               0.000000000               0.000000000               0.000000000               0.000000000               0.000147446               0.000195949               0.000109819               0.000030798               0.000055050               0.000085848               0.000000000               0.000000000               0.000000000               0.000000000               0.000142738               0.000302021               0.000108833               0.000015774               0.000095414               0.000111188               0.000000000               0.000000000               0.000000000               0.000000000               0.000143503               0.000466265               0.000094250              -0.000004469               0.000156910               0.000152440               0.000000000               0.000000000               0.000000000               0.000000000               0.000158360               0.000596091               0.000072159              -0.000015127               0.000203737               0.000188611               0.000000000               0.000000000               0.000000000               0.000000000               0.000184272               0.000709128               0.000052811              -0.000019539               0.000242887               0.000223348               0.000000000               0.000000000               0.000000000               0.000000000               0.000222796               0.000807407               0.000036339              -0.000017377               0.000274925               0.000257548               0.000000000               0.000000000               0.000000000               0.000000000               0.000261332               0.000891984               0.000025368              -0.000013499               0.000301825               0.000288326               0.000000000               0.000000000               0.000000000               0.000000000               0.000283910               0.000969618               0.000023429              -0.000014736               0.000328115               0.000313379               0.000000000               0.000000000               0.000000000               0.000000000               0.000288180               0.001042607               0.000027832              -0.000022258               0.000354952               0.000332693               0.000000000               0.000000000               0.000000000               0.000000000               0.000285036               0.001109807               0.000033008              -0.000031837               0.000380544               0.000348707               0.000000000               0.000000000               0.000000000               0.000000000               0.000279324               0.001177229               0.000035599              -0.000042407               0.000406542               0.000364134               0.000000000               0.000000000               0.000000000               0.000000000               0.000273551               0.001249810               0.000035051              -0.000053645               0.000434481               0.000380836               0.000000000               0.000000000               0.000000000               0.000000000               0.000268127               0.001325651               0.000031142              -0.000065159               0.000463599               0.000398440               0.000000000               0.000000000               0.000000000               0.000000000               0.000260205               0.001398962               0.000025726              -0.000077293               0.000492080               0.000414787               0.000000000               0.000000000               0.000000000               0.000000000               0.000249692               0.001470346               0.000019191              -0.000090158               0.000520163               0.000430005               0.000000000               0.000000000               0.000000000               0.000000000               0.000237941               0.001544709               0.000010081              -0.000103860               0.000549518               0.000445658               0.000000000               0.000000000               0.000000000               0.000000000               0.000222949               0.001577307               0.000001639              -0.000113557               0.000563616               0.000450059               0.000000000               0.000000000               0.000000000               0.000000000               0.000129090               0.000152274               0.000085458               0.000029374               0.000040966               0.000070340               0.000000000               0.000000000               0.000000000               0.000000000               0.000143161               0.000256584               0.000096016               0.000021612               0.000078323               0.000099935               0.000000000               0.000000000               0.000000000               0.000000000               0.000157663               0.000423438               0.000094169               0.000006194               0.000139080               0.000145274               0.000000000               0.000000000               0.000000000               0.000000000               0.000175075               0.000568022               0.000078160              -0.000005350               0.000191122               0.000185772               0.000000000               0.000000000               0.000000000               0.000000000               0.000198271               0.000695355               0.000060639              -0.000012568               0.000235972               0.000223404               0.000000000               0.000000000               0.000000000               0.000000000               0.000228107               0.000802661               0.000042931              -0.000014792               0.000272482               0.000257689               0.000000000               0.000000000               0.000000000               0.000000000               0.000262411               0.000892979               0.000026661              -0.000013218               0.000302063               0.000288845               0.000000000               0.000000000               0.000000000               0.000000000               0.000291540               0.000975625               0.000017650              -0.000012626               0.000329413               0.000316788               0.000000000               0.000000000               0.000000000               0.000000000               0.000308828               0.001053658               0.000017697              -0.000015897               0.000356515               0.000340618               0.000000000               0.000000000               0.000000000               0.000000000               0.000315921               0.001124516               0.000022302              -0.000022094               0.000382200               0.000360106               0.000000000               0.000000000               0.000000000               0.000000000               0.000317541               0.001189405               0.000026294              -0.000029598               0.000406330               0.000376732               0.000000000               0.000000000               0.000000000               0.000000000               0.000317538               0.001256744               0.000028373              -0.000038016               0.000431583               0.000393566               0.000000000               0.000000000               0.000000000               0.000000000               0.000318217               0.001329438               0.000027077              -0.000046848               0.000458758               0.000411910               0.000000000               0.000000000               0.000000000               0.000000000               0.000319063               0.001405211               0.000023244              -0.000056002               0.000487066               0.000431064               0.000000000               0.000000000               0.000000000               0.000000000               0.000316473               0.001475876               0.000017924              -0.000065807               0.000513889               0.000448082               0.000000000               0.000000000               0.000000000               0.000000000               0.000311357               0.001543848               0.000010537              -0.000076222               0.000540018               0.000463796               0.000000000               0.000000000               0.000000000               0.000000000               0.000302469               0.001574443               0.000003820              -0.000083379               0.000552602               0.000469223               0.000000000               0.000000000               0.000000000               0.000000000               0.000106675               0.000116450               0.000061459               0.000025447               0.000030334               0.000055781               0.000000000               0.000000000               0.000000000               0.000000000               0.000141241               0.000218219               0.000077798               0.000025688               0.000064176               0.000089864               0.000000000               0.000000000               0.000000000               0.000000000               0.000172468               0.000384349               0.000084657               0.000016632               0.000122571               0.000139203               0.000000000               0.000000000               0.000000000               0.000000000               0.000195691               0.000533002               0.000075054               0.000006759               0.000175413               0.000182172               0.000000000               0.000000000               0.000000000               0.000000000               0.000216476               0.000666860               0.000060410              -0.000002179               0.000223011               0.000220832               0.000000000               0.000000000               0.000000000               0.000000000               0.000239657               0.000783054               0.000043448              -0.000008010               0.000263685               0.000255675               0.000000000               0.000000000               0.000000000               0.000000000               0.000269110               0.000885009               0.000026881              -0.000009710               0.000298237               0.000288527               0.000000000               0.000000000               0.000000000               0.000000000               0.000300574               0.000977675               0.000014986              -0.000009494               0.000329053               0.000319559               0.000000000               0.000000000               0.000000000               0.000000000               0.000325745               0.001062090               0.000011413              -0.000010607               0.000357562               0.000346955               0.000000000               0.000000000               0.000000000               0.000000000               0.000342270               0.001138351               0.000012891              -0.000013942               0.000384094               0.000370152               0.000000000               0.000000000               0.000000000               0.000000000               0.000351344               0.001204269               0.000015484              -0.000018780               0.000407679               0.000388899               0.000000000               0.000000000               0.000000000               0.000000000               0.000356545               0.001266292               0.000018058              -0.000024582               0.000430287               0.000405705               0.000000000               0.000000000               0.000000000               0.000000000               0.000362773               0.001334266               0.000018674              -0.000030743               0.000454999               0.000424255               0.000000000               0.000000000               0.000000000               0.000000000               0.000370776               0.001407368               0.000016583              -0.000036880               0.000481411               0.000444532               0.000000000               0.000000000               0.000000000               0.000000000               0.000378310               0.001479383               0.000012448              -0.000043056               0.000507475               0.000464419               0.000000000               0.000000000               0.000000000               0.000000000               0.000384875               0.001548039               0.000007742              -0.000049176               0.000532400               0.000483224               0.000000000               0.000000000               0.000000000               0.000000000               0.000384213               0.001578327               0.000004039              -0.000053211               0.000543841               0.000490630               0.000000000               0.000000000               0.000000000               0.000000000               0.000084726               0.000091353               0.000039029               0.000020353               0.000023666               0.000044019               0.000000000               0.000000000               0.000000000               0.000000000               0.000139279               0.000188244               0.000055099               0.000028699               0.000053181               0.000081880               0.000000000               0.000000000               0.000000000               0.000000000               0.000187538               0.000347917               0.000064604               0.000026837               0.000107026               0.000133863               0.000000000               0.000000000               0.000000000               0.000000000               0.000215226               0.000497406               0.000059084               0.000018534               0.000159623               0.000178156               0.000000000               0.000000000               0.000000000               0.000000000               0.000235046               0.000635343               0.000049195               0.000008724               0.000208871               0.000217595               0.000000000               0.000000000               0.000000000               0.000000000               0.000255296               0.000759856               0.000037292               0.000000754               0.000253032               0.000253785               0.000000000               0.000000000               0.000000000               0.000000000               0.000280262               0.000873419               0.000024740              -0.000004079               0.000292497               0.000288418               0.000000000               0.000000000               0.000000000               0.000000000               0.000309157               0.000974843               0.000013103              -0.000005922               0.000326918               0.000320997               0.000000000               0.000000000               0.000000000               0.000000000               0.000336652               0.001065407               0.000006914              -0.000006931               0.000357443               0.000350511               0.000000000               0.000000000               0.000000000               0.000000000               0.000359153               0.001146188               0.000005873              -0.000008591               0.000384923               0.000376331               0.000000000               0.000000000               0.000000000               0.000000000               0.000376283               0.001216116               0.000006337              -0.000010908               0.000409004               0.000398096               0.000000000               0.000000000               0.000000000               0.000000000               0.000388686               0.001277520               0.000008061              -0.000013933               0.000430480               0.000416547               0.000000000               0.000000000               0.000000000               0.000000000               0.000400525               0.001340568               0.000009445              -0.000017374               0.000452643               0.000435269               0.000000000               0.000000000               0.000000000               0.000000000               0.000413430               0.001406969               0.000008593              -0.000020835               0.000475930               0.000455095               0.000000000               0.000000000               0.000000000               0.000000000               0.000428952               0.001479115               0.000006214              -0.000024032               0.000501044               0.000477012               0.000000000               0.000000000               0.000000000               0.000000000               0.000446017               0.001553059               0.000003555              -0.000026876               0.000526640               0.000499764               0.000000000               0.000000000               0.000000000               0.000000000               0.000452593               0.001586084               0.000001743              -0.000028538               0.000538202               0.000509664               0.000000000               0.000000000               0.000000000               0.000000000               0.000070406               0.000075319               0.000018377               0.000016987               0.000019444               0.000036431               0.000000000               0.000000000               0.000000000               0.000000000               0.000138794               0.000168179               0.000028235               0.000031025               0.000045717               0.000076742               0.000000000               0.000000000               0.000000000               0.000000000               0.000197595               0.000322317               0.000034757               0.000033808               0.000096168               0.000129977               0.000000000               0.000000000               0.000000000               0.000000000               0.000229262               0.000471475               0.000032511               0.000027039               0.000148144               0.000175182               0.000000000               0.000000000               0.000000000               0.000000000               0.000250835               0.000611448               0.000027905               0.000017632               0.000197936               0.000215568               0.000000000               0.000000000               0.000000000               0.000000000               0.000269478               0.000741998               0.000021700               0.000008304               0.000244562               0.000252866               0.000000000               0.000000000               0.000000000               0.000000000               0.000289939               0.000862484               0.000014585               0.000000917               0.000287186               0.000288103               0.000000000               0.000000000               0.000000000               0.000000000               0.000314163               0.000968685               0.000007638              -0.000003275               0.000323983               0.000320709               0.000000000               0.000000000               0.000000000               0.000000000               0.000342320               0.001065182               0.000003407              -0.000004778               0.000356650               0.000351872               0.000000000               0.000000000               0.000000000               0.000000000               0.000368736               0.001149979               0.000002284              -0.000005471               0.000385146               0.000379675               0.000000000               0.000000000               0.000000000               0.000000000               0.000391270               0.001222595               0.000001903              -0.000006098               0.000409560               0.000403462               0.000000000               0.000000000               0.000000000               0.000000000               0.000409944               0.001285168               0.000002273              -0.000006917               0.000430691               0.000423774               0.000000000               0.000000000               0.000000000               0.000000000               0.000426245               0.001344326               0.000002960              -0.000008199               0.000450837               0.000442638               0.000000000               0.000000000               0.000000000               0.000000000               0.000442557               0.001405751               0.000002625              -0.000009760               0.000471832               0.000462072               0.000000000               0.000000000               0.000000000               0.000000000               0.000462224               0.001477260               0.000001723              -0.000011323               0.000496190               0.000484866               0.000000000               0.000000000               0.000000000               0.000000000               0.000483656               0.001553493               0.000000591              -0.000012815               0.000522098               0.000509282               0.000000000               0.000000000               0.000000000               0.000000000               0.000492866               0.001588204              -0.000000223              -0.000013701               0.000533963               0.000520262               0.000000000               0.000000000               0.000000000               0.000000000               0.000000000               0.000000000               0.000000000               0.000000000               0.000000000               0.000000000               0.000000000               0.000000000               0.000000000               0.000000000               0.000000000               0.000000000               0.000000000               0.000000000               0.000000000               0.000000000               0.000000000               0.000000000               0.000000000               0.000000000               0.000000000               0.000000000               0.000000000               0.000000000               0.000000000               0.000000000               0.000000000               0.000000000               0.000000000               0.000000000               0.000000000               0.000000000               0.000000000               0.000000000               0.000000000               0.000000000               0.000000000               0.000000000               0.000000000               0.000000000               0.000000000               0.000000000               0.000000000               0.000000000               0.000000000               0.000000000               0.000000000               0.000000000               0.000000000               0.000000000               0.000000000               0.000000000               0.000000000               0.000000000               0.000000000               0.000000000               0.000000000               0.000000000               0.000000000               0.000000000               0.000000000               0.000000000               0.000000000               0.000000000               0.000000000               0.000000000               0.000000000               0.000000000               0.000000000               0.000000000               0.000000000               0.000000000               0.000000000               0.000000000               0.000000000               0.000000000               0.000000000               0.000000000               0.000000000               0.000000000               0.000000000               0.000000000               0.000000000               0.000000000               0.000000000               0.000000000               0.000000000               0.000000000               0.000000000               0.000000000               0.000000000               0.000000000               0.000000000               0.000000000               0.000000000               0.000000000               0.000000000               0.000000000               0.000000000               0.000000000               0.000000000               0.000000000               0.000000000               0.000000000               0.000000000               0.000000000               0.000000000               0.000000000               0.000000000               0.000000000               0.000000000               0.000000000               0.000000000               0.000000000               0.000000000               0.000000000               0.000000000               0.000000000               0.000000000               0.000000000               0.000000000               0.000000000               0.000000000               0.000000000               0.000000000               0.000000000               0.000000000               0.000000000               0.000000000               0.000000000               0.000000000               0.000000000               0.000000000               0.000000000               0.000000000               0.000000000               0.000000000               0.000000000               0.000000000               0.000000000               0.000000000               0.000000000               0.000000000               0.000000000               0.000000000               0.000000000               0.000000000               0.000000000               0.000000000               0.000000000               0.000000000               0.000000000               0.000000000               0.000000000               0.000000000               0.000000000               0.000000000               0.000000000               0.000000000               0.000000000               0.000000000               0.000000000               0.000000000               0.000000000               0.000000000               0.000000000               0.000000000               0.000000000               0.000000000               0.000000000 </DataArray>
</PointData>
</Piece>
</UnstructuredGrid> </VTKFile>
