<?xml version="1.0"?>
<VTKFile type="UnstructuredGrid" version="0.1">
<UnstructuredGrid>
<Piece NumberOfPoints="      1156" NumberOfCells="      1024">
<Points>
<DataArray type="Float64"                                    Name="coordinates"                                                      NumberOfComponents=" 3" format="ascii">
              0.133000000               0.000000000               0.000000000               0.155937500               0.000000000               0.000000000               0.178875000               0.000000000               0.000000000               0.201812500               0.000000000               0.000000000               0.224750000               0.000000000               0.000000000               0.247687500               0.000000000               0.000000000               0.270625000               0.000000000               0.000000000               0.293562500               0.000000000               0.000000000               0.316500000               0.000000000               0.000000000               0.339437500               0.000000000               0.000000000               0.362375000               0.000000000               0.000000000               0.385312500               0.000000000               0.000000000               0.408250000               0.000000000               0.000000000               0.431187500               0.000000000               0.000000000               0.454125000               0.000000000               0.000000000               0.477062500               0.000000000               0.000000000               0.500000000               0.000000000               0.000000000               0.132359569               0.013036280               0.000000000               0.155337096               0.016127762               0.000000000               0.178314623               0.019219245               0.000000000               0.201292150               0.022310727               0.000000000               0.224269676               0.025402210               0.000000000               0.247247203               0.028493692               0.000000000               0.270224730               0.031585175               0.000000000               0.293202257               0.034676657               0.000000000               0.316179784               0.037768140               0.000000000               0.339157311               0.040859622               0.000000000               0.362134838               0.043951105               0.000000000               0.385112365               0.047042587               0.000000000               0.408089892               0.050134070               0.000000000               0.431067419               0.053225552               0.000000000               0.454044946               0.056317035               0.000000000               0.477022473               0.059408517               0.000000000               0.500000000               0.062500000               0.000000000               0.130444442               0.025947013               0.000000000               0.153541665               0.032137825               0.000000000               0.176638887               0.038328636               0.000000000               0.199736109               0.044519448               0.000000000               0.222833332               0.050710260               0.000000000               0.245930554               0.056901071               0.000000000               0.269027776               0.063091883               0.000000000               0.292124999               0.069282695               0.000000000               0.315222221               0.075473506               0.000000000               0.338319444               0.081664318               0.000000000               0.361416666               0.087855130               0.000000000               0.384513888               0.094045942               0.000000000               0.407611111               0.100236753               0.000000000               0.430708333               0.106427565               0.000000000               0.453805555               0.112618377               0.000000000               0.476902778               0.118809188               0.000000000               0.500000000               0.125000000               0.000000000               0.127273065               0.038607862               0.000000000               0.150568498               0.047913621               0.000000000               0.173863932               0.057219379               0.000000000               0.197159365               0.066525138               0.000000000               0.220454798               0.075830897               0.000000000               0.243750232               0.085136655               0.000000000               0.267045665               0.094442414               0.000000000               0.290341099               0.103748172               0.000000000               0.313636532               0.113053931               0.000000000               0.336931966               0.122359690               0.000000000               0.360227399               0.131665448               0.000000000               0.383522833               0.140971207               0.000000000               0.406818266               0.150276966               0.000000000               0.430113700               0.159582724               0.000000000               0.453409133               0.168888483               0.000000000               0.476704567               0.178194241               0.000000000               0.500000000               0.187500000               0.000000000               0.122875978               0.050896897               0.000000000               0.146446229               0.063340840               0.000000000               0.170016481               0.075784784               0.000000000               0.193586732               0.088228728               0.000000000               0.217156983               0.100672672               0.000000000               0.240727235               0.113116616               0.000000000               0.264297486               0.125560560               0.000000000               0.287867738               0.138004504               0.000000000               0.311437989               0.150448448               0.000000000               0.335008240               0.162892392               0.000000000               0.358578492               0.175336336               0.000000000               0.382148743               0.187780280               0.000000000               0.405718994               0.200224224               0.000000000               0.429289246               0.212668168               0.000000000               0.452859497               0.225112112               0.000000000               0.476429749               0.237556056               0.000000000               0.500000000               0.250000000               0.000000000               0.117295528               0.062695766               0.000000000               0.141214558               0.078308531               0.000000000               0.165133587               0.093921295               0.000000000               0.189052617               0.109534060               0.000000000               0.212971646               0.125146824               0.000000000               0.236890676               0.140759589               0.000000000               0.260809705               0.156372354               0.000000000               0.284728735               0.171985118               0.000000000               0.308647764               0.187597883               0.000000000               0.332566794               0.203210648               0.000000000               0.356485823               0.218823412               0.000000000               0.380404853               0.234436177               0.000000000               0.404323882               0.250048941               0.000000000               0.428242912               0.265661706               0.000000000               0.452161941               0.281274471               0.000000000               0.476080971               0.296887235               0.000000000               0.500000000               0.312500000               0.000000000               0.110585458               0.073890841               0.000000000               0.134923867               0.092710163               0.000000000               0.159262276               0.111529486               0.000000000               0.183600685               0.130348808               0.000000000               0.207939094               0.149168131               0.000000000               0.232277503               0.167987453               0.000000000               0.256615912               0.186806776               0.000000000               0.280954320               0.205626098               0.000000000               0.305292729               0.224445420               0.000000000               0.329631138               0.243264743               0.000000000               0.353969547               0.262084065               0.000000000               0.378307956               0.280903388               0.000000000               0.402646365               0.299722710               0.000000000               0.426984773               0.318542033               0.000000000               0.451323182               0.337361355               0.000000000               0.475661591               0.356180678               0.000000000               0.500000000               0.375000000               0.000000000               0.102810390               0.084374307               0.000000000               0.127634741               0.106444663               0.000000000               0.152459092               0.128515018               0.000000000               0.177283442               0.150585374               0.000000000               0.202107793               0.172655730               0.000000000               0.226932143               0.194726086               0.000000000               0.251756494               0.216796442               0.000000000               0.276580845               0.238866798               0.000000000               0.301405195               0.260937153               0.000000000               0.326229546               0.283007509               0.000000000               0.351053896               0.305077865               0.000000000               0.375878247               0.327148221               0.000000000               0.400702598               0.349218577               0.000000000               0.425526948               0.371288933               0.000000000               0.450351299               0.393359288               0.000000000               0.475175649               0.415429644               0.000000000               0.500000000               0.437500000               0.000000000               0.094045202               0.094045202               0.000000000               0.119417377               0.119417377               0.000000000               0.144789552               0.144789552               0.000000000               0.170161727               0.170161727               0.000000000               0.195533901               0.195533901               0.000000000               0.220906076               0.220906076               0.000000000               0.246278251               0.246278251               0.000000000               0.271650426               0.271650426               0.000000000               0.297022601               0.297022601               0.000000000               0.322394776               0.322394776               0.000000000               0.347766951               0.347766951               0.000000000               0.373139126               0.373139126               0.000000000               0.398511300               0.398511300               0.000000000               0.423883475               0.423883475               0.000000000               0.449255650               0.449255650               0.000000000               0.474627825               0.474627825               0.000000000               0.500000000               0.500000000               0.000000000               0.084374307               0.102810390               0.000000000               0.106444663               0.127634741               0.000000000               0.128515018               0.152459092               0.000000000               0.150585374               0.177283442               0.000000000               0.172655730               0.202107793               0.000000000               0.194726086               0.226932143               0.000000000               0.216796442               0.251756494               0.000000000               0.238866798               0.276580845               0.000000000               0.260937153               0.301405195               0.000000000               0.283007509               0.326229546               0.000000000               0.305077865               0.351053896               0.000000000               0.327148221               0.375878247               0.000000000               0.349218577               0.400702598               0.000000000               0.371288933               0.425526948               0.000000000               0.393359288               0.450351299               0.000000000               0.415429644               0.475175649               0.000000000               0.437500000               0.500000000               0.000000000               0.073890841               0.110585458               0.000000000               0.092710163               0.134923867               0.000000000               0.111529486               0.159262276               0.000000000               0.130348808               0.183600685               0.000000000               0.149168131               0.207939094               0.000000000               0.167987453               0.232277503               0.000000000               0.186806776               0.256615912               0.000000000               0.205626098               0.280954320               0.000000000               0.224445420               0.305292729               0.000000000               0.243264743               0.329631138               0.000000000               0.262084065               0.353969547               0.000000000               0.280903388               0.378307956               0.000000000               0.299722710               0.402646365               0.000000000               0.318542033               0.426984773               0.000000000               0.337361355               0.451323182               0.000000000               0.356180678               0.475661591               0.000000000               0.375000000               0.500000000               0.000000000               0.062695766               0.117295528               0.000000000               0.078308531               0.141214558               0.000000000               0.093921295               0.165133587               0.000000000               0.109534060               0.189052617               0.000000000               0.125146824               0.212971646               0.000000000               0.140759589               0.236890676               0.000000000               0.156372354               0.260809705               0.000000000               0.171985118               0.284728735               0.000000000               0.187597883               0.308647764               0.000000000               0.203210648               0.332566794               0.000000000               0.218823412               0.356485823               0.000000000               0.234436177               0.380404853               0.000000000               0.250048941               0.404323882               0.000000000               0.265661706               0.428242912               0.000000000               0.281274471               0.452161941               0.000000000               0.296887235               0.476080971               0.000000000               0.312500000               0.500000000               0.000000000               0.050896897               0.122875978               0.000000000               0.063340840               0.146446229               0.000000000               0.075784784               0.170016481               0.000000000               0.088228728               0.193586732               0.000000000               0.100672672               0.217156983               0.000000000               0.113116616               0.240727235               0.000000000               0.125560560               0.264297486               0.000000000               0.138004504               0.287867738               0.000000000               0.150448448               0.311437989               0.000000000               0.162892392               0.335008240               0.000000000               0.175336336               0.358578492               0.000000000               0.187780280               0.382148743               0.000000000               0.200224224               0.405718994               0.000000000               0.212668168               0.429289246               0.000000000               0.225112112               0.452859497               0.000000000               0.237556056               0.476429749               0.000000000               0.250000000               0.500000000               0.000000000               0.038607862               0.127273065               0.000000000               0.047913621               0.150568498               0.000000000               0.057219379               0.173863932               0.000000000               0.066525138               0.197159365               0.000000000               0.075830897               0.220454798               0.000000000               0.085136655               0.243750232               0.000000000               0.094442414               0.267045665               0.000000000               0.103748172               0.290341099               0.000000000               0.113053931               0.313636532               0.000000000               0.122359690               0.336931966               0.000000000               0.131665448               0.360227399               0.000000000               0.140971207               0.383522833               0.000000000               0.150276966               0.406818266               0.000000000               0.159582724               0.430113700               0.000000000               0.168888483               0.453409133               0.000000000               0.178194241               0.476704567               0.000000000               0.187500000               0.500000000               0.000000000               0.025947013               0.130444442               0.000000000               0.032137825               0.153541665               0.000000000               0.038328636               0.176638887               0.000000000               0.044519448               0.199736109               0.000000000               0.050710260               0.222833332               0.000000000               0.056901071               0.245930554               0.000000000               0.063091883               0.269027776               0.000000000               0.069282695               0.292124999               0.000000000               0.075473506               0.315222221               0.000000000               0.081664318               0.338319444               0.000000000               0.087855130               0.361416666               0.000000000               0.094045942               0.384513888               0.000000000               0.100236753               0.407611111               0.000000000               0.106427565               0.430708333               0.000000000               0.112618377               0.453805555               0.000000000               0.118809188               0.476902778               0.000000000               0.125000000               0.500000000               0.000000000               0.013036280               0.132359569               0.000000000               0.016127762               0.155337096               0.000000000               0.019219245               0.178314623               0.000000000               0.022310727               0.201292150               0.000000000               0.025402210               0.224269676               0.000000000               0.028493692               0.247247203               0.000000000               0.031585175               0.270224730               0.000000000               0.034676657               0.293202257               0.000000000               0.037768140               0.316179784               0.000000000               0.040859622               0.339157311               0.000000000               0.043951105               0.362134838               0.000000000               0.047042587               0.385112365               0.000000000               0.050134070               0.408089892               0.000000000               0.053225552               0.431067419               0.000000000               0.056317035               0.454044946               0.000000000               0.059408517               0.477022473               0.000000000               0.062500000               0.500000000               0.000000000               0.000000000               0.133000000               0.000000000               0.000000000               0.155937500               0.000000000               0.000000000               0.178875000               0.000000000               0.000000000               0.201812500               0.000000000               0.000000000               0.224750000               0.000000000               0.000000000               0.247687500               0.000000000               0.000000000               0.270625000               0.000000000               0.000000000               0.293562500               0.000000000               0.000000000               0.316500000               0.000000000               0.000000000               0.339437500               0.000000000               0.000000000               0.362375000               0.000000000               0.000000000               0.385312500               0.000000000               0.000000000               0.408250000               0.000000000               0.000000000               0.431187500               0.000000000               0.000000000               0.454125000               0.000000000               0.000000000               0.477062500               0.000000000               0.000000000               0.500000000               0.000000000               0.133000000               0.000000000               0.000000000               0.155937500               0.000000000               0.000000000               0.178875000               0.000000000               0.000000000               0.201812500               0.000000000               0.000000000               0.224750000               0.000000000               0.000000000               0.247687500               0.000000000               0.000000000               0.270625000               0.000000000               0.000000000               0.293562500               0.000000000               0.000000000               0.316500000               0.000000000               0.000000000               0.339437500               0.000000000               0.000000000               0.362375000               0.000000000               0.000000000               0.385312500               0.000000000               0.000000000               0.408250000               0.000000000               0.000000000               0.431187500               0.000000000               0.000000000               0.454125000               0.000000000               0.000000000               0.477062500               0.000000000               0.000000000               0.500000000               0.000000000               0.000000000               0.132359569              -0.013036280               0.000000000               0.155337096              -0.016127762               0.000000000               0.178314623              -0.019219245               0.000000000               0.201292150              -0.022310727               0.000000000               0.224269676              -0.025402210               0.000000000               0.247247203              -0.028493692               0.000000000               0.270224730              -0.031585175               0.000000000               0.293202257              -0.034676657               0.000000000               0.316179784              -0.037768140               0.000000000               0.339157311              -0.040859622               0.000000000               0.362134838              -0.043951105               0.000000000               0.385112365              -0.047042587               0.000000000               0.408089892              -0.050134070               0.000000000               0.431067419              -0.053225552               0.000000000               0.454044946              -0.056317035               0.000000000               0.477022473              -0.059408517               0.000000000               0.500000000              -0.062500000               0.000000000               0.130444442              -0.025947013               0.000000000               0.153541665              -0.032137825               0.000000000               0.176638887              -0.038328636               0.000000000               0.199736109              -0.044519448               0.000000000               0.222833332              -0.050710260               0.000000000               0.245930554              -0.056901071               0.000000000               0.269027776              -0.063091883               0.000000000               0.292124999              -0.069282695               0.000000000               0.315222221              -0.075473506               0.000000000               0.338319444              -0.081664318               0.000000000               0.361416666              -0.087855130               0.000000000               0.384513888              -0.094045942               0.000000000               0.407611111              -0.100236753               0.000000000               0.430708333              -0.106427565               0.000000000               0.453805555              -0.112618377               0.000000000               0.476902778              -0.118809188               0.000000000               0.500000000              -0.125000000               0.000000000               0.127273065              -0.038607862               0.000000000               0.150568498              -0.047913621               0.000000000               0.173863932              -0.057219379               0.000000000               0.197159365              -0.066525138               0.000000000               0.220454798              -0.075830897               0.000000000               0.243750232              -0.085136655               0.000000000               0.267045665              -0.094442414               0.000000000               0.290341099              -0.103748172               0.000000000               0.313636532              -0.113053931               0.000000000               0.336931966              -0.122359690               0.000000000               0.360227399              -0.131665448               0.000000000               0.383522833              -0.140971207               0.000000000               0.406818266              -0.150276966               0.000000000               0.430113700              -0.159582724               0.000000000               0.453409133              -0.168888483               0.000000000               0.476704567              -0.178194241               0.000000000               0.500000000              -0.187500000               0.000000000               0.122875978              -0.050896897               0.000000000               0.146446229              -0.063340840               0.000000000               0.170016481              -0.075784784               0.000000000               0.193586732              -0.088228728               0.000000000               0.217156983              -0.100672672               0.000000000               0.240727235              -0.113116616               0.000000000               0.264297486              -0.125560560               0.000000000               0.287867738              -0.138004504               0.000000000               0.311437989              -0.150448448               0.000000000               0.335008240              -0.162892392               0.000000000               0.358578492              -0.175336336               0.000000000               0.382148743              -0.187780280               0.000000000               0.405718994              -0.200224224               0.000000000               0.429289246              -0.212668168               0.000000000               0.452859497              -0.225112112               0.000000000               0.476429749              -0.237556056               0.000000000               0.500000000              -0.250000000               0.000000000               0.117295528              -0.062695766               0.000000000               0.141214558              -0.078308531               0.000000000               0.165133587              -0.093921295               0.000000000               0.189052617              -0.109534060               0.000000000               0.212971646              -0.125146824               0.000000000               0.236890676              -0.140759589               0.000000000               0.260809705              -0.156372354               0.000000000               0.284728735              -0.171985118               0.000000000               0.308647764              -0.187597883               0.000000000               0.332566794              -0.203210648               0.000000000               0.356485823              -0.218823412               0.000000000               0.380404853              -0.234436177               0.000000000               0.404323882              -0.250048941               0.000000000               0.428242912              -0.265661706               0.000000000               0.452161941              -0.281274471               0.000000000               0.476080971              -0.296887235               0.000000000               0.500000000              -0.312500000               0.000000000               0.110585458              -0.073890841               0.000000000               0.134923867              -0.092710163               0.000000000               0.159262276              -0.111529486               0.000000000               0.183600685              -0.130348808               0.000000000               0.207939094              -0.149168131               0.000000000               0.232277503              -0.167987453               0.000000000               0.256615912              -0.186806776               0.000000000               0.280954320              -0.205626098               0.000000000               0.305292729              -0.224445420               0.000000000               0.329631138              -0.243264743               0.000000000               0.353969547              -0.262084065               0.000000000               0.378307956              -0.280903388               0.000000000               0.402646365              -0.299722710               0.000000000               0.426984773              -0.318542033               0.000000000               0.451323182              -0.337361355               0.000000000               0.475661591              -0.356180678               0.000000000               0.500000000              -0.375000000               0.000000000               0.102810390              -0.084374307               0.000000000               0.127634741              -0.106444663               0.000000000               0.152459092              -0.128515018               0.000000000               0.177283442              -0.150585374               0.000000000               0.202107793              -0.172655730               0.000000000               0.226932143              -0.194726086               0.000000000               0.251756494              -0.216796442               0.000000000               0.276580845              -0.238866798               0.000000000               0.301405195              -0.260937153               0.000000000               0.326229546              -0.283007509               0.000000000               0.351053896              -0.305077865               0.000000000               0.375878247              -0.327148221               0.000000000               0.400702598              -0.349218577               0.000000000               0.425526948              -0.371288933               0.000000000               0.450351299              -0.393359288               0.000000000               0.475175649              -0.415429644               0.000000000               0.500000000              -0.437500000               0.000000000               0.094045202              -0.094045202               0.000000000               0.119417377              -0.119417377               0.000000000               0.144789552              -0.144789552               0.000000000               0.170161727              -0.170161727               0.000000000               0.195533901              -0.195533901               0.000000000               0.220906076              -0.220906076               0.000000000               0.246278251              -0.246278251               0.000000000               0.271650426              -0.271650426               0.000000000               0.297022601              -0.297022601               0.000000000               0.322394776              -0.322394776               0.000000000               0.347766951              -0.347766951               0.000000000               0.373139126              -0.373139126               0.000000000               0.398511300              -0.398511300               0.000000000               0.423883475              -0.423883475               0.000000000               0.449255650              -0.449255650               0.000000000               0.474627825              -0.474627825               0.000000000               0.500000000              -0.500000000               0.000000000               0.084374307              -0.102810390               0.000000000               0.106444663              -0.127634741               0.000000000               0.128515018              -0.152459092               0.000000000               0.150585374              -0.177283442               0.000000000               0.172655730              -0.202107793               0.000000000               0.194726086              -0.226932143               0.000000000               0.216796442              -0.251756494               0.000000000               0.238866798              -0.276580845               0.000000000               0.260937153              -0.301405195               0.000000000               0.283007509              -0.326229546               0.000000000               0.305077865              -0.351053896               0.000000000               0.327148221              -0.375878247               0.000000000               0.349218577              -0.400702598               0.000000000               0.371288933              -0.425526948               0.000000000               0.393359288              -0.450351299               0.000000000               0.415429644              -0.475175649               0.000000000               0.437500000              -0.500000000               0.000000000               0.073890841              -0.110585458               0.000000000               0.092710163              -0.134923867               0.000000000               0.111529486              -0.159262276               0.000000000               0.130348808              -0.183600685               0.000000000               0.149168131              -0.207939094               0.000000000               0.167987453              -0.232277503               0.000000000               0.186806776              -0.256615912               0.000000000               0.205626098              -0.280954320               0.000000000               0.224445420              -0.305292729               0.000000000               0.243264743              -0.329631138               0.000000000               0.262084065              -0.353969547               0.000000000               0.280903388              -0.378307956               0.000000000               0.299722710              -0.402646365               0.000000000               0.318542033              -0.426984773               0.000000000               0.337361355              -0.451323182               0.000000000               0.356180678              -0.475661591               0.000000000               0.375000000              -0.500000000               0.000000000               0.062695766              -0.117295528               0.000000000               0.078308531              -0.141214558               0.000000000               0.093921295              -0.165133587               0.000000000               0.109534060              -0.189052617               0.000000000               0.125146824              -0.212971646               0.000000000               0.140759589              -0.236890676               0.000000000               0.156372354              -0.260809705               0.000000000               0.171985118              -0.284728735               0.000000000               0.187597883              -0.308647764               0.000000000               0.203210648              -0.332566794               0.000000000               0.218823412              -0.356485823               0.000000000               0.234436177              -0.380404853               0.000000000               0.250048941              -0.404323882               0.000000000               0.265661706              -0.428242912               0.000000000               0.281274471              -0.452161941               0.000000000               0.296887235              -0.476080971               0.000000000               0.312500000              -0.500000000               0.000000000               0.050896897              -0.122875978               0.000000000               0.063340840              -0.146446229               0.000000000               0.075784784              -0.170016481               0.000000000               0.088228728              -0.193586732               0.000000000               0.100672672              -0.217156983               0.000000000               0.113116616              -0.240727235               0.000000000               0.125560560              -0.264297486               0.000000000               0.138004504              -0.287867738               0.000000000               0.150448448              -0.311437989               0.000000000               0.162892392              -0.335008240               0.000000000               0.175336336              -0.358578492               0.000000000               0.187780280              -0.382148743               0.000000000               0.200224224              -0.405718994               0.000000000               0.212668168              -0.429289246               0.000000000               0.225112112              -0.452859497               0.000000000               0.237556056              -0.476429749               0.000000000               0.250000000              -0.500000000               0.000000000               0.038607862              -0.127273065               0.000000000               0.047913621              -0.150568498               0.000000000               0.057219379              -0.173863932               0.000000000               0.066525138              -0.197159365               0.000000000               0.075830897              -0.220454798               0.000000000               0.085136655              -0.243750232               0.000000000               0.094442414              -0.267045665               0.000000000               0.103748172              -0.290341099               0.000000000               0.113053931              -0.313636532               0.000000000               0.122359690              -0.336931966               0.000000000               0.131665448              -0.360227399               0.000000000               0.140971207              -0.383522833               0.000000000               0.150276966              -0.406818266               0.000000000               0.159582724              -0.430113700               0.000000000               0.168888483              -0.453409133               0.000000000               0.178194241              -0.476704567               0.000000000               0.187500000              -0.500000000               0.000000000               0.025947013              -0.130444442               0.000000000               0.032137825              -0.153541665               0.000000000               0.038328636              -0.176638887               0.000000000               0.044519448              -0.199736109               0.000000000               0.050710260              -0.222833332               0.000000000               0.056901071              -0.245930554               0.000000000               0.063091883              -0.269027776               0.000000000               0.069282695              -0.292124999               0.000000000               0.075473506              -0.315222221               0.000000000               0.081664318              -0.338319444               0.000000000               0.087855130              -0.361416666               0.000000000               0.094045942              -0.384513888               0.000000000               0.100236753              -0.407611111               0.000000000               0.106427565              -0.430708333               0.000000000               0.112618377              -0.453805555               0.000000000               0.118809188              -0.476902778               0.000000000               0.125000000              -0.500000000               0.000000000               0.013036280              -0.132359569               0.000000000               0.016127762              -0.155337096               0.000000000               0.019219245              -0.178314623               0.000000000               0.022310727              -0.201292150               0.000000000               0.025402210              -0.224269676               0.000000000               0.028493692              -0.247247203               0.000000000               0.031585175              -0.270224730               0.000000000               0.034676657              -0.293202257               0.000000000               0.037768140              -0.316179784               0.000000000               0.040859622              -0.339157311               0.000000000               0.043951105              -0.362134838               0.000000000               0.047042587              -0.385112365               0.000000000               0.050134070              -0.408089892               0.000000000               0.053225552              -0.431067419               0.000000000               0.056317035              -0.454044946               0.000000000               0.059408517              -0.477022473               0.000000000               0.062500000              -0.500000000               0.000000000               0.000000000              -0.133000000               0.000000000               0.000000000              -0.155937500               0.000000000               0.000000000              -0.178875000               0.000000000               0.000000000              -0.201812500               0.000000000               0.000000000              -0.224750000               0.000000000               0.000000000              -0.247687500               0.000000000               0.000000000              -0.270625000               0.000000000               0.000000000              -0.293562500               0.000000000               0.000000000              -0.316500000               0.000000000               0.000000000              -0.339437500               0.000000000               0.000000000              -0.362375000               0.000000000               0.000000000              -0.385312500               0.000000000               0.000000000              -0.408250000               0.000000000               0.000000000              -0.431187500               0.000000000               0.000000000              -0.454125000               0.000000000               0.000000000              -0.477062500               0.000000000               0.000000000              -0.500000000               0.000000000              -0.133000000               0.000000000               0.000000000              -0.155937500               0.000000000               0.000000000              -0.178875000               0.000000000               0.000000000              -0.201812500               0.000000000               0.000000000              -0.224750000               0.000000000               0.000000000              -0.247687500               0.000000000               0.000000000              -0.270625000               0.000000000               0.000000000              -0.293562500               0.000000000               0.000000000              -0.316500000               0.000000000               0.000000000              -0.339437500               0.000000000               0.000000000              -0.362375000               0.000000000               0.000000000              -0.385312500               0.000000000               0.000000000              -0.408250000               0.000000000               0.000000000              -0.431187500               0.000000000               0.000000000              -0.454125000               0.000000000               0.000000000              -0.477062500               0.000000000               0.000000000              -0.500000000               0.000000000               0.000000000              -0.132359569              -0.013036280               0.000000000              -0.155337096              -0.016127762               0.000000000              -0.178314623              -0.019219245               0.000000000              -0.201292150              -0.022310727               0.000000000              -0.224269676              -0.025402210               0.000000000              -0.247247203              -0.028493692               0.000000000              -0.270224730              -0.031585175               0.000000000              -0.293202257              -0.034676657               0.000000000              -0.316179784              -0.037768140               0.000000000              -0.339157311              -0.040859622               0.000000000              -0.362134838              -0.043951105               0.000000000              -0.385112365              -0.047042587               0.000000000              -0.408089892              -0.050134070               0.000000000              -0.431067419              -0.053225552               0.000000000              -0.454044946              -0.056317035               0.000000000              -0.477022473              -0.059408517               0.000000000              -0.500000000              -0.062500000               0.000000000              -0.130444442              -0.025947013               0.000000000              -0.153541665              -0.032137825               0.000000000              -0.176638887              -0.038328636               0.000000000              -0.199736109              -0.044519448               0.000000000              -0.222833332              -0.050710260               0.000000000              -0.245930554              -0.056901071               0.000000000              -0.269027776              -0.063091883               0.000000000              -0.292124999              -0.069282695               0.000000000              -0.315222221              -0.075473506               0.000000000              -0.338319444              -0.081664318               0.000000000              -0.361416666              -0.087855130               0.000000000              -0.384513888              -0.094045942               0.000000000              -0.407611111              -0.100236753               0.000000000              -0.430708333              -0.106427565               0.000000000              -0.453805555              -0.112618377               0.000000000              -0.476902778              -0.118809188               0.000000000              -0.500000000              -0.125000000               0.000000000              -0.127273065              -0.038607862               0.000000000              -0.150568498              -0.047913621               0.000000000              -0.173863932              -0.057219379               0.000000000              -0.197159365              -0.066525138               0.000000000              -0.220454798              -0.075830897               0.000000000              -0.243750232              -0.085136655               0.000000000              -0.267045665              -0.094442414               0.000000000              -0.290341099              -0.103748172               0.000000000              -0.313636532              -0.113053931               0.000000000              -0.336931966              -0.122359690               0.000000000              -0.360227399              -0.131665448               0.000000000              -0.383522833              -0.140971207               0.000000000              -0.406818266              -0.150276966               0.000000000              -0.430113700              -0.159582724               0.000000000              -0.453409133              -0.168888483               0.000000000              -0.476704567              -0.178194241               0.000000000              -0.500000000              -0.187500000               0.000000000              -0.122875978              -0.050896897               0.000000000              -0.146446229              -0.063340840               0.000000000              -0.170016481              -0.075784784               0.000000000              -0.193586732              -0.088228728               0.000000000              -0.217156983              -0.100672672               0.000000000              -0.240727235              -0.113116616               0.000000000              -0.264297486              -0.125560560               0.000000000              -0.287867738              -0.138004504               0.000000000              -0.311437989              -0.150448448               0.000000000              -0.335008240              -0.162892392               0.000000000              -0.358578492              -0.175336336               0.000000000              -0.382148743              -0.187780280               0.000000000              -0.405718994              -0.200224224               0.000000000              -0.429289246              -0.212668168               0.000000000              -0.452859497              -0.225112112               0.000000000              -0.476429749              -0.237556056               0.000000000              -0.500000000              -0.250000000               0.000000000              -0.117295528              -0.062695766               0.000000000              -0.141214558              -0.078308531               0.000000000              -0.165133587              -0.093921295               0.000000000              -0.189052617              -0.109534060               0.000000000              -0.212971646              -0.125146824               0.000000000              -0.236890676              -0.140759589               0.000000000              -0.260809705              -0.156372354               0.000000000              -0.284728735              -0.171985118               0.000000000              -0.308647764              -0.187597883               0.000000000              -0.332566794              -0.203210648               0.000000000              -0.356485823              -0.218823412               0.000000000              -0.380404853              -0.234436177               0.000000000              -0.404323882              -0.250048941               0.000000000              -0.428242912              -0.265661706               0.000000000              -0.452161941              -0.281274471               0.000000000              -0.476080971              -0.296887235               0.000000000              -0.500000000              -0.312500000               0.000000000              -0.110585458              -0.073890841               0.000000000              -0.134923867              -0.092710163               0.000000000              -0.159262276              -0.111529486               0.000000000              -0.183600685              -0.130348808               0.000000000              -0.207939094              -0.149168131               0.000000000              -0.232277503              -0.167987453               0.000000000              -0.256615912              -0.186806776               0.000000000              -0.280954320              -0.205626098               0.000000000              -0.305292729              -0.224445420               0.000000000              -0.329631138              -0.243264743               0.000000000              -0.353969547              -0.262084065               0.000000000              -0.378307956              -0.280903388               0.000000000              -0.402646365              -0.299722710               0.000000000              -0.426984773              -0.318542033               0.000000000              -0.451323182              -0.337361355               0.000000000              -0.475661591              -0.356180678               0.000000000              -0.500000000              -0.375000000               0.000000000              -0.102810390              -0.084374307               0.000000000              -0.127634741              -0.106444663               0.000000000              -0.152459092              -0.128515018               0.000000000              -0.177283442              -0.150585374               0.000000000              -0.202107793              -0.172655730               0.000000000              -0.226932143              -0.194726086               0.000000000              -0.251756494              -0.216796442               0.000000000              -0.276580845              -0.238866798               0.000000000              -0.301405195              -0.260937153               0.000000000              -0.326229546              -0.283007509               0.000000000              -0.351053896              -0.305077865               0.000000000              -0.375878247              -0.327148221               0.000000000              -0.400702598              -0.349218577               0.000000000              -0.425526948              -0.371288933               0.000000000              -0.450351299              -0.393359288               0.000000000              -0.475175649              -0.415429644               0.000000000              -0.500000000              -0.437500000               0.000000000              -0.094045202              -0.094045202               0.000000000              -0.119417377              -0.119417377               0.000000000              -0.144789552              -0.144789552               0.000000000              -0.170161727              -0.170161727               0.000000000              -0.195533901              -0.195533901               0.000000000              -0.220906076              -0.220906076               0.000000000              -0.246278251              -0.246278251               0.000000000              -0.271650426              -0.271650426               0.000000000              -0.297022601              -0.297022601               0.000000000              -0.322394776              -0.322394776               0.000000000              -0.347766951              -0.347766951               0.000000000              -0.373139126              -0.373139126               0.000000000              -0.398511300              -0.398511300               0.000000000              -0.423883475              -0.423883475               0.000000000              -0.449255650              -0.449255650               0.000000000              -0.474627825              -0.474627825               0.000000000              -0.500000000              -0.500000000               0.000000000              -0.084374307              -0.102810390               0.000000000              -0.106444663              -0.127634741               0.000000000              -0.128515018              -0.152459092               0.000000000              -0.150585374              -0.177283442               0.000000000              -0.172655730              -0.202107793               0.000000000              -0.194726086              -0.226932143               0.000000000              -0.216796442              -0.251756494               0.000000000              -0.238866798              -0.276580845               0.000000000              -0.260937153              -0.301405195               0.000000000              -0.283007509              -0.326229546               0.000000000              -0.305077865              -0.351053896               0.000000000              -0.327148221              -0.375878247               0.000000000              -0.349218577              -0.400702598               0.000000000              -0.371288933              -0.425526948               0.000000000              -0.393359288              -0.450351299               0.000000000              -0.415429644              -0.475175649               0.000000000              -0.437500000              -0.500000000               0.000000000              -0.073890841              -0.110585458               0.000000000              -0.092710163              -0.134923867               0.000000000              -0.111529486              -0.159262276               0.000000000              -0.130348808              -0.183600685               0.000000000              -0.149168131              -0.207939094               0.000000000              -0.167987453              -0.232277503               0.000000000              -0.186806776              -0.256615912               0.000000000              -0.205626098              -0.280954320               0.000000000              -0.224445420              -0.305292729               0.000000000              -0.243264743              -0.329631138               0.000000000              -0.262084065              -0.353969547               0.000000000              -0.280903388              -0.378307956               0.000000000              -0.299722710              -0.402646365               0.000000000              -0.318542033              -0.426984773               0.000000000              -0.337361355              -0.451323182               0.000000000              -0.356180678              -0.475661591               0.000000000              -0.375000000              -0.500000000               0.000000000              -0.062695766              -0.117295528               0.000000000              -0.078308531              -0.141214558               0.000000000              -0.093921295              -0.165133587               0.000000000              -0.109534060              -0.189052617               0.000000000              -0.125146824              -0.212971646               0.000000000              -0.140759589              -0.236890676               0.000000000              -0.156372354              -0.260809705               0.000000000              -0.171985118              -0.284728735               0.000000000              -0.187597883              -0.308647764               0.000000000              -0.203210648              -0.332566794               0.000000000              -0.218823412              -0.356485823               0.000000000              -0.234436177              -0.380404853               0.000000000              -0.250048941              -0.404323882               0.000000000              -0.265661706              -0.428242912               0.000000000              -0.281274471              -0.452161941               0.000000000              -0.296887235              -0.476080971               0.000000000              -0.312500000              -0.500000000               0.000000000              -0.050896897              -0.122875978               0.000000000              -0.063340840              -0.146446229               0.000000000              -0.075784784              -0.170016481               0.000000000              -0.088228728              -0.193586732               0.000000000              -0.100672672              -0.217156983               0.000000000              -0.113116616              -0.240727235               0.000000000              -0.125560560              -0.264297486               0.000000000              -0.138004504              -0.287867738               0.000000000              -0.150448448              -0.311437989               0.000000000              -0.162892392              -0.335008240               0.000000000              -0.175336336              -0.358578492               0.000000000              -0.187780280              -0.382148743               0.000000000              -0.200224224              -0.405718994               0.000000000              -0.212668168              -0.429289246               0.000000000              -0.225112112              -0.452859497               0.000000000              -0.237556056              -0.476429749               0.000000000              -0.250000000              -0.500000000               0.000000000              -0.038607862              -0.127273065               0.000000000              -0.047913621              -0.150568498               0.000000000              -0.057219379              -0.173863932               0.000000000              -0.066525138              -0.197159365               0.000000000              -0.075830897              -0.220454798               0.000000000              -0.085136655              -0.243750232               0.000000000              -0.094442414              -0.267045665               0.000000000              -0.103748172              -0.290341099               0.000000000              -0.113053931              -0.313636532               0.000000000              -0.122359690              -0.336931966               0.000000000              -0.131665448              -0.360227399               0.000000000              -0.140971207              -0.383522833               0.000000000              -0.150276966              -0.406818266               0.000000000              -0.159582724              -0.430113700               0.000000000              -0.168888483              -0.453409133               0.000000000              -0.178194241              -0.476704567               0.000000000              -0.187500000              -0.500000000               0.000000000              -0.025947013              -0.130444442               0.000000000              -0.032137825              -0.153541665               0.000000000              -0.038328636              -0.176638887               0.000000000              -0.044519448              -0.199736109               0.000000000              -0.050710260              -0.222833332               0.000000000              -0.056901071              -0.245930554               0.000000000              -0.063091883              -0.269027776               0.000000000              -0.069282695              -0.292124999               0.000000000              -0.075473506              -0.315222221               0.000000000              -0.081664318              -0.338319444               0.000000000              -0.087855130              -0.361416666               0.000000000              -0.094045942              -0.384513888               0.000000000              -0.100236753              -0.407611111               0.000000000              -0.106427565              -0.430708333               0.000000000              -0.112618377              -0.453805555               0.000000000              -0.118809188              -0.476902778               0.000000000              -0.125000000              -0.500000000               0.000000000              -0.013036280              -0.132359569               0.000000000              -0.016127762              -0.155337096               0.000000000              -0.019219245              -0.178314623               0.000000000              -0.022310727              -0.201292150               0.000000000              -0.025402210              -0.224269676               0.000000000              -0.028493692              -0.247247203               0.000000000              -0.031585175              -0.270224730               0.000000000              -0.034676657              -0.293202257               0.000000000              -0.037768140              -0.316179784               0.000000000              -0.040859622              -0.339157311               0.000000000              -0.043951105              -0.362134838               0.000000000              -0.047042587              -0.385112365               0.000000000              -0.050134070              -0.408089892               0.000000000              -0.053225552              -0.431067419               0.000000000              -0.056317035              -0.454044946               0.000000000              -0.059408517              -0.477022473               0.000000000              -0.062500000              -0.500000000               0.000000000               0.000000000              -0.133000000               0.000000000               0.000000000              -0.155937500               0.000000000               0.000000000              -0.178875000               0.000000000               0.000000000              -0.201812500               0.000000000               0.000000000              -0.224750000               0.000000000               0.000000000              -0.247687500               0.000000000               0.000000000              -0.270625000               0.000000000               0.000000000              -0.293562500               0.000000000               0.000000000              -0.316500000               0.000000000               0.000000000              -0.339437500               0.000000000               0.000000000              -0.362375000               0.000000000               0.000000000              -0.385312500               0.000000000               0.000000000              -0.408250000               0.000000000               0.000000000              -0.431187500               0.000000000               0.000000000              -0.454125000               0.000000000               0.000000000              -0.477062500               0.000000000               0.000000000              -0.500000000               0.000000000              -0.133000000               0.000000000               0.000000000              -0.155937500               0.000000000               0.000000000              -0.178875000               0.000000000               0.000000000              -0.201812500               0.000000000               0.000000000              -0.224750000               0.000000000               0.000000000              -0.247687500               0.000000000               0.000000000              -0.270625000               0.000000000               0.000000000              -0.293562500               0.000000000               0.000000000              -0.316500000               0.000000000               0.000000000              -0.339437500               0.000000000               0.000000000              -0.362375000               0.000000000               0.000000000              -0.385312500               0.000000000               0.000000000              -0.408250000               0.000000000               0.000000000              -0.431187500               0.000000000               0.000000000              -0.454125000               0.000000000               0.000000000              -0.477062500               0.000000000               0.000000000              -0.500000000               0.000000000               0.000000000              -0.132359569               0.013036280               0.000000000              -0.155337096               0.016127762               0.000000000              -0.178314623               0.019219245               0.000000000              -0.201292150               0.022310727               0.000000000              -0.224269676               0.025402210               0.000000000              -0.247247203               0.028493692               0.000000000              -0.270224730               0.031585175               0.000000000              -0.293202257               0.034676657               0.000000000              -0.316179784               0.037768140               0.000000000              -0.339157311               0.040859622               0.000000000              -0.362134838               0.043951105               0.000000000              -0.385112365               0.047042587               0.000000000              -0.408089892               0.050134070               0.000000000              -0.431067419               0.053225552               0.000000000              -0.454044946               0.056317035               0.000000000              -0.477022473               0.059408517               0.000000000              -0.500000000               0.062500000               0.000000000              -0.130444442               0.025947013               0.000000000              -0.153541665               0.032137825               0.000000000              -0.176638887               0.038328636               0.000000000              -0.199736109               0.044519448               0.000000000              -0.222833332               0.050710260               0.000000000              -0.245930554               0.056901071               0.000000000              -0.269027776               0.063091883               0.000000000              -0.292124999               0.069282695               0.000000000              -0.315222221               0.075473506               0.000000000              -0.338319444               0.081664318               0.000000000              -0.361416666               0.087855130               0.000000000              -0.384513888               0.094045942               0.000000000              -0.407611111               0.100236753               0.000000000              -0.430708333               0.106427565               0.000000000              -0.453805555               0.112618377               0.000000000              -0.476902778               0.118809188               0.000000000              -0.500000000               0.125000000               0.000000000              -0.127273065               0.038607862               0.000000000              -0.150568498               0.047913621               0.000000000              -0.173863932               0.057219379               0.000000000              -0.197159365               0.066525138               0.000000000              -0.220454798               0.075830897               0.000000000              -0.243750232               0.085136655               0.000000000              -0.267045665               0.094442414               0.000000000              -0.290341099               0.103748172               0.000000000              -0.313636532               0.113053931               0.000000000              -0.336931966               0.122359690               0.000000000              -0.360227399               0.131665448               0.000000000              -0.383522833               0.140971207               0.000000000              -0.406818266               0.150276966               0.000000000              -0.430113700               0.159582724               0.000000000              -0.453409133               0.168888483               0.000000000              -0.476704567               0.178194241               0.000000000              -0.500000000               0.187500000               0.000000000              -0.122875978               0.050896897               0.000000000              -0.146446229               0.063340840               0.000000000              -0.170016481               0.075784784               0.000000000              -0.193586732               0.088228728               0.000000000              -0.217156983               0.100672672               0.000000000              -0.240727235               0.113116616               0.000000000              -0.264297486               0.125560560               0.000000000              -0.287867738               0.138004504               0.000000000              -0.311437989               0.150448448               0.000000000              -0.335008240               0.162892392               0.000000000              -0.358578492               0.175336336               0.000000000              -0.382148743               0.187780280               0.000000000              -0.405718994               0.200224224               0.000000000              -0.429289246               0.212668168               0.000000000              -0.452859497               0.225112112               0.000000000              -0.476429749               0.237556056               0.000000000              -0.500000000               0.250000000               0.000000000              -0.117295528               0.062695766               0.000000000              -0.141214558               0.078308531               0.000000000              -0.165133587               0.093921295               0.000000000              -0.189052617               0.109534060               0.000000000              -0.212971646               0.125146824               0.000000000              -0.236890676               0.140759589               0.000000000              -0.260809705               0.156372354               0.000000000              -0.284728735               0.171985118               0.000000000              -0.308647764               0.187597883               0.000000000              -0.332566794               0.203210648               0.000000000              -0.356485823               0.218823412               0.000000000              -0.380404853               0.234436177               0.000000000              -0.404323882               0.250048941               0.000000000              -0.428242912               0.265661706               0.000000000              -0.452161941               0.281274471               0.000000000              -0.476080971               0.296887235               0.000000000              -0.500000000               0.312500000               0.000000000              -0.110585458               0.073890841               0.000000000              -0.134923867               0.092710163               0.000000000              -0.159262276               0.111529486               0.000000000              -0.183600685               0.130348808               0.000000000              -0.207939094               0.149168131               0.000000000              -0.232277503               0.167987453               0.000000000              -0.256615912               0.186806776               0.000000000              -0.280954320               0.205626098               0.000000000              -0.305292729               0.224445420               0.000000000              -0.329631138               0.243264743               0.000000000              -0.353969547               0.262084065               0.000000000              -0.378307956               0.280903388               0.000000000              -0.402646365               0.299722710               0.000000000              -0.426984773               0.318542033               0.000000000              -0.451323182               0.337361355               0.000000000              -0.475661591               0.356180678               0.000000000              -0.500000000               0.375000000               0.000000000              -0.102810390               0.084374307               0.000000000              -0.127634741               0.106444663               0.000000000              -0.152459092               0.128515018               0.000000000              -0.177283442               0.150585374               0.000000000              -0.202107793               0.172655730               0.000000000              -0.226932143               0.194726086               0.000000000              -0.251756494               0.216796442               0.000000000              -0.276580845               0.238866798               0.000000000              -0.301405195               0.260937153               0.000000000              -0.326229546               0.283007509               0.000000000              -0.351053896               0.305077865               0.000000000              -0.375878247               0.327148221               0.000000000              -0.400702598               0.349218577               0.000000000              -0.425526948               0.371288933               0.000000000              -0.450351299               0.393359288               0.000000000              -0.475175649               0.415429644               0.000000000              -0.500000000               0.437500000               0.000000000              -0.094045202               0.094045202               0.000000000              -0.119417377               0.119417377               0.000000000              -0.144789552               0.144789552               0.000000000              -0.170161727               0.170161727               0.000000000              -0.195533901               0.195533901               0.000000000              -0.220906076               0.220906076               0.000000000              -0.246278251               0.246278251               0.000000000              -0.271650426               0.271650426               0.000000000              -0.297022601               0.297022601               0.000000000              -0.322394776               0.322394776               0.000000000              -0.347766951               0.347766951               0.000000000              -0.373139126               0.373139126               0.000000000              -0.398511300               0.398511300               0.000000000              -0.423883475               0.423883475               0.000000000              -0.449255650               0.449255650               0.000000000              -0.474627825               0.474627825               0.000000000              -0.500000000               0.500000000               0.000000000              -0.084374307               0.102810390               0.000000000              -0.106444663               0.127634741               0.000000000              -0.128515018               0.152459092               0.000000000              -0.150585374               0.177283442               0.000000000              -0.172655730               0.202107793               0.000000000              -0.194726086               0.226932143               0.000000000              -0.216796442               0.251756494               0.000000000              -0.238866798               0.276580845               0.000000000              -0.260937153               0.301405195               0.000000000              -0.283007509               0.326229546               0.000000000              -0.305077865               0.351053896               0.000000000              -0.327148221               0.375878247               0.000000000              -0.349218577               0.400702598               0.000000000              -0.371288933               0.425526948               0.000000000              -0.393359288               0.450351299               0.000000000              -0.415429644               0.475175649               0.000000000              -0.437500000               0.500000000               0.000000000              -0.073890841               0.110585458               0.000000000              -0.092710163               0.134923867               0.000000000              -0.111529486               0.159262276               0.000000000              -0.130348808               0.183600685               0.000000000              -0.149168131               0.207939094               0.000000000              -0.167987453               0.232277503               0.000000000              -0.186806776               0.256615912               0.000000000              -0.205626098               0.280954320               0.000000000              -0.224445420               0.305292729               0.000000000              -0.243264743               0.329631138               0.000000000              -0.262084065               0.353969547               0.000000000              -0.280903388               0.378307956               0.000000000              -0.299722710               0.402646365               0.000000000              -0.318542033               0.426984773               0.000000000              -0.337361355               0.451323182               0.000000000              -0.356180678               0.475661591               0.000000000              -0.375000000               0.500000000               0.000000000              -0.062695766               0.117295528               0.000000000              -0.078308531               0.141214558               0.000000000              -0.093921295               0.165133587               0.000000000              -0.109534060               0.189052617               0.000000000              -0.125146824               0.212971646               0.000000000              -0.140759589               0.236890676               0.000000000              -0.156372354               0.260809705               0.000000000              -0.171985118               0.284728735               0.000000000              -0.187597883               0.308647764               0.000000000              -0.203210648               0.332566794               0.000000000              -0.218823412               0.356485823               0.000000000              -0.234436177               0.380404853               0.000000000              -0.250048941               0.404323882               0.000000000              -0.265661706               0.428242912               0.000000000              -0.281274471               0.452161941               0.000000000              -0.296887235               0.476080971               0.000000000              -0.312500000               0.500000000               0.000000000              -0.050896897               0.122875978               0.000000000              -0.063340840               0.146446229               0.000000000              -0.075784784               0.170016481               0.000000000              -0.088228728               0.193586732               0.000000000              -0.100672672               0.217156983               0.000000000              -0.113116616               0.240727235               0.000000000              -0.125560560               0.264297486               0.000000000              -0.138004504               0.287867738               0.000000000              -0.150448448               0.311437989               0.000000000              -0.162892392               0.335008240               0.000000000              -0.175336336               0.358578492               0.000000000              -0.187780280               0.382148743               0.000000000              -0.200224224               0.405718994               0.000000000              -0.212668168               0.429289246               0.000000000              -0.225112112               0.452859497               0.000000000              -0.237556056               0.476429749               0.000000000              -0.250000000               0.500000000               0.000000000              -0.038607862               0.127273065               0.000000000              -0.047913621               0.150568498               0.000000000              -0.057219379               0.173863932               0.000000000              -0.066525138               0.197159365               0.000000000              -0.075830897               0.220454798               0.000000000              -0.085136655               0.243750232               0.000000000              -0.094442414               0.267045665               0.000000000              -0.103748172               0.290341099               0.000000000              -0.113053931               0.313636532               0.000000000              -0.122359690               0.336931966               0.000000000              -0.131665448               0.360227399               0.000000000              -0.140971207               0.383522833               0.000000000              -0.150276966               0.406818266               0.000000000              -0.159582724               0.430113700               0.000000000              -0.168888483               0.453409133               0.000000000              -0.178194241               0.476704567               0.000000000              -0.187500000               0.500000000               0.000000000              -0.025947013               0.130444442               0.000000000              -0.032137825               0.153541665               0.000000000              -0.038328636               0.176638887               0.000000000              -0.044519448               0.199736109               0.000000000              -0.050710260               0.222833332               0.000000000              -0.056901071               0.245930554               0.000000000              -0.063091883               0.269027776               0.000000000              -0.069282695               0.292124999               0.000000000              -0.075473506               0.315222221               0.000000000              -0.081664318               0.338319444               0.000000000              -0.087855130               0.361416666               0.000000000              -0.094045942               0.384513888               0.000000000              -0.100236753               0.407611111               0.000000000              -0.106427565               0.430708333               0.000000000              -0.112618377               0.453805555               0.000000000              -0.118809188               0.476902778               0.000000000              -0.125000000               0.500000000               0.000000000              -0.013036280               0.132359569               0.000000000              -0.016127762               0.155337096               0.000000000              -0.019219245               0.178314623               0.000000000              -0.022310727               0.201292150               0.000000000              -0.025402210               0.224269676               0.000000000              -0.028493692               0.247247203               0.000000000              -0.031585175               0.270224730               0.000000000              -0.034676657               0.293202257               0.000000000              -0.037768140               0.316179784               0.000000000              -0.040859622               0.339157311               0.000000000              -0.043951105               0.362134838               0.000000000              -0.047042587               0.385112365               0.000000000              -0.050134070               0.408089892               0.000000000              -0.053225552               0.431067419               0.000000000              -0.056317035               0.454044946               0.000000000              -0.059408517               0.477022473               0.000000000              -0.062500000               0.500000000               0.000000000               0.000000000               0.133000000               0.000000000               0.000000000               0.155937500               0.000000000               0.000000000               0.178875000               0.000000000               0.000000000               0.201812500               0.000000000               0.000000000               0.224750000               0.000000000               0.000000000               0.247687500               0.000000000               0.000000000               0.270625000               0.000000000               0.000000000               0.293562500               0.000000000               0.000000000               0.316500000               0.000000000               0.000000000               0.339437500               0.000000000               0.000000000               0.362375000               0.000000000               0.000000000               0.385312500               0.000000000               0.000000000               0.408250000               0.000000000               0.000000000               0.431187500               0.000000000               0.000000000               0.454125000               0.000000000               0.000000000               0.477062500               0.000000000               0.000000000               0.500000000               0.000000000 </DataArray>
</Points>
<Cells>
<DataArray type="Int32"                                    Name="connectivity"                                                      NumberOfComponents=" 1" format="ascii">
         0          1         18         17          1          2         19         18          2          3         20         19          3          4         21         20          4          5         22         21          5          6         23         22          6          7         24         23          7          8         25         24          8          9         26         25          9         10         27         26         10         11         28         27         11         12         29         28         12         13         30         29         13         14         31         30         14         15         32         31         15         16         33         32         17         18         35         34         18         19         36         35         19         20         37         36         20         21         38         37         21         22         39         38         22         23         40         39         23         24         41         40         24         25         42         41         25         26         43         42         26         27         44         43         27         28         45         44         28         29         46         45         29         30         47         46         30         31         48         47         31         32         49         48         32         33         50         49         34         35         52         51         35         36         53         52         36         37         54         53         37         38         55         54         38         39         56         55         39         40         57         56         40         41         58         57         41         42         59         58         42         43         60         59         43         44         61         60         44         45         62         61         45         46         63         62         46         47         64         63         47         48         65         64         48         49         66         65         49         50         67         66         51         52         69         68         52         53         70         69         53         54         71         70         54         55         72         71         55         56         73         72         56         57         74         73         57         58         75         74         58         59         76         75         59         60         77         76         60         61         78         77         61         62         79         78         62         63         80         79         63         64         81         80         64         65         82         81         65         66         83         82         66         67         84         83         68         69         86         85         69         70         87         86         70         71         88         87         71         72         89         88         72         73         90         89         73         74         91         90         74         75         92         91         75         76         93         92         76         77         94         93         77         78         95         94         78         79         96         95         79         80         97         96         80         81         98         97         81         82         99         98         82         83        100         99         83         84        101        100         85         86        103        102         86         87        104        103         87         88        105        104         88         89        106        105         89         90        107        106         90         91        108        107         91         92        109        108         92         93        110        109         93         94        111        110         94         95        112        111         95         96        113        112         96         97        114        113         97         98        115        114         98         99        116        115         99        100        117        116        100        101        118        117        102        103        120        119        103        104        121        120        104        105        122        121        105        106        123        122        106        107        124        123        107        108        125        124        108        109        126        125        109        110        127        126        110        111        128        127        111        112        129        128        112        113        130        129        113        114        131        130        114        115        132        131        115        116        133        132        116        117        134        133        117        118        135        134        119        120        137        136        120        121        138        137        121        122        139        138        122        123        140        139        123        124        141        140        124        125        142        141        125        126        143        142        126        127        144        143        127        128        145        144        128        129        146        145        129        130        147        146        130        131        148        147        131        132        149        148        132        133        150        149        133        134        151        150        134        135        152        151        136        137        154        153        137        138        155        154        138        139        156        155        139        140        157        156        140        141        158        157        141        142        159        158        142        143        160        159        143        144        161        160        144        145        162        161        145        146        163        162        146        147        164        163        147        148        165        164        148        149        166        165        149        150        167        166        150        151        168        167        151        152        169        168        153        154        171        170        154        155        172        171        155        156        173        172        156        157        174        173        157        158        175        174        158        159        176        175        159        160        177        176        160        161        178        177        161        162        179        178        162        163        180        179        163        164        181        180        164        165        182        181        165        166        183        182        166        167        184        183        167        168        185        184        168        169        186        185        170        171        188        187        171        172        189        188        172        173        190        189        173        174        191        190        174        175        192        191        175        176        193        192        176        177        194        193        177        178        195        194        178        179        196        195        179        180        197        196        180        181        198        197        181        182        199        198        182        183        200        199        183        184        201        200        184        185        202        201        185        186        203        202        187        188        205        204        188        189        206        205        189        190        207        206        190        191        208        207        191        192        209        208        192        193        210        209        193        194        211        210        194        195        212        211        195        196        213        212        196        197        214        213        197        198        215        214        198        199        216        215        199        200        217        216        200        201        218        217        201        202        219        218        202        203        220        219        204        205        222        221        205        206        223        222        206        207        224        223        207        208        225        224        208        209        226        225        209        210        227        226        210        211        228        227        211        212        229        228        212        213        230        229        213        214        231        230        214        215        232        231        215        216        233        232        216        217        234        233        217        218        235        234        218        219        236        235        219        220        237        236        221        222        239        238        222        223        240        239        223        224        241        240        224        225        242        241        225        226        243        242        226        227        244        243        227        228        245        244        228        229        246        245        229        230        247        246        230        231        248        247        231        232        249        248        232        233        250        249        233        234        251        250        234        235        252        251        235        236        253        252        236        237        254        253        238        239        256        255        239        240        257        256        240        241        258        257        241        242        259        258        242        243        260        259        243        244        261        260        244        245        262        261        245        246        263        262        246        247        264        263        247        248        265        264        248        249        266        265        249        250        267        266        250        251        268        267        251        252        269        268        252        253        270        269        253        254        271        270        255        256        273        272        256        257        274        273        257        258        275        274        258        259        276        275        259        260        277        276        260        261        278        277        261        262        279        278        262        263        280        279        263        264        281        280        264        265        282        281        265        266        283        282        266        267        284        283        267        268        285        284        268        269        286        285        269        270        287        286        270        271        288        287        306        307          1          0        307        308          2          1        308        309          3          2        309        310          4          3        310        311          5          4        311        312          6          5        312        313          7          6        313        314          8          7        314        315          9          8        315        316         10          9        316        317         11         10        317        318         12         11        318        319         13         12        319        320         14         13        320        321         15         14        321        322         16         15        323        324        307        306        324        325        308        307        325        326        309        308        326        327        310        309        327        328        311        310        328        329        312        311        329        330        313        312        330        331        314        313        331        332        315        314        332        333        316        315        333        334        317        316        334        335        318        317        335        336        319        318        336        337        320        319        337        338        321        320        338        339        322        321        340        341        324        323        341        342        325        324        342        343        326        325        343        344        327        326        344        345        328        327        345        346        329        328        346        347        330        329        347        348        331        330        348        349        332        331        349        350        333        332        350        351        334        333        351        352        335        334        352        353        336        335        353        354        337        336        354        355        338        337        355        356        339        338        357        358        341        340        358        359        342        341        359        360        343        342        360        361        344        343        361        362        345        344        362        363        346        345        363        364        347        346        364        365        348        347        365        366        349        348        366        367        350        349        367        368        351        350        368        369        352        351        369        370        353        352        370        371        354        353        371        372        355        354        372        373        356        355        374        375        358        357        375        376        359        358        376        377        360        359        377        378        361        360        378        379        362        361        379        380        363        362        380        381        364        363        381        382        365        364        382        383        366        365        383        384        367        366        384        385        368        367        385        386        369        368        386        387        370        369        387        388        371        370        388        389        372        371        389        390        373        372        391        392        375        374        392        393        376        375        393        394        377        376        394        395        378        377        395        396        379        378        396        397        380        379        397        398        381        380        398        399        382        381        399        400        383        382        400        401        384        383        401        402        385        384        402        403        386        385        403        404        387        386        404        405        388        387        405        406        389        388        406        407        390        389        408        409        392        391        409        410        393        392        410        411        394        393        411        412        395        394        412        413        396        395        413        414        397        396        414        415        398        397        415        416        399        398        416        417        400        399        417        418        401        400        418        419        402        401        419        420        403        402        420        421        404        403        421        422        405        404        422        423        406        405        423        424        407        406        425        426        409        408        426        427        410        409        427        428        411        410        428        429        412        411        429        430        413        412        430        431        414        413        431        432        415        414        432        433        416        415        433        434        417        416        434        435        418        417        435        436        419        418        436        437        420        419        437        438        421        420        438        439        422        421        439        440        423        422        440        441        424        423        442        443        426        425        443        444        427        426        444        445        428        427        445        446        429        428        446        447        430        429        447        448        431        430        448        449        432        431        449        450        433        432        450        451        434        433        451        452        435        434        452        453        436        435        453        454        437        436        454        455        438        437        455        456        439        438        456        457        440        439        457        458        441        440        459        460        443        442        460        461        444        443        461        462        445        444        462        463        446        445        463        464        447        446        464        465        448        447        465        466        449        448        466        467        450        449        467        468        451        450        468        469        452        451        469        470        453        452        470        471        454        453        471        472        455        454        472        473        456        455        473        474        457        456        474        475        458        457        476        477        460        459        477        478        461        460        478        479        462        461        479        480        463        462        480        481        464        463        481        482        465        464        482        483        466        465        483        484        467        466        484        485        468        467        485        486        469        468        486        487        470        469        487        488        471        470        488        489        472        471        489        490        473        472        490        491        474        473        491        492        475        474        493        494        477        476        494        495        478        477        495        496        479        478        496        497        480        479        497        498        481        480        498        499        482        481        499        500        483        482        500        501        484        483        501        502        485        484        502        503        486        485        503        504        487        486        504        505        488        487        505        506        489        488        506        507        490        489        507        508        491        490        508        509        492        491        510        511        494        493        511        512        495        494        512        513        496        495        513        514        497        496        514        515        498        497        515        516        499        498        516        517        500        499        517        518        501        500        518        519        502        501        519        520        503        502        520        521        504        503        521        522        505        504        522        523        506        505        523        524        507        506        524        525        508        507        525        526        509        508        527        528        511        510        528        529        512        511        529        530        513        512        530        531        514        513        531        532        515        514        532        533        516        515        533        534        517        516        534        535        518        517        535        536        519        518        536        537        520        519        537        538        521        520        538        539        522        521        539        540        523        522        540        541        524        523        541        542        525        524        542        543        526        525        544        545        528        527        545        546        529        528        546        547        530        529        547        548        531        530        548        549        532        531        549        550        533        532        550        551        534        533        551        552        535        534        552        553        536        535        553        554        537        536        554        555        538        537        555        556        539        538        556        557        540        539        557        558        541        540        558        559        542        541        559        560        543        542        561        562        545        544        562        563        546        545        563        564        547        546        564        565        548        547        565        566        549        548        566        567        550        549        567        568        551        550        568        569        552        551        569        570        553        552        570        571        554        553        571        572        555        554        572        573        556        555        573        574        557        556        574        575        558        557        575        576        559        558        576        577        560        559        578        579        596        595        579        580        597        596        580        581        598        597        581        582        599        598        582        583        600        599        583        584        601        600        584        585        602        601        585        586        603        602        586        587        604        603        587        588        605        604        588        589        606        605        589        590        607        606        590        591        608        607        591        592        609        608        592        593        610        609        593        594        611        610        595        596        613        612        596        597        614        613        597        598        615        614        598        599        616        615        599        600        617        616        600        601        618        617        601        602        619        618        602        603        620        619        603        604        621        620        604        605        622        621        605        606        623        622        606        607        624        623        607        608        625        624        608        609        626        625        609        610        627        626        610        611        628        627        612        613        630        629        613        614        631        630        614        615        632        631        615        616        633        632        616        617        634        633        617        618        635        634        618        619        636        635        619        620        637        636        620        621        638        637        621        622        639        638        622        623        640        639        623        624        641        640        624        625        642        641        625        626        643        642        626        627        644        643        627        628        645        644        629        630        647        646        630        631        648        647        631        632        649        648        632        633        650        649        633        634        651        650        634        635        652        651        635        636        653        652        636        637        654        653        637        638        655        654        638        639        656        655        639        640        657        656        640        641        658        657        641        642        659        658        642        643        660        659        643        644        661        660        644        645        662        661        646        647        664        663        647        648        665        664        648        649        666        665        649        650        667        666        650        651        668        667        651        652        669        668        652        653        670        669        653        654        671        670        654        655        672        671        655        656        673        672        656        657        674        673        657        658        675        674        658        659        676        675        659        660        677        676        660        661        678        677        661        662        679        678        663        664        681        680        664        665        682        681        665        666        683        682        666        667        684        683        667        668        685        684        668        669        686        685        669        670        687        686        670        671        688        687        671        672        689        688        672        673        690        689        673        674        691        690        674        675        692        691        675        676        693        692        676        677        694        693        677        678        695        694        678        679        696        695        680        681        698        697        681        682        699        698        682        683        700        699        683        684        701        700        684        685        702        701        685        686        703        702        686        687        704        703        687        688        705        704        688        689        706        705        689        690        707        706        690        691        708        707        691        692        709        708        692        693        710        709        693        694        711        710        694        695        712        711        695        696        713        712        697        698        715        714        698        699        716        715        699        700        717        716        700        701        718        717        701        702        719        718        702        703        720        719        703        704        721        720        704        705        722        721        705        706        723        722        706        707        724        723        707        708        725        724        708        709        726        725        709        710        727        726        710        711        728        727        711        712        729        728        712        713        730        729        714        715        732        731        715        716        733        732        716        717        734        733        717        718        735        734        718        719        736        735        719        720        737        736        720        721        738        737        721        722        739        738        722        723        740        739        723        724        741        740        724        725        742        741        725        726        743        742        726        727        744        743        727        728        745        744        728        729        746        745        729        730        747        746        731        732        749        748        732        733        750        749        733        734        751        750        734        735        752        751        735        736        753        752        736        737        754        753        737        738        755        754        738        739        756        755        739        740        757        756        740        741        758        757        741        742        759        758        742        743        760        759        743        744        761        760        744        745        762        761        745        746        763        762        746        747        764        763        748        749        766        765        749        750        767        766        750        751        768        767        751        752        769        768        752        753        770        769        753        754        771        770        754        755        772        771        755        756        773        772        756        757        774        773        757        758        775        774        758        759        776        775        759        760        777        776        760        761        778        777        761        762        779        778        762        763        780        779        763        764        781        780        765        766        783        782        766        767        784        783        767        768        785        784        768        769        786        785        769        770        787        786        770        771        788        787        771        772        789        788        772        773        790        789        773        774        791        790        774        775        792        791        775        776        793        792        776        777        794        793        777        778        795        794        778        779        796        795        779        780        797        796        780        781        798        797        782        783        800        799        783        784        801        800        784        785        802        801        785        786        803        802        786        787        804        803        787        788        805        804        788        789        806        805        789        790        807        806        790        791        808        807        791        792        809        808        792        793        810        809        793        794        811        810        794        795        812        811        795        796        813        812        796        797        814        813        797        798        815        814        799        800        817        816        800        801        818        817        801        802        819        818        802        803        820        819        803        804        821        820        804        805        822        821        805        806        823        822        806        807        824        823        807        808        825        824        808        809        826        825        809        810        827        826        810        811        828        827        811        812        829        828        812        813        830        829        813        814        831        830        814        815        832        831        816        817        834        833        817        818        835        834        818        819        836        835        819        820        837        836        820        821        838        837        821        822        839        838        822        823        840        839        823        824        841        840        824        825        842        841        825        826        843        842        826        827        844        843        827        828        845        844        828        829        846        845        829        830        847        846        830        831        848        847        831        832        849        848        833        834        562        561        834        835        563        562        835        836        564        563        836        837        565        564        837        838        566        565        838        839        567        566        839        840        568        567        840        841        569        568        841        842        570        569        842        843        571        570        843        844        572        571        844        845        573        572        845        846        574        573        846        847        575        574        847        848        576        575        848        849        577        576        884        885        579        578        885        886        580        579        886        887        581        580        887        888        582        581        888        889        583        582        889        890        584        583        890        891        585        584        891        892        586        585        892        893        587        586        893        894        588        587        894        895        589        588        895        896        590        589        896        897        591        590        897        898        592        591        898        899        593        592        899        900        594        593        901        902        885        884        902        903        886        885        903        904        887        886        904        905        888        887        905        906        889        888        906        907        890        889        907        908        891        890        908        909        892        891        909        910        893        892        910        911        894        893        911        912        895        894        912        913        896        895        913        914        897        896        914        915        898        897        915        916        899        898        916        917        900        899        918        919        902        901        919        920        903        902        920        921        904        903        921        922        905        904        922        923        906        905        923        924        907        906        924        925        908        907        925        926        909        908        926        927        910        909        927        928        911        910        928        929        912        911        929        930        913        912        930        931        914        913        931        932        915        914        932        933        916        915        933        934        917        916        935        936        919        918        936        937        920        919        937        938        921        920        938        939        922        921        939        940        923        922        940        941        924        923        941        942        925        924        942        943        926        925        943        944        927        926        944        945        928        927        945        946        929        928        946        947        930        929        947        948        931        930        948        949        932        931        949        950        933        932        950        951        934        933        952        953        936        935        953        954        937        936        954        955        938        937        955        956        939        938        956        957        940        939        957        958        941        940        958        959        942        941        959        960        943        942        960        961        944        943        961        962        945        944        962        963        946        945        963        964        947        946        964        965        948        947        965        966        949        948        966        967        950        949        967        968        951        950        969        970        953        952        970        971        954        953        971        972        955        954        972        973        956        955        973        974        957        956        974        975        958        957        975        976        959        958        976        977        960        959        977        978        961        960        978        979        962        961        979        980        963        962        980        981        964        963        981        982        965        964        982        983        966        965        983        984        967        966        984        985        968        967        986        987        970        969        987        988        971        970        988        989        972        971        989        990        973        972        990        991        974        973        991        992        975        974        992        993        976        975        993        994        977        976        994        995        978        977        995        996        979        978        996        997        980        979        997        998        981        980        998        999        982        981        999       1000        983        982       1000       1001        984        983       1001       1002        985        984       1003       1004        987        986       1004       1005        988        987       1005       1006        989        988       1006       1007        990        989       1007       1008        991        990       1008       1009        992        991       1009       1010        993        992       1010       1011        994        993       1011       1012        995        994       1012       1013        996        995       1013       1014        997        996       1014       1015        998        997       1015       1016        999        998       1016       1017       1000        999       1017       1018       1001       1000       1018       1019       1002       1001       1020       1021       1004       1003       1021       1022       1005       1004       1022       1023       1006       1005       1023       1024       1007       1006       1024       1025       1008       1007       1025       1026       1009       1008       1026       1027       1010       1009       1027       1028       1011       1010       1028       1029       1012       1011       1029       1030       1013       1012       1030       1031       1014       1013       1031       1032       1015       1014       1032       1033       1016       1015       1033       1034       1017       1016       1034       1035       1018       1017       1035       1036       1019       1018       1037       1038       1021       1020       1038       1039       1022       1021       1039       1040       1023       1022       1040       1041       1024       1023       1041       1042       1025       1024       1042       1043       1026       1025       1043       1044       1027       1026       1044       1045       1028       1027       1045       1046       1029       1028       1046       1047       1030       1029       1047       1048       1031       1030       1048       1049       1032       1031       1049       1050       1033       1032       1050       1051       1034       1033       1051       1052       1035       1034       1052       1053       1036       1035       1054       1055       1038       1037       1055       1056       1039       1038       1056       1057       1040       1039       1057       1058       1041       1040       1058       1059       1042       1041       1059       1060       1043       1042       1060       1061       1044       1043       1061       1062       1045       1044       1062       1063       1046       1045       1063       1064       1047       1046       1064       1065       1048       1047       1065       1066       1049       1048       1066       1067       1050       1049       1067       1068       1051       1050       1068       1069       1052       1051       1069       1070       1053       1052       1071       1072       1055       1054       1072       1073       1056       1055       1073       1074       1057       1056       1074       1075       1058       1057       1075       1076       1059       1058       1076       1077       1060       1059       1077       1078       1061       1060       1078       1079       1062       1061       1079       1080       1063       1062       1080       1081       1064       1063       1081       1082       1065       1064       1082       1083       1066       1065       1083       1084       1067       1066       1084       1085       1068       1067       1085       1086       1069       1068       1086       1087       1070       1069       1088       1089       1072       1071       1089       1090       1073       1072       1090       1091       1074       1073       1091       1092       1075       1074       1092       1093       1076       1075       1093       1094       1077       1076       1094       1095       1078       1077       1095       1096       1079       1078       1096       1097       1080       1079       1097       1098       1081       1080       1098       1099       1082       1081       1099       1100       1083       1082       1100       1101       1084       1083       1101       1102       1085       1084       1102       1103       1086       1085       1103       1104       1087       1086       1105       1106       1089       1088       1106       1107       1090       1089       1107       1108       1091       1090       1108       1109       1092       1091       1109       1110       1093       1092       1110       1111       1094       1093       1111       1112       1095       1094       1112       1113       1096       1095       1113       1114       1097       1096       1114       1115       1098       1097       1115       1116       1099       1098       1116       1117       1100       1099       1117       1118       1101       1100       1118       1119       1102       1101       1119       1120       1103       1102       1120       1121       1104       1103       1122       1123       1106       1105       1123       1124       1107       1106       1124       1125       1108       1107       1125       1126       1109       1108       1126       1127       1110       1109       1127       1128       1111       1110       1128       1129       1112       1111       1129       1130       1113       1112       1130       1131       1114       1113       1131       1132       1115       1114       1132       1133       1116       1115       1133       1134       1117       1116       1134       1135       1118       1117       1135       1136       1119       1118       1136       1137       1120       1119       1137       1138       1121       1120        272        273       1123       1122        273        274       1124       1123        274        275       1125       1124        275        276       1126       1125        276        277       1127       1126        277        278       1128       1127        278        279       1129       1128        279        280       1130       1129        280        281       1131       1130        281        282       1132       1131        282        283       1133       1132        283        284       1134       1133        284        285       1135       1134        285        286       1136       1135        286        287       1137       1136        287        288       1138       1137 </DataArray>
<DataArray type="Int32"                                    Name="offsets"                                                      NumberOfComponents=" 1" format="ascii">
         4          8         12         16         20         24         28         32         36         40         44         48         52         56         60         64         68         72         76         80         84         88         92         96        100        104        108        112        116        120        124        128        132        136        140        144        148        152        156        160        164        168        172        176        180        184        188        192        196        200        204        208        212        216        220        224        228        232        236        240        244        248        252        256        260        264        268        272        276        280        284        288        292        296        300        304        308        312        316        320        324        328        332        336        340        344        348        352        356        360        364        368        372        376        380        384        388        392        396        400        404        408        412        416        420        424        428        432        436        440        444        448        452        456        460        464        468        472        476        480        484        488        492        496        500        504        508        512        516        520        524        528        532        536        540        544        548        552        556        560        564        568        572        576        580        584        588        592        596        600        604        608        612        616        620        624        628        632        636        640        644        648        652        656        660        664        668        672        676        680        684        688        692        696        700        704        708        712        716        720        724        728        732        736        740        744        748        752        756        760        764        768        772        776        780        784        788        792        796        800        804        808        812        816        820        824        828        832        836        840        844        848        852        856        860        864        868        872        876        880        884        888        892        896        900        904        908        912        916        920        924        928        932        936        940        944        948        952        956        960        964        968        972        976        980        984        988        992        996       1000       1004       1008       1012       1016       1020       1024       1028       1032       1036       1040       1044       1048       1052       1056       1060       1064       1068       1072       1076       1080       1084       1088       1092       1096       1100       1104       1108       1112       1116       1120       1124       1128       1132       1136       1140       1144       1148       1152       1156       1160       1164       1168       1172       1176       1180       1184       1188       1192       1196       1200       1204       1208       1212       1216       1220       1224       1228       1232       1236       1240       1244       1248       1252       1256       1260       1264       1268       1272       1276       1280       1284       1288       1292       1296       1300       1304       1308       1312       1316       1320       1324       1328       1332       1336       1340       1344       1348       1352       1356       1360       1364       1368       1372       1376       1380       1384       1388       1392       1396       1400       1404       1408       1412       1416       1420       1424       1428       1432       1436       1440       1444       1448       1452       1456       1460       1464       1468       1472       1476       1480       1484       1488       1492       1496       1500       1504       1508       1512       1516       1520       1524       1528       1532       1536       1540       1544       1548       1552       1556       1560       1564       1568       1572       1576       1580       1584       1588       1592       1596       1600       1604       1608       1612       1616       1620       1624       1628       1632       1636       1640       1644       1648       1652       1656       1660       1664       1668       1672       1676       1680       1684       1688       1692       1696       1700       1704       1708       1712       1716       1720       1724       1728       1732       1736       1740       1744       1748       1752       1756       1760       1764       1768       1772       1776       1780       1784       1788       1792       1796       1800       1804       1808       1812       1816       1820       1824       1828       1832       1836       1840       1844       1848       1852       1856       1860       1864       1868       1872       1876       1880       1884       1888       1892       1896       1900       1904       1908       1912       1916       1920       1924       1928       1932       1936       1940       1944       1948       1952       1956       1960       1964       1968       1972       1976       1980       1984       1988       1992       1996       2000       2004       2008       2012       2016       2020       2024       2028       2032       2036       2040       2044       2048       2052       2056       2060       2064       2068       2072       2076       2080       2084       2088       2092       2096       2100       2104       2108       2112       2116       2120       2124       2128       2132       2136       2140       2144       2148       2152       2156       2160       2164       2168       2172       2176       2180       2184       2188       2192       2196       2200       2204       2208       2212       2216       2220       2224       2228       2232       2236       2240       2244       2248       2252       2256       2260       2264       2268       2272       2276       2280       2284       2288       2292       2296       2300       2304       2308       2312       2316       2320       2324       2328       2332       2336       2340       2344       2348       2352       2356       2360       2364       2368       2372       2376       2380       2384       2388       2392       2396       2400       2404       2408       2412       2416       2420       2424       2428       2432       2436       2440       2444       2448       2452       2456       2460       2464       2468       2472       2476       2480       2484       2488       2492       2496       2500       2504       2508       2512       2516       2520       2524       2528       2532       2536       2540       2544       2548       2552       2556       2560       2564       2568       2572       2576       2580       2584       2588       2592       2596       2600       2604       2608       2612       2616       2620       2624       2628       2632       2636       2640       2644       2648       2652       2656       2660       2664       2668       2672       2676       2680       2684       2688       2692       2696       2700       2704       2708       2712       2716       2720       2724       2728       2732       2736       2740       2744       2748       2752       2756       2760       2764       2768       2772       2776       2780       2784       2788       2792       2796       2800       2804       2808       2812       2816       2820       2824       2828       2832       2836       2840       2844       2848       2852       2856       2860       2864       2868       2872       2876       2880       2884       2888       2892       2896       2900       2904       2908       2912       2916       2920       2924       2928       2932       2936       2940       2944       2948       2952       2956       2960       2964       2968       2972       2976       2980       2984       2988       2992       2996       3000       3004       3008       3012       3016       3020       3024       3028       3032       3036       3040       3044       3048       3052       3056       3060       3064       3068       3072       3076       3080       3084       3088       3092       3096       3100       3104       3108       3112       3116       3120       3124       3128       3132       3136       3140       3144       3148       3152       3156       3160       3164       3168       3172       3176       3180       3184       3188       3192       3196       3200       3204       3208       3212       3216       3220       3224       3228       3232       3236       3240       3244       3248       3252       3256       3260       3264       3268       3272       3276       3280       3284       3288       3292       3296       3300       3304       3308       3312       3316       3320       3324       3328       3332       3336       3340       3344       3348       3352       3356       3360       3364       3368       3372       3376       3380       3384       3388       3392       3396       3400       3404       3408       3412       3416       3420       3424       3428       3432       3436       3440       3444       3448       3452       3456       3460       3464       3468       3472       3476       3480       3484       3488       3492       3496       3500       3504       3508       3512       3516       3520       3524       3528       3532       3536       3540       3544       3548       3552       3556       3560       3564       3568       3572       3576       3580       3584       3588       3592       3596       3600       3604       3608       3612       3616       3620       3624       3628       3632       3636       3640       3644       3648       3652       3656       3660       3664       3668       3672       3676       3680       3684       3688       3692       3696       3700       3704       3708       3712       3716       3720       3724       3728       3732       3736       3740       3744       3748       3752       3756       3760       3764       3768       3772       3776       3780       3784       3788       3792       3796       3800       3804       3808       3812       3816       3820       3824       3828       3832       3836       3840       3844       3848       3852       3856       3860       3864       3868       3872       3876       3880       3884       3888       3892       3896       3900       3904       3908       3912       3916       3920       3924       3928       3932       3936       3940       3944       3948       3952       3956       3960       3964       3968       3972       3976       3980       3984       3988       3992       3996       4000       4004       4008       4012       4016       4020       4024       4028       4032       4036       4040       4044       4048       4052       4056       4060       4064       4068       4072       4076       4080       4084       4088       4092       4096 </DataArray>
<DataArray type="UInt8"                                    Name="types"                                                      NumberOfComponents=" 1" format="ascii">
         9          9          9          9          9          9          9          9          9          9          9          9          9          9          9          9          9          9          9          9          9          9          9          9          9          9          9          9          9          9          9          9          9          9          9          9          9          9          9          9          9          9          9          9          9          9          9          9          9          9          9          9          9          9          9          9          9          9          9          9          9          9          9          9          9          9          9          9          9          9          9          9          9          9          9          9          9          9          9          9          9          9          9          9          9          9          9          9          9          9          9          9          9          9          9          9          9          9          9          9          9          9          9          9          9          9          9          9          9          9          9          9          9          9          9          9          9          9          9          9          9          9          9          9          9          9          9          9          9          9          9          9          9          9          9          9          9          9          9          9          9          9          9          9          9          9          9          9          9          9          9          9          9          9          9          9          9          9          9          9          9          9          9          9          9          9          9          9          9          9          9          9          9          9          9          9          9          9          9          9          9          9          9          9          9          9          9          9          9          9          9          9          9          9          9          9          9          9          9          9          9          9          9          9          9          9          9          9          9          9          9          9          9          9          9          9          9          9          9          9          9          9          9          9          9          9          9          9          9          9          9          9          9          9          9          9          9          9          9          9          9          9          9          9          9          9          9          9          9          9          9          9          9          9          9          9          9          9          9          9          9          9          9          9          9          9          9          9          9          9          9          9          9          9          9          9          9          9          9          9          9          9          9          9          9          9          9          9          9          9          9          9          9          9          9          9          9          9          9          9          9          9          9          9          9          9          9          9          9          9          9          9          9          9          9          9          9          9          9          9          9          9          9          9          9          9          9          9          9          9          9          9          9          9          9          9          9          9          9          9          9          9          9          9          9          9          9          9          9          9          9          9          9          9          9          9          9          9          9          9          9          9          9          9          9          9          9          9          9          9          9          9          9          9          9          9          9          9          9          9          9          9          9          9          9          9          9          9          9          9          9          9          9          9          9          9          9          9          9          9          9          9          9          9          9          9          9          9          9          9          9          9          9          9          9          9          9          9          9          9          9          9          9          9          9          9          9          9          9          9          9          9          9          9          9          9          9          9          9          9          9          9          9          9          9          9          9          9          9          9          9          9          9          9          9          9          9          9          9          9          9          9          9          9          9          9          9          9          9          9          9          9          9          9          9          9          9          9          9          9          9          9          9          9          9          9          9          9          9          9          9          9          9          9          9          9          9          9          9          9          9          9          9          9          9          9          9          9          9          9          9          9          9          9          9          9          9          9          9          9          9          9          9          9          9          9          9          9          9          9          9          9          9          9          9          9          9          9          9          9          9          9          9          9          9          9          9          9          9          9          9          9          9          9          9          9          9          9          9          9          9          9          9          9          9          9          9          9          9          9          9          9          9          9          9          9          9          9          9          9          9          9          9          9          9          9          9          9          9          9          9          9          9          9          9          9          9          9          9          9          9          9          9          9          9          9          9          9          9          9          9          9          9          9          9          9          9          9          9          9          9          9          9          9          9          9          9          9          9          9          9          9          9          9          9          9          9          9          9          9          9          9          9          9          9          9          9          9          9          9          9          9          9          9          9          9          9          9          9          9          9          9          9          9          9          9          9          9          9          9          9          9          9          9          9          9          9          9          9          9          9          9          9          9          9          9          9          9          9          9          9          9          9          9          9          9          9          9          9          9          9          9          9          9          9          9          9          9          9          9          9          9          9          9          9          9          9          9          9          9          9          9          9          9          9          9          9          9          9          9          9          9          9          9          9          9          9          9          9          9          9          9          9          9          9          9          9          9          9          9          9          9          9          9          9          9          9          9          9          9          9          9          9          9          9          9          9          9          9          9          9          9          9          9          9          9          9          9          9          9          9          9          9          9          9          9          9          9          9          9          9          9          9          9          9          9          9          9          9          9          9          9          9          9          9          9          9          9          9          9          9          9          9          9          9          9          9          9          9          9          9          9          9          9          9          9          9          9          9          9          9          9          9          9          9          9          9          9          9          9          9          9          9          9          9          9          9          9          9          9          9          9          9          9          9          9          9          9          9          9          9          9          9          9          9          9          9          9          9          9          9          9          9          9          9          9          9          9          9          9          9          9          9          9          9          9          9          9          9          9          9          9          9          9          9          9          9          9          9          9          9          9          9          9          9          9          9          9          9          9          9          9          9          9          9          9          9          9          9          9          9          9          9          9          9          9          9          9          9          9          9          9          9          9          9          9          9          9          9          9          9          9          9          9          9          9          9          9          9          9          9          9          9          9          9          9          9          9          9          9          9          9          9          9          9          9          9          9          9          9          9          9          9          9          9          9          9          9          9          9          9          9          9          9          9          9          9          9          9          9          9          9          9          9          9          9          9          9          9          9          9          9          9          9          9          9          9          9          9          9          9          9          9          9          9          9          9          9          9          9          9          9          9          9 </DataArray>
</Cells>
<CellData>
<DataArray type="Int32"                                    Name="material"                                                      NumberOfComponents=" 1" format="ascii">
         1          1          1          1          1          1          1          1          1          1          1          1          1          1          1          1          1          1          1          1          1          1          1          1          1          1          1          1          1          1          1          1          1          1          1          1          1          1          1          1          1          1          1          1          1          1          1          1          1          1          1          1          1          1          1          1          1          1          1          1          1          1          1          1          1          1          1          1          1          1          1          1          1          1          1          1          1          1          1          1          1          1          1          1          1          1          1          1          1          1          1          1          1          1          1          1          1          1          1          1          1          1          1          1          1          1          1          1          1          1          1          1          1          1          1          1          1          1          1          1          1          1          1          1          1          1          1          1          1          1          1          1          1          1          1          1          1          1          1          1          1          1          1          1          1          1          1          1          1          1          1          1          1          1          1          1          1          1          1          1          1          1          1          1          1          1          1          1          1          1          1          1          1          1          1          1          1          1          1          1          1          1          1          1          1          1          1          1          1          1          1          1          1          1          1          1          1          1          1          1          1          1          1          1          1          1          1          1          1          1          1          1          1          1          1          1          1          1          1          1          1          1          1          1          1          1          1          1          1          1          1          1          1          1          1          1          1          1          1          1          1          1          1          1          1          1          1          1          1          1          1          1          1          1          1          1          1          1          1          1          1          1          1          1          1          1          1          1          1          1          1          1          1          1          1          1          1          1          1          1          1          1          1          1          1          1          1          1          1          1          1          1          1          1          1          1          1          1          1          1          1          1          1          1          1          1          1          1          1          1          1          1          1          1          1          1          1          1          1          1          1          1          1          1          1          1          1          1          1          1          1          1          1          1          1          1          1          1          1          1          1          1          1          1          1          1          1          1          1          1          1          1          1          1          1          1          1          1          1          1          1          1          1          1          1          1          1          1          1          1          1          1          1          1          1          1          1          1          1          1          1          1          1          1          1          1          1          1          1          1          1          1          1          1          1          1          1          1          1          1          1          1          1          1          1          1          1          1          1          1          1          1          1          1          1          1          1          1          1          1          1          1          1          1          1          1          1          1          1          1          1          1          1          1          1          1          1          1          1          1          1          1          1          1          1          1          1          1          1          1          1          1          1          1          1          1          1          1          1          1          1          1          1          1          1          1          1          1          1          1          1          1          1          1          1          1          1          1          1          1          1          1          1          1          1          1          1          1          1          1          1          1          1          1          1          1          1          1          1          1          1          1          1          1          1          1          1          1          1          1          1          1          1          1          1          1          1          1          1          1          1          1          1          1          1          1          1          1          1          1          1          1          1          1          1          1          1          1          1          1          1          1          1          1          1          1          1          1          1          1          1          1          1          1          1          1          1          1          1          1          1          1          1          1          1          1          1          1          1          1          1          1          1          1          1          1          1          1          1          1          1          1          1          1          1          1          1          1          1          1          1          1          1          1          1          1          1          1          1          1          1          1          1          1          1          1          1          1          1          1          1          1          1          1          1          1          1          1          1          1          1          1          1          1          1          1          1          1          1          1          1          1          1          1          1          1          1          1          1          1          1          1          1          1          1          1          1          1          1          1          1          1          1          1          1          1          1          1          1          1          1          1          1          1          1          1          1          1          1          1          1          1          1          1          1          1          1          1          1          1          1          1          1          1          1          1          1          1          1          1          1          1          1          1          1          1          1          1          1          1          1          1          1          1          1          1          1          1          1          1          1          1          1          1          1          1          1          1          1          1          1          1          1          1          1          1          1          1          1          1          1          1          1          1          1          1          1          1          1          1          1          1          1          1          1          1          1          1          1          1          1          1          1          1          1          1          1          1          1          1          1          1          1          1          1          1          1          1          1          1          1          1          1          1          1          1          1          1          1          1          1          1          1          1          1          1          1          1          1          1          1          1          1          1          1          1          1          1          1          1          1          1          1          1          1          1          1          1          1          1          1          1          1          1          1          1          1          1          1          1          1          1          1          1          1          1          1          1          1          1          1          1          1          1          1          1          1          1          1          1          1          1          1          1          1          1          1          1          1          1          1          1          1          1          1          1          1          1          1          1          1          1          1          1          1          1          1          1          1          1          1          1          1          1          1          1          1          1          1          1          1          1          1          1          1          1          1          1          1          1          1          1          1          1          1          1          1          1          1          1          1          1          1          1          1          1          1          1          1          1          1          1          1          1          1          1          1          1          1          1          1          1          1          1          1          1          1          1          1          1          1          1          1          1          1          1          1          1          1          1          1          1          1          1          1          1          1          1          1          1          1          1          1          1          1          1          1          1          1          1          1          1          1          1          1          1          1          1          1          1          1          1          1          1          1          1          1          1          1          1          1          1          1          1          1          1          1          1          1          1          1          1          1          1          1          1          1          1          1          1          1          1          1          1          1          1          1          1          1          1          1          1          1          1          1          1          1          1          1          1          1          1          1          1 </DataArray>
</CellData>
<PointData>
<DataArray type="Float64"                                    Name="u"                                                      NumberOfComponents=" 3" format="ascii">
              0.000005023              -0.000000000               0.999999998              -0.000005391               0.000000000               0.999999998              -0.000010549              -0.000000000               0.999999998              -0.000013625               0.000000000               0.999999998              -0.000015999               0.000000000               0.999999998              -0.000018265               0.000000000               0.999999998              -0.000020716               0.000000000               0.999999998              -0.000023597               0.000000000               0.999999998              -0.000026997              -0.000000000               0.999999998              -0.000030855               0.000000000               0.999999998              -0.000035236              -0.000000000               0.999999998              -0.000040100              -0.000000000               0.999999998              -0.000045458               0.000000000               0.999999998              -0.000051302               0.000000000               0.999999998              -0.000057628               0.000000000               0.999999998              -0.000064497               0.000000000               0.999999998              -0.000071858               0.000000000               0.999999998               0.000004936               0.000025526               0.999999998              -0.000005134               0.000023033               0.999999998              -0.000010086               0.000022520               0.999999998              -0.000013043               0.000023163               0.999999998              -0.000015429               0.000024548               0.999999998              -0.000017745               0.000026433               0.999999998              -0.000020306               0.000028646               0.999999998              -0.000023294               0.000031196               0.999999998              -0.000026780               0.000033991               0.999999998              -0.000030799               0.000036947               0.999999998              -0.000035342               0.000040059               0.999999998              -0.000040388               0.000043286               0.999999998              -0.000045924               0.000046735               0.999999998              -0.000051977               0.000050316               0.999999998              -0.000058505               0.000054090               0.999999998              -0.000065499               0.000058132               0.999999998              -0.000072971               0.000062077               0.999999998               0.000004655               0.000050794               0.999999998              -0.000004343               0.000045785               0.999999998              -0.000008721               0.000044809               0.999999998              -0.000011460               0.000046205               0.999999998              -0.000013825               0.000049043               0.999999998              -0.000016318               0.000052833               0.999999998              -0.000019190               0.000057420               0.999999998              -0.000022546               0.000062505               0.999999998              -0.000026454               0.000068052               0.999999998              -0.000030941               0.000073968               0.999999998              -0.000035923               0.000080198               0.999999998              -0.000041430               0.000086695               0.999999998              -0.000047472               0.000093555               0.999999998              -0.000054001               0.000100704               0.999999998              -0.000061016               0.000108197               0.999999998              -0.000068477               0.000116092               0.999999998              -0.000076358               0.000124085               0.999999998               0.000004250               0.000075611               0.999999998              -0.000003040               0.000068003               0.999999998              -0.000006588               0.000066754               0.999999998              -0.000009084               0.000069042               0.999999998              -0.000011571               0.000073453               0.999999998              -0.000014419               0.000079330               0.999999998              -0.000017832               0.000086221               0.999999998              -0.000021853               0.000093927               0.999999998              -0.000026469               0.000102250               0.999999998              -0.000031695               0.000111103               0.999999998              -0.000037495               0.000120392               0.999999998              -0.000043828               0.000130059               0.999999998              -0.000050663               0.000140332               0.999999998              -0.000057990               0.000151095               0.999999998              -0.000065812               0.000162280               0.999999998              -0.000074062               0.000173943               0.999999998              -0.000082650               0.000185845               0.999999998               0.000003786               0.000099769               0.999999998              -0.000001242               0.000089530               0.999999998              -0.000003876               0.000088209               0.999999998              -0.000006250               0.000091552               0.999999998              -0.000009117               0.000097664               0.999999998              -0.000012630               0.000105656               0.999999998              -0.000016843               0.000114940               0.999999998              -0.000021757               0.000125201               0.999999998              -0.000027334               0.000136297               0.999999998              -0.000033559               0.000148092               0.999999998              -0.000040374               0.000160460               0.999999998              -0.000047709               0.000173400               0.999999998              -0.000055563               0.000187026               0.999999998              -0.000063933               0.000201390               0.999999998              -0.000072772               0.000216183               0.999999998              -0.000081911               0.000231214               0.999999998              -0.000091227               0.000246619               0.999999998               0.000003236               0.000122967               0.999999998               0.000001005               0.000110266               0.999999998              -0.000000804               0.000109117               0.999999998              -0.000003367               0.000113646               0.999999998              -0.000006868               0.000121573               0.999999998              -0.000011295               0.000131696               0.999999998              -0.000016558               0.000143318               0.999999998              -0.000022651               0.000156225               0.999999998              -0.000029431               0.000170087               0.999999998              -0.000036776               0.000184820               0.999999998              -0.000044679               0.000200276               0.999999998              -0.000053145               0.000216544               0.999999998              -0.000062181               0.000233621               0.999999998              -0.000071635               0.000251463               0.999999998              -0.000081350               0.000269479               0.999999998              -0.000091229               0.000287558               0.999999998              -0.000101263               0.000306054               0.999999998               0.000002733               0.000144981               0.999999998               0.000003561               0.000130181               0.999999998               0.000002275               0.000129390               0.999999998              -0.000000755               0.000135224               0.999999998              -0.000005161               0.000145011               0.999999998              -0.000010745               0.000157292               0.999999998              -0.000017306               0.000171330               0.999999998              -0.000024650               0.000186844               0.999999998              -0.000032578               0.000203522               0.999999998              -0.000041032               0.000221148               0.999999998              -0.000050087               0.000239793               0.999999998              -0.000059735               0.000259407               0.999999998              -0.000069811               0.000279791               0.999999998              -0.000080170               0.000300832               0.999999998              -0.000090613               0.000321922               0.999999998              -0.000101211               0.000343111               0.999999998              -0.000112085               0.000364926               0.999999998               0.000002307               0.000165574               0.999999998               0.000006195               0.000149222               0.999999998               0.000005130               0.000148939               0.999999998               0.000001343               0.000156173               0.999999998              -0.000004195               0.000167839               0.999999998              -0.000011082               0.000182276               0.999999998              -0.000018898               0.000198766               0.999999998              -0.000027359               0.000216903               0.999999998              -0.000036409               0.000236388               0.999999998              -0.000045974               0.000256991               0.999999998              -0.000056156               0.000278877               0.999999998              -0.000066747               0.000301865               0.999999998              -0.000077683               0.000325710               0.999999998              -0.000088768               0.000350039               0.999999998              -0.000100005               0.000374441               0.999999998              -0.000111581               0.000399277               0.999999998              -0.000123598               0.000424930               0.999999998               0.000001844               0.000184382               0.999999998               0.000008759               0.000167354               0.999999998               0.000007490               0.000167663               0.999999998               0.000002763               0.000176324               0.999999998              -0.000003997               0.000189849               0.999999998              -0.000012123               0.000206512               0.999999998              -0.000021084               0.000225505               0.999999998              -0.000030613               0.000246319               0.999999998              -0.000040645               0.000268694               0.999999998              -0.000051229               0.000292518               0.999999998              -0.000062372               0.000317810               0.999999998              -0.000073874               0.000344315               0.999999998              -0.000085646               0.000371654               0.999999998              -0.000097558               0.000399456               0.999999998              -0.000109734               0.000427866               0.999999998              -0.000122338               0.000457029               0.999999998              -0.000135268               0.000487015               0.999999998               0.000001165               0.000201995               0.999999998               0.000010320               0.000186222               0.999999998               0.000010223               0.000184727               0.999999998               0.000006307               0.000191182               0.999999998               0.000000375               0.000202526               0.999999998              -0.000006908               0.000217068               0.999999998              -0.000014935               0.000234004               0.999999998              -0.000023512               0.000252773               0.999999998              -0.000032392               0.000273047               0.999999998              -0.000041539               0.000294742               0.999999998              -0.000051211               0.000317755               0.999999998              -0.000061341               0.000342099               0.999999998              -0.000071890               0.000367442               0.999999998              -0.000082460               0.000393679               0.999999998              -0.000092971               0.000420578               0.999999998              -0.000103654               0.000448301               0.999999998              -0.000114525               0.000476825               0.999999998               0.000000691               0.000217886               0.999999998               0.000011008               0.000204270               0.999999998               0.000012094               0.000201952               0.999999998               0.000009205               0.000206661               0.999999998               0.000004221               0.000216033               0.999999998              -0.000002022               0.000228681               0.999999998              -0.000009093               0.000243689               0.999999998              -0.000016693               0.000260567               0.999999998              -0.000024380               0.000278970               0.999999998              -0.000032321               0.000298724               0.999999998              -0.000040602               0.000319726               0.999999998              -0.000049376               0.000341906               0.999999998              -0.000058509               0.000365262               0.999999998              -0.000067693               0.000389628               0.999999998              -0.000076660               0.000414913               0.999999998              -0.000085502               0.000441005               0.999999998              -0.000094427               0.000467893               0.999999998               0.000000326               0.000231747               0.999999998               0.000010862               0.000221014               0.999999998               0.000012870               0.000218626               0.999999998               0.000011032               0.000222201               0.999999998               0.000007136               0.000229989               0.999999998               0.000002017               0.000240921               0.999999998              -0.000003976               0.000254252               0.999999998              -0.000010476               0.000269470               0.999999998              -0.000017088               0.000286221               0.999999998              -0.000023751               0.000304269               0.999999998              -0.000030837               0.000323519               0.999999998              -0.000038262               0.000343863               0.999999998              -0.000045851               0.000365346               0.999999998              -0.000053303               0.000387999               0.999999998              -0.000060698               0.000411707               0.999999998              -0.000067747               0.000436342               0.999999998              -0.000074529               0.000461718               0.999999998               0.000000069               0.000243387               0.999999998               0.000009866               0.000235794               0.999999998               0.000012384               0.000233991               0.999999998               0.000011477               0.000236950               0.999999998               0.000008692               0.000243630               0.999999998               0.000004671               0.000253188               0.999999998              -0.000000127               0.000265094               0.999999998              -0.000005443               0.000278880               0.999999998              -0.000010909               0.000294212               0.999999998              -0.000016406               0.000310897               0.999999998              -0.000022197               0.000328700               0.999999998              -0.000028274               0.000347585               0.999999998              -0.000034328               0.000367593               0.999999998              -0.000040062               0.000388724               0.999999998              -0.000045445               0.000410963               0.999999998              -0.000050716               0.000434217               0.999999998              -0.000055515               0.000458250               0.999999998              -0.000000071               0.000252619               0.999999998               0.000008095               0.000248008               0.999999998               0.000010624               0.000247169               0.999999998               0.000010425               0.000250007               0.999999998               0.000008587               0.000255960               0.999999998               0.000005715               0.000264572               0.999999998               0.000002108               0.000275411               0.999999998              -0.000001939               0.000288075               0.999999998              -0.000006200               0.000302297               0.999999998              -0.000010459               0.000317934               0.999999998              -0.000014773               0.000334821               0.999999998              -0.000019338               0.000352723               0.999999998              -0.000023850               0.000371693               0.999999998              -0.000027967               0.000391700               0.999999998              -0.000031689               0.000412747               0.999999998              -0.000035043               0.000434807               0.999999998              -0.000037679               0.000457760               0.999999998              -0.000000091               0.000259284               0.999999998               0.000005739               0.000257166               0.999999998               0.000007760               0.000257319               0.999999998               0.000007898               0.000260303               0.999999998               0.000006861               0.000265973               0.999999998               0.000005068               0.000273968               0.999999998               0.000002669               0.000284082               0.999999998              -0.000000032               0.000296034               0.999999998              -0.000002954               0.000309551               0.999999998              -0.000005861               0.000324524               0.999999998              -0.000008765               0.000340766               0.999999998              -0.000011725               0.000358043               0.999999998              -0.000014750               0.000376354               0.999999998              -0.000017525               0.000395635               0.999999998              -0.000019877               0.000415946               0.999999998              -0.000021493               0.000437347               0.999999998              -0.000022366               0.000459692               0.999999998              -0.000000055               0.000263305               0.999999998               0.000002981               0.000262795               0.999999998               0.000004093               0.000263737               0.999999998               0.000004245               0.000266962               0.999999998               0.000003793               0.000272510               0.999999998               0.000002930               0.000280249               0.999999998               0.000001776               0.000289989               0.999999998               0.000000462               0.000301542               0.999999998              -0.000000992               0.000314637               0.999999998              -0.000002554               0.000329153               0.999999998              -0.000004042               0.000344999               0.999999998              -0.000005386               0.000361978               0.999999998              -0.000006929               0.000379983               0.999999998              -0.000008567               0.000398973               0.999999998              -0.000009478               0.000418945               0.999999998              -0.000009987               0.000439920               0.999999998              -0.000010182               0.000461912               0.999999998              -0.000000000               0.000264704               0.999999998               0.000000000               0.000264731               0.999999998              -0.000000000               0.000265921               0.999999998               0.000000000               0.000269262               0.999999998               0.000000000               0.000274823               0.999999998               0.000000000               0.000282483               0.999999998               0.000000000               0.000292035               0.999999998               0.000000000               0.000303443               0.999999998              -0.000000000               0.000316443               0.999999998              -0.000000000               0.000330795               0.999999998              -0.000000000               0.000346469               0.999999998               0.000000000               0.000363397               0.999999998               0.000000000               0.000381417               0.999999998              -0.000000000               0.000400391               0.999999998              -0.000000000               0.000420258               0.999999998              -0.000000000               0.000440971               0.999999998               0.000000000               0.000462741               0.999999998               0.000005023              -0.000000000               0.999999998              -0.000005391               0.000000000               0.999999998              -0.000010549              -0.000000000               0.999999998              -0.000013625               0.000000000               0.999999998              -0.000015999               0.000000000               0.999999998              -0.000018265               0.000000000               0.999999998              -0.000020716               0.000000000               0.999999998              -0.000023597               0.000000000               0.999999998              -0.000026997              -0.000000000               0.999999998              -0.000030855               0.000000000               0.999999998              -0.000035236              -0.000000000               0.999999998              -0.000040100              -0.000000000               0.999999998              -0.000045458               0.000000000               0.999999998              -0.000051302               0.000000000               0.999999998              -0.000057628               0.000000000               0.999999998              -0.000064497               0.000000000               0.999999998              -0.000071858               0.000000000               0.999999998               0.000004936              -0.000025526               0.999999998              -0.000005134              -0.000023033               0.999999998              -0.000010086              -0.000022520               0.999999998              -0.000013043              -0.000023163               0.999999998              -0.000015429              -0.000024548               0.999999998              -0.000017745              -0.000026433               0.999999998              -0.000020306              -0.000028646               0.999999998              -0.000023294              -0.000031196               0.999999998              -0.000026780              -0.000033991               0.999999998              -0.000030799              -0.000036947               0.999999998              -0.000035342              -0.000040059               0.999999998              -0.000040388              -0.000043286               0.999999998              -0.000045924              -0.000046735               0.999999998              -0.000051977              -0.000050316               0.999999998              -0.000058505              -0.000054090               0.999999998              -0.000065499              -0.000058132               0.999999998              -0.000072971              -0.000062077               0.999999998               0.000004655              -0.000050794               0.999999998              -0.000004343              -0.000045785               0.999999998              -0.000008721              -0.000044809               0.999999998              -0.000011460              -0.000046205               0.999999998              -0.000013825              -0.000049043               0.999999998              -0.000016318              -0.000052833               0.999999998              -0.000019190              -0.000057420               0.999999998              -0.000022546              -0.000062505               0.999999998              -0.000026454              -0.000068052               0.999999998              -0.000030941              -0.000073968               0.999999998              -0.000035923              -0.000080198               0.999999998              -0.000041430              -0.000086695               0.999999998              -0.000047472              -0.000093555               0.999999998              -0.000054001              -0.000100704               0.999999998              -0.000061016              -0.000108197               0.999999998              -0.000068477              -0.000116092               0.999999998              -0.000076358              -0.000124085               0.999999998               0.000004250              -0.000075611               0.999999998              -0.000003040              -0.000068003               0.999999998              -0.000006588              -0.000066754               0.999999998              -0.000009084              -0.000069042               0.999999998              -0.000011571              -0.000073453               0.999999998              -0.000014419              -0.000079330               0.999999998              -0.000017832              -0.000086221               0.999999998              -0.000021853              -0.000093927               0.999999998              -0.000026469              -0.000102250               0.999999998              -0.000031695              -0.000111103               0.999999998              -0.000037495              -0.000120392               0.999999998              -0.000043828              -0.000130059               0.999999998              -0.000050663              -0.000140332               0.999999998              -0.000057990              -0.000151095               0.999999998              -0.000065812              -0.000162280               0.999999998              -0.000074062              -0.000173943               0.999999998              -0.000082650              -0.000185845               0.999999998               0.000003786              -0.000099769               0.999999998              -0.000001242              -0.000089530               0.999999998              -0.000003876              -0.000088209               0.999999998              -0.000006250              -0.000091552               0.999999998              -0.000009117              -0.000097664               0.999999998              -0.000012630              -0.000105656               0.999999998              -0.000016843              -0.000114940               0.999999998              -0.000021757              -0.000125201               0.999999998              -0.000027334              -0.000136297               0.999999998              -0.000033559              -0.000148092               0.999999998              -0.000040374              -0.000160460               0.999999998              -0.000047709              -0.000173400               0.999999998              -0.000055563              -0.000187026               0.999999998              -0.000063933              -0.000201390               0.999999998              -0.000072772              -0.000216183               0.999999998              -0.000081911              -0.000231214               0.999999998              -0.000091227              -0.000246619               0.999999998               0.000003236              -0.000122967               0.999999998               0.000001005              -0.000110266               0.999999998              -0.000000804              -0.000109117               0.999999998              -0.000003367              -0.000113646               0.999999998              -0.000006868              -0.000121573               0.999999998              -0.000011295              -0.000131696               0.999999998              -0.000016558              -0.000143318               0.999999998              -0.000022651              -0.000156225               0.999999998              -0.000029431              -0.000170087               0.999999998              -0.000036776              -0.000184820               0.999999998              -0.000044679              -0.000200276               0.999999998              -0.000053145              -0.000216544               0.999999998              -0.000062181              -0.000233621               0.999999998              -0.000071635              -0.000251463               0.999999998              -0.000081350              -0.000269479               0.999999998              -0.000091229              -0.000287558               0.999999998              -0.000101263              -0.000306054               0.999999998               0.000002733              -0.000144981               0.999999998               0.000003561              -0.000130181               0.999999998               0.000002275              -0.000129390               0.999999998              -0.000000755              -0.000135224               0.999999998              -0.000005161              -0.000145011               0.999999998              -0.000010745              -0.000157292               0.999999998              -0.000017306              -0.000171330               0.999999998              -0.000024650              -0.000186844               0.999999998              -0.000032578              -0.000203522               0.999999998              -0.000041032              -0.000221148               0.999999998              -0.000050087              -0.000239793               0.999999998              -0.000059735              -0.000259407               0.999999998              -0.000069811              -0.000279791               0.999999998              -0.000080170              -0.000300832               0.999999998              -0.000090613              -0.000321922               0.999999998              -0.000101211              -0.000343111               0.999999998              -0.000112085              -0.000364926               0.999999998               0.000002307              -0.000165574               0.999999998               0.000006195              -0.000149222               0.999999998               0.000005130              -0.000148939               0.999999998               0.000001343              -0.000156173               0.999999998              -0.000004195              -0.000167839               0.999999998              -0.000011082              -0.000182276               0.999999998              -0.000018898              -0.000198766               0.999999998              -0.000027359              -0.000216903               0.999999998              -0.000036409              -0.000236388               0.999999998              -0.000045974              -0.000256991               0.999999998              -0.000056156              -0.000278877               0.999999998              -0.000066747              -0.000301865               0.999999998              -0.000077683              -0.000325710               0.999999998              -0.000088768              -0.000350039               0.999999998              -0.000100005              -0.000374441               0.999999998              -0.000111581              -0.000399277               0.999999998              -0.000123598              -0.000424930               0.999999998               0.000001844              -0.000184382               0.999999998               0.000008759              -0.000167354               0.999999998               0.000007490              -0.000167663               0.999999998               0.000002763              -0.000176324               0.999999998              -0.000003997              -0.000189849               0.999999998              -0.000012123              -0.000206512               0.999999998              -0.000021084              -0.000225505               0.999999998              -0.000030613              -0.000246319               0.999999998              -0.000040645              -0.000268694               0.999999998              -0.000051229              -0.000292518               0.999999998              -0.000062372              -0.000317810               0.999999998              -0.000073874              -0.000344315               0.999999998              -0.000085646              -0.000371654               0.999999998              -0.000097558              -0.000399456               0.999999998              -0.000109734              -0.000427866               0.999999998              -0.000122338              -0.000457029               0.999999998              -0.000135268              -0.000487015               0.999999998               0.000001165              -0.000201995               0.999999998               0.000010320              -0.000186222               0.999999998               0.000010223              -0.000184727               0.999999998               0.000006307              -0.000191182               0.999999998               0.000000375              -0.000202526               0.999999998              -0.000006908              -0.000217068               0.999999998              -0.000014935              -0.000234004               0.999999998              -0.000023512              -0.000252773               0.999999998              -0.000032392              -0.000273047               0.999999998              -0.000041539              -0.000294742               0.999999998              -0.000051211              -0.000317755               0.999999998              -0.000061341              -0.000342099               0.999999998              -0.000071890              -0.000367442               0.999999998              -0.000082460              -0.000393679               0.999999998              -0.000092971              -0.000420578               0.999999998              -0.000103654              -0.000448301               0.999999998              -0.000114525              -0.000476825               0.999999998               0.000000691              -0.000217886               0.999999998               0.000011008              -0.000204270               0.999999998               0.000012094              -0.000201952               0.999999998               0.000009205              -0.000206661               0.999999998               0.000004221              -0.000216033               0.999999998              -0.000002022              -0.000228681               0.999999998              -0.000009093              -0.000243689               0.999999998              -0.000016693              -0.000260567               0.999999998              -0.000024380              -0.000278970               0.999999998              -0.000032321              -0.000298724               0.999999998              -0.000040602              -0.000319726               0.999999998              -0.000049376              -0.000341906               0.999999998              -0.000058509              -0.000365262               0.999999998              -0.000067693              -0.000389628               0.999999998              -0.000076660              -0.000414913               0.999999998              -0.000085502              -0.000441005               0.999999998              -0.000094427              -0.000467893               0.999999998               0.000000326              -0.000231747               0.999999998               0.000010862              -0.000221014               0.999999998               0.000012870              -0.000218626               0.999999998               0.000011032              -0.000222201               0.999999998               0.000007136              -0.000229989               0.999999998               0.000002017              -0.000240921               0.999999998              -0.000003976              -0.000254252               0.999999998              -0.000010476              -0.000269470               0.999999998              -0.000017088              -0.000286221               0.999999998              -0.000023751              -0.000304269               0.999999998              -0.000030837              -0.000323519               0.999999998              -0.000038262              -0.000343863               0.999999998              -0.000045851              -0.000365346               0.999999998              -0.000053303              -0.000387999               0.999999998              -0.000060698              -0.000411707               0.999999998              -0.000067747              -0.000436342               0.999999998              -0.000074529              -0.000461718               0.999999998               0.000000069              -0.000243387               0.999999998               0.000009866              -0.000235794               0.999999998               0.000012384              -0.000233991               0.999999998               0.000011477              -0.000236950               0.999999998               0.000008692              -0.000243630               0.999999998               0.000004671              -0.000253188               0.999999998              -0.000000127              -0.000265094               0.999999998              -0.000005443              -0.000278880               0.999999998              -0.000010909              -0.000294212               0.999999998              -0.000016406              -0.000310897               0.999999998              -0.000022197              -0.000328700               0.999999998              -0.000028274              -0.000347585               0.999999998              -0.000034328              -0.000367593               0.999999998              -0.000040062              -0.000388724               0.999999998              -0.000045445              -0.000410963               0.999999998              -0.000050716              -0.000434217               0.999999998              -0.000055515              -0.000458250               0.999999998              -0.000000071              -0.000252619               0.999999998               0.000008095              -0.000248008               0.999999998               0.000010624              -0.000247169               0.999999998               0.000010425              -0.000250007               0.999999998               0.000008587              -0.000255960               0.999999998               0.000005715              -0.000264572               0.999999998               0.000002108              -0.000275411               0.999999998              -0.000001939              -0.000288075               0.999999998              -0.000006200              -0.000302297               0.999999998              -0.000010459              -0.000317934               0.999999998              -0.000014773              -0.000334821               0.999999998              -0.000019338              -0.000352723               0.999999998              -0.000023850              -0.000371693               0.999999998              -0.000027967              -0.000391700               0.999999998              -0.000031689              -0.000412747               0.999999998              -0.000035043              -0.000434807               0.999999998              -0.000037679              -0.000457760               0.999999998              -0.000000091              -0.000259284               0.999999998               0.000005739              -0.000257166               0.999999998               0.000007760              -0.000257319               0.999999998               0.000007898              -0.000260303               0.999999998               0.000006861              -0.000265973               0.999999998               0.000005068              -0.000273968               0.999999998               0.000002669              -0.000284082               0.999999998              -0.000000032              -0.000296034               0.999999998              -0.000002954              -0.000309551               0.999999998              -0.000005861              -0.000324524               0.999999998              -0.000008765              -0.000340766               0.999999998              -0.000011725              -0.000358043               0.999999998              -0.000014750              -0.000376354               0.999999998              -0.000017525              -0.000395635               0.999999998              -0.000019877              -0.000415946               0.999999998              -0.000021493              -0.000437347               0.999999998              -0.000022366              -0.000459692               0.999999998              -0.000000055              -0.000263305               0.999999998               0.000002981              -0.000262795               0.999999998               0.000004093              -0.000263737               0.999999998               0.000004245              -0.000266962               0.999999998               0.000003793              -0.000272510               0.999999998               0.000002930              -0.000280249               0.999999998               0.000001776              -0.000289989               0.999999998               0.000000462              -0.000301542               0.999999998              -0.000000992              -0.000314637               0.999999998              -0.000002554              -0.000329153               0.999999998              -0.000004042              -0.000344999               0.999999998              -0.000005386              -0.000361978               0.999999998              -0.000006929              -0.000379983               0.999999998              -0.000008567              -0.000398973               0.999999998              -0.000009478              -0.000418945               0.999999998              -0.000009987              -0.000439920               0.999999998              -0.000010182              -0.000461912               0.999999998              -0.000000000              -0.000264704               0.999999998              -0.000000000              -0.000264731               0.999999998              -0.000000000              -0.000265921               0.999999998               0.000000000              -0.000269262               0.999999998               0.000000000              -0.000274823               0.999999998              -0.000000000              -0.000282483               0.999999998              -0.000000000              -0.000292035               0.999999998               0.000000000              -0.000303443               0.999999998              -0.000000000              -0.000316443               0.999999998               0.000000000              -0.000330795               0.999999998              -0.000000000              -0.000346469               0.999999998              -0.000000000              -0.000363397               0.999999998              -0.000000000              -0.000381417               0.999999998               0.000000000              -0.000400391               0.999999998               0.000000000              -0.000420258               0.999999998               0.000000000              -0.000440971               0.999999998               0.000000000              -0.000462741               0.999999998              -0.000005023              -0.000000000               0.999999998               0.000005391               0.000000000               0.999999998               0.000010549               0.000000000               0.999999998               0.000013625              -0.000000000               0.999999998               0.000015999               0.000000000               0.999999998               0.000018265               0.000000000               0.999999998               0.000020716               0.000000000               0.999999998               0.000023597               0.000000000               0.999999998               0.000026997               0.000000000               0.999999998               0.000030855               0.000000000               0.999999998               0.000035236               0.000000000               0.999999998               0.000040100               0.000000000               0.999999998               0.000045458              -0.000000000               0.999999998               0.000051302              -0.000000000               0.999999998               0.000057628               0.000000000               0.999999998               0.000064497              -0.000000000               0.999999998               0.000071858               0.000000000               0.999999998              -0.000004936              -0.000025526               0.999999998               0.000005134              -0.000023033               0.999999998               0.000010086              -0.000022520               0.999999998               0.000013043              -0.000023163               0.999999998               0.000015429              -0.000024548               0.999999998               0.000017745              -0.000026433               0.999999998               0.000020306              -0.000028646               0.999999998               0.000023294              -0.000031196               0.999999998               0.000026780              -0.000033991               0.999999998               0.000030799              -0.000036947               0.999999998               0.000035342              -0.000040059               0.999999998               0.000040388              -0.000043286               0.999999998               0.000045924              -0.000046735               0.999999998               0.000051977              -0.000050316               0.999999998               0.000058505              -0.000054090               0.999999998               0.000065499              -0.000058132               0.999999998               0.000072971              -0.000062077               0.999999998              -0.000004655              -0.000050794               0.999999998               0.000004343              -0.000045785               0.999999998               0.000008721              -0.000044809               0.999999998               0.000011460              -0.000046205               0.999999998               0.000013825              -0.000049043               0.999999998               0.000016318              -0.000052833               0.999999998               0.000019190              -0.000057420               0.999999998               0.000022546              -0.000062505               0.999999998               0.000026454              -0.000068052               0.999999998               0.000030941              -0.000073968               0.999999998               0.000035923              -0.000080198               0.999999998               0.000041430              -0.000086695               0.999999998               0.000047472              -0.000093555               0.999999998               0.000054001              -0.000100704               0.999999998               0.000061016              -0.000108197               0.999999998               0.000068477              -0.000116092               0.999999998               0.000076358              -0.000124085               0.999999998              -0.000004250              -0.000075611               0.999999998               0.000003040              -0.000068003               0.999999998               0.000006588              -0.000066754               0.999999998               0.000009084              -0.000069042               0.999999998               0.000011571              -0.000073453               0.999999998               0.000014419              -0.000079330               0.999999998               0.000017832              -0.000086221               0.999999998               0.000021853              -0.000093927               0.999999998               0.000026469              -0.000102250               0.999999998               0.000031695              -0.000111103               0.999999998               0.000037495              -0.000120392               0.999999998               0.000043828              -0.000130059               0.999999998               0.000050663              -0.000140332               0.999999998               0.000057990              -0.000151095               0.999999998               0.000065812              -0.000162280               0.999999998               0.000074062              -0.000173943               0.999999998               0.000082650              -0.000185845               0.999999998              -0.000003786              -0.000099769               0.999999998               0.000001242              -0.000089530               0.999999998               0.000003876              -0.000088209               0.999999998               0.000006250              -0.000091552               0.999999998               0.000009117              -0.000097664               0.999999998               0.000012630              -0.000105656               0.999999998               0.000016843              -0.000114940               0.999999998               0.000021757              -0.000125201               0.999999998               0.000027334              -0.000136297               0.999999998               0.000033559              -0.000148092               0.999999998               0.000040374              -0.000160460               0.999999998               0.000047709              -0.000173400               0.999999998               0.000055563              -0.000187026               0.999999998               0.000063933              -0.000201390               0.999999998               0.000072772              -0.000216183               0.999999998               0.000081911              -0.000231214               0.999999998               0.000091227              -0.000246619               0.999999998              -0.000003236              -0.000122967               0.999999998              -0.000001005              -0.000110266               0.999999998               0.000000804              -0.000109117               0.999999998               0.000003367              -0.000113646               0.999999998               0.000006868              -0.000121573               0.999999998               0.000011295              -0.000131696               0.999999998               0.000016558              -0.000143318               0.999999998               0.000022651              -0.000156225               0.999999998               0.000029431              -0.000170087               0.999999998               0.000036776              -0.000184820               0.999999998               0.000044679              -0.000200276               0.999999998               0.000053145              -0.000216544               0.999999998               0.000062181              -0.000233621               0.999999998               0.000071635              -0.000251463               0.999999998               0.000081350              -0.000269479               0.999999998               0.000091229              -0.000287558               0.999999998               0.000101263              -0.000306054               0.999999998              -0.000002733              -0.000144981               0.999999998              -0.000003561              -0.000130181               0.999999998              -0.000002275              -0.000129390               0.999999998               0.000000755              -0.000135224               0.999999998               0.000005161              -0.000145011               0.999999998               0.000010745              -0.000157292               0.999999998               0.000017306              -0.000171330               0.999999998               0.000024650              -0.000186844               0.999999998               0.000032578              -0.000203522               0.999999998               0.000041032              -0.000221148               0.999999998               0.000050087              -0.000239793               0.999999998               0.000059735              -0.000259407               0.999999998               0.000069811              -0.000279791               0.999999998               0.000080170              -0.000300832               0.999999998               0.000090613              -0.000321922               0.999999998               0.000101211              -0.000343111               0.999999998               0.000112085              -0.000364926               0.999999998              -0.000002307              -0.000165574               0.999999998              -0.000006195              -0.000149222               0.999999998              -0.000005130              -0.000148939               0.999999998              -0.000001343              -0.000156173               0.999999998               0.000004195              -0.000167839               0.999999998               0.000011082              -0.000182276               0.999999998               0.000018898              -0.000198766               0.999999998               0.000027359              -0.000216903               0.999999998               0.000036409              -0.000236388               0.999999998               0.000045974              -0.000256991               0.999999998               0.000056156              -0.000278877               0.999999998               0.000066747              -0.000301865               0.999999998               0.000077683              -0.000325710               0.999999998               0.000088768              -0.000350039               0.999999998               0.000100005              -0.000374441               0.999999998               0.000111581              -0.000399277               0.999999998               0.000123598              -0.000424930               0.999999998              -0.000001844              -0.000184382               0.999999998              -0.000008759              -0.000167354               0.999999998              -0.000007490              -0.000167663               0.999999998              -0.000002763              -0.000176324               0.999999998               0.000003997              -0.000189849               0.999999998               0.000012123              -0.000206512               0.999999998               0.000021084              -0.000225505               0.999999998               0.000030613              -0.000246319               0.999999998               0.000040645              -0.000268694               0.999999998               0.000051229              -0.000292518               0.999999998               0.000062372              -0.000317810               0.999999998               0.000073874              -0.000344315               0.999999998               0.000085646              -0.000371654               0.999999998               0.000097558              -0.000399456               0.999999998               0.000109734              -0.000427866               0.999999998               0.000122338              -0.000457029               0.999999998               0.000135268              -0.000487015               0.999999998              -0.000001165              -0.000201995               0.999999998              -0.000010320              -0.000186222               0.999999998              -0.000010223              -0.000184727               0.999999998              -0.000006307              -0.000191182               0.999999998              -0.000000375              -0.000202526               0.999999998               0.000006908              -0.000217068               0.999999998               0.000014935              -0.000234004               0.999999998               0.000023512              -0.000252773               0.999999998               0.000032392              -0.000273047               0.999999998               0.000041539              -0.000294742               0.999999998               0.000051211              -0.000317755               0.999999998               0.000061341              -0.000342099               0.999999998               0.000071890              -0.000367442               0.999999998               0.000082460              -0.000393679               0.999999998               0.000092971              -0.000420578               0.999999998               0.000103654              -0.000448301               0.999999998               0.000114525              -0.000476825               0.999999998              -0.000000691              -0.000217886               0.999999998              -0.000011008              -0.000204270               0.999999998              -0.000012094              -0.000201952               0.999999998              -0.000009205              -0.000206661               0.999999998              -0.000004221              -0.000216033               0.999999998               0.000002022              -0.000228681               0.999999998               0.000009093              -0.000243689               0.999999998               0.000016693              -0.000260567               0.999999998               0.000024380              -0.000278970               0.999999998               0.000032321              -0.000298724               0.999999998               0.000040602              -0.000319726               0.999999998               0.000049376              -0.000341906               0.999999998               0.000058509              -0.000365262               0.999999998               0.000067693              -0.000389628               0.999999998               0.000076660              -0.000414913               0.999999998               0.000085502              -0.000441005               0.999999998               0.000094427              -0.000467893               0.999999998              -0.000000326              -0.000231747               0.999999998              -0.000010862              -0.000221014               0.999999998              -0.000012870              -0.000218626               0.999999998              -0.000011032              -0.000222201               0.999999998              -0.000007136              -0.000229989               0.999999998              -0.000002017              -0.000240921               0.999999998               0.000003976              -0.000254252               0.999999998               0.000010476              -0.000269470               0.999999998               0.000017088              -0.000286221               0.999999998               0.000023751              -0.000304269               0.999999998               0.000030837              -0.000323519               0.999999998               0.000038262              -0.000343863               0.999999998               0.000045851              -0.000365346               0.999999998               0.000053303              -0.000387999               0.999999998               0.000060698              -0.000411707               0.999999998               0.000067747              -0.000436342               0.999999998               0.000074529              -0.000461718               0.999999998              -0.000000069              -0.000243387               0.999999998              -0.000009866              -0.000235794               0.999999998              -0.000012384              -0.000233991               0.999999998              -0.000011477              -0.000236950               0.999999998              -0.000008692              -0.000243630               0.999999998              -0.000004671              -0.000253188               0.999999998               0.000000127              -0.000265094               0.999999998               0.000005443              -0.000278880               0.999999998               0.000010909              -0.000294212               0.999999998               0.000016406              -0.000310897               0.999999998               0.000022197              -0.000328700               0.999999998               0.000028274              -0.000347585               0.999999998               0.000034328              -0.000367593               0.999999998               0.000040062              -0.000388724               0.999999998               0.000045445              -0.000410963               0.999999998               0.000050716              -0.000434217               0.999999998               0.000055515              -0.000458250               0.999999998               0.000000071              -0.000252619               0.999999998              -0.000008095              -0.000248008               0.999999998              -0.000010624              -0.000247169               0.999999998              -0.000010425              -0.000250007               0.999999998              -0.000008587              -0.000255960               0.999999998              -0.000005715              -0.000264572               0.999999998              -0.000002108              -0.000275411               0.999999998               0.000001939              -0.000288075               0.999999998               0.000006200              -0.000302297               0.999999998               0.000010459              -0.000317934               0.999999998               0.000014773              -0.000334821               0.999999998               0.000019338              -0.000352723               0.999999998               0.000023850              -0.000371693               0.999999998               0.000027967              -0.000391700               0.999999998               0.000031689              -0.000412747               0.999999998               0.000035043              -0.000434807               0.999999998               0.000037679              -0.000457760               0.999999998               0.000000091              -0.000259284               0.999999998              -0.000005739              -0.000257166               0.999999998              -0.000007760              -0.000257319               0.999999998              -0.000007898              -0.000260303               0.999999998              -0.000006861              -0.000265973               0.999999998              -0.000005068              -0.000273968               0.999999998              -0.000002669              -0.000284082               0.999999998               0.000000032              -0.000296034               0.999999998               0.000002954              -0.000309551               0.999999998               0.000005861              -0.000324524               0.999999998               0.000008765              -0.000340766               0.999999998               0.000011725              -0.000358043               0.999999998               0.000014750              -0.000376354               0.999999998               0.000017525              -0.000395635               0.999999998               0.000019877              -0.000415946               0.999999998               0.000021493              -0.000437347               0.999999998               0.000022366              -0.000459692               0.999999998               0.000000055              -0.000263305               0.999999998              -0.000002981              -0.000262795               0.999999998              -0.000004093              -0.000263737               0.999999998              -0.000004245              -0.000266962               0.999999998              -0.000003793              -0.000272510               0.999999998              -0.000002930              -0.000280249               0.999999998              -0.000001776              -0.000289989               0.999999998              -0.000000462              -0.000301542               0.999999998               0.000000992              -0.000314637               0.999999998               0.000002554              -0.000329153               0.999999998               0.000004042              -0.000344999               0.999999998               0.000005386              -0.000361978               0.999999998               0.000006929              -0.000379983               0.999999998               0.000008567              -0.000398973               0.999999998               0.000009478              -0.000418945               0.999999998               0.000009987              -0.000439920               0.999999998               0.000010182              -0.000461912               0.999999998              -0.000000000              -0.000264704               0.999999998              -0.000000000              -0.000264731               0.999999998              -0.000000000              -0.000265921               0.999999998               0.000000000              -0.000269262               0.999999998               0.000000000              -0.000274823               0.999999998              -0.000000000              -0.000282483               0.999999998              -0.000000000              -0.000292035               0.999999998               0.000000000              -0.000303443               0.999999998              -0.000000000              -0.000316443               0.999999998               0.000000000              -0.000330795               0.999999998              -0.000000000              -0.000346469               0.999999998              -0.000000000              -0.000363397               0.999999998              -0.000000000              -0.000381417               0.999999998               0.000000000              -0.000400391               0.999999998               0.000000000              -0.000420258               0.999999998               0.000000000              -0.000440971               0.999999998               0.000000000              -0.000462741               0.999999998              -0.000005023              -0.000000000               0.999999998               0.000005391               0.000000000               0.999999998               0.000010549               0.000000000               0.999999998               0.000013625              -0.000000000               0.999999998               0.000015999               0.000000000               0.999999998               0.000018265               0.000000000               0.999999998               0.000020716               0.000000000               0.999999998               0.000023597               0.000000000               0.999999998               0.000026997               0.000000000               0.999999998               0.000030855               0.000000000               0.999999998               0.000035236               0.000000000               0.999999998               0.000040100               0.000000000               0.999999998               0.000045458              -0.000000000               0.999999998               0.000051302              -0.000000000               0.999999998               0.000057628               0.000000000               0.999999998               0.000064497              -0.000000000               0.999999998               0.000071858               0.000000000               0.999999998              -0.000004936               0.000025526               0.999999998               0.000005134               0.000023033               0.999999998               0.000010086               0.000022520               0.999999998               0.000013043               0.000023163               0.999999998               0.000015429               0.000024548               0.999999998               0.000017745               0.000026433               0.999999998               0.000020306               0.000028646               0.999999998               0.000023294               0.000031196               0.999999998               0.000026780               0.000033991               0.999999998               0.000030799               0.000036947               0.999999998               0.000035342               0.000040059               0.999999998               0.000040388               0.000043286               0.999999998               0.000045924               0.000046735               0.999999998               0.000051977               0.000050316               0.999999998               0.000058505               0.000054090               0.999999998               0.000065499               0.000058132               0.999999998               0.000072971               0.000062077               0.999999998              -0.000004655               0.000050794               0.999999998               0.000004343               0.000045785               0.999999998               0.000008721               0.000044809               0.999999998               0.000011460               0.000046205               0.999999998               0.000013825               0.000049043               0.999999998               0.000016318               0.000052833               0.999999998               0.000019190               0.000057420               0.999999998               0.000022546               0.000062505               0.999999998               0.000026454               0.000068052               0.999999998               0.000030941               0.000073968               0.999999998               0.000035923               0.000080198               0.999999998               0.000041430               0.000086695               0.999999998               0.000047472               0.000093555               0.999999998               0.000054001               0.000100704               0.999999998               0.000061016               0.000108197               0.999999998               0.000068477               0.000116092               0.999999998               0.000076358               0.000124085               0.999999998              -0.000004250               0.000075611               0.999999998               0.000003040               0.000068003               0.999999998               0.000006588               0.000066754               0.999999998               0.000009084               0.000069042               0.999999998               0.000011571               0.000073453               0.999999998               0.000014419               0.000079330               0.999999998               0.000017832               0.000086221               0.999999998               0.000021853               0.000093927               0.999999998               0.000026469               0.000102250               0.999999998               0.000031695               0.000111103               0.999999998               0.000037495               0.000120392               0.999999998               0.000043828               0.000130059               0.999999998               0.000050663               0.000140332               0.999999998               0.000057990               0.000151095               0.999999998               0.000065812               0.000162280               0.999999998               0.000074062               0.000173943               0.999999998               0.000082650               0.000185845               0.999999998              -0.000003786               0.000099769               0.999999998               0.000001242               0.000089530               0.999999998               0.000003876               0.000088209               0.999999998               0.000006250               0.000091552               0.999999998               0.000009117               0.000097664               0.999999998               0.000012630               0.000105656               0.999999998               0.000016843               0.000114940               0.999999998               0.000021757               0.000125201               0.999999998               0.000027334               0.000136297               0.999999998               0.000033559               0.000148092               0.999999998               0.000040374               0.000160460               0.999999998               0.000047709               0.000173400               0.999999998               0.000055563               0.000187026               0.999999998               0.000063933               0.000201390               0.999999998               0.000072772               0.000216183               0.999999998               0.000081911               0.000231214               0.999999998               0.000091227               0.000246619               0.999999998              -0.000003236               0.000122967               0.999999998              -0.000001005               0.000110266               0.999999998               0.000000804               0.000109117               0.999999998               0.000003367               0.000113646               0.999999998               0.000006868               0.000121573               0.999999998               0.000011295               0.000131696               0.999999998               0.000016558               0.000143318               0.999999998               0.000022651               0.000156225               0.999999998               0.000029431               0.000170087               0.999999998               0.000036776               0.000184820               0.999999998               0.000044679               0.000200276               0.999999998               0.000053145               0.000216544               0.999999998               0.000062181               0.000233621               0.999999998               0.000071635               0.000251463               0.999999998               0.000081350               0.000269479               0.999999998               0.000091229               0.000287558               0.999999998               0.000101263               0.000306054               0.999999998              -0.000002733               0.000144981               0.999999998              -0.000003561               0.000130181               0.999999998              -0.000002275               0.000129390               0.999999998               0.000000755               0.000135224               0.999999998               0.000005161               0.000145011               0.999999998               0.000010745               0.000157292               0.999999998               0.000017306               0.000171330               0.999999998               0.000024650               0.000186844               0.999999998               0.000032578               0.000203522               0.999999998               0.000041032               0.000221148               0.999999998               0.000050087               0.000239793               0.999999998               0.000059735               0.000259407               0.999999998               0.000069811               0.000279791               0.999999998               0.000080170               0.000300832               0.999999998               0.000090613               0.000321922               0.999999998               0.000101211               0.000343111               0.999999998               0.000112085               0.000364926               0.999999998              -0.000002307               0.000165574               0.999999998              -0.000006195               0.000149222               0.999999998              -0.000005130               0.000148939               0.999999998              -0.000001343               0.000156173               0.999999998               0.000004195               0.000167839               0.999999998               0.000011082               0.000182276               0.999999998               0.000018898               0.000198766               0.999999998               0.000027359               0.000216903               0.999999998               0.000036409               0.000236388               0.999999998               0.000045974               0.000256991               0.999999998               0.000056156               0.000278877               0.999999998               0.000066747               0.000301865               0.999999998               0.000077683               0.000325710               0.999999998               0.000088768               0.000350039               0.999999998               0.000100005               0.000374441               0.999999998               0.000111581               0.000399277               0.999999998               0.000123598               0.000424930               0.999999998              -0.000001844               0.000184382               0.999999998              -0.000008759               0.000167354               0.999999998              -0.000007490               0.000167663               0.999999998              -0.000002763               0.000176324               0.999999998               0.000003997               0.000189849               0.999999998               0.000012123               0.000206512               0.999999998               0.000021084               0.000225505               0.999999998               0.000030613               0.000246319               0.999999998               0.000040645               0.000268694               0.999999998               0.000051229               0.000292518               0.999999998               0.000062372               0.000317810               0.999999998               0.000073874               0.000344315               0.999999998               0.000085646               0.000371654               0.999999998               0.000097558               0.000399456               0.999999998               0.000109734               0.000427866               0.999999998               0.000122338               0.000457029               0.999999998               0.000135268               0.000487015               0.999999998              -0.000001165               0.000201995               0.999999998              -0.000010320               0.000186222               0.999999998              -0.000010223               0.000184727               0.999999998              -0.000006307               0.000191182               0.999999998              -0.000000375               0.000202526               0.999999998               0.000006908               0.000217068               0.999999998               0.000014935               0.000234004               0.999999998               0.000023512               0.000252773               0.999999998               0.000032392               0.000273047               0.999999998               0.000041539               0.000294742               0.999999998               0.000051211               0.000317755               0.999999998               0.000061341               0.000342099               0.999999998               0.000071890               0.000367442               0.999999998               0.000082460               0.000393679               0.999999998               0.000092971               0.000420578               0.999999998               0.000103654               0.000448301               0.999999998               0.000114525               0.000476825               0.999999998              -0.000000691               0.000217886               0.999999998              -0.000011008               0.000204270               0.999999998              -0.000012094               0.000201952               0.999999998              -0.000009205               0.000206661               0.999999998              -0.000004221               0.000216033               0.999999998               0.000002022               0.000228681               0.999999998               0.000009093               0.000243689               0.999999998               0.000016693               0.000260567               0.999999998               0.000024380               0.000278970               0.999999998               0.000032321               0.000298724               0.999999998               0.000040602               0.000319726               0.999999998               0.000049376               0.000341906               0.999999998               0.000058509               0.000365262               0.999999998               0.000067693               0.000389628               0.999999998               0.000076660               0.000414913               0.999999998               0.000085502               0.000441005               0.999999998               0.000094427               0.000467893               0.999999998              -0.000000326               0.000231747               0.999999998              -0.000010862               0.000221014               0.999999998              -0.000012870               0.000218626               0.999999998              -0.000011032               0.000222201               0.999999998              -0.000007136               0.000229989               0.999999998              -0.000002017               0.000240921               0.999999998               0.000003976               0.000254252               0.999999998               0.000010476               0.000269470               0.999999998               0.000017088               0.000286221               0.999999998               0.000023751               0.000304269               0.999999998               0.000030837               0.000323519               0.999999998               0.000038262               0.000343863               0.999999998               0.000045851               0.000365346               0.999999998               0.000053303               0.000387999               0.999999998               0.000060698               0.000411707               0.999999998               0.000067747               0.000436342               0.999999998               0.000074529               0.000461718               0.999999998              -0.000000069               0.000243387               0.999999998              -0.000009866               0.000235794               0.999999998              -0.000012384               0.000233991               0.999999998              -0.000011477               0.000236950               0.999999998              -0.000008692               0.000243630               0.999999998              -0.000004671               0.000253188               0.999999998               0.000000127               0.000265094               0.999999998               0.000005443               0.000278880               0.999999998               0.000010909               0.000294212               0.999999998               0.000016406               0.000310897               0.999999998               0.000022197               0.000328700               0.999999998               0.000028274               0.000347585               0.999999998               0.000034328               0.000367593               0.999999998               0.000040062               0.000388724               0.999999998               0.000045445               0.000410963               0.999999998               0.000050716               0.000434217               0.999999998               0.000055515               0.000458250               0.999999998               0.000000071               0.000252619               0.999999998              -0.000008095               0.000248008               0.999999998              -0.000010624               0.000247169               0.999999998              -0.000010425               0.000250007               0.999999998              -0.000008587               0.000255960               0.999999998              -0.000005715               0.000264572               0.999999998              -0.000002108               0.000275411               0.999999998               0.000001939               0.000288075               0.999999998               0.000006200               0.000302297               0.999999998               0.000010459               0.000317934               0.999999998               0.000014773               0.000334821               0.999999998               0.000019338               0.000352723               0.999999998               0.000023850               0.000371693               0.999999998               0.000027967               0.000391700               0.999999998               0.000031689               0.000412747               0.999999998               0.000035043               0.000434807               0.999999998               0.000037679               0.000457760               0.999999998               0.000000091               0.000259284               0.999999998              -0.000005739               0.000257166               0.999999998              -0.000007760               0.000257319               0.999999998              -0.000007898               0.000260303               0.999999998              -0.000006861               0.000265973               0.999999998              -0.000005068               0.000273968               0.999999998              -0.000002669               0.000284082               0.999999998               0.000000032               0.000296034               0.999999998               0.000002954               0.000309551               0.999999998               0.000005861               0.000324524               0.999999998               0.000008765               0.000340766               0.999999998               0.000011725               0.000358043               0.999999998               0.000014750               0.000376354               0.999999998               0.000017525               0.000395635               0.999999998               0.000019877               0.000415946               0.999999998               0.000021493               0.000437347               0.999999998               0.000022366               0.000459692               0.999999998               0.000000055               0.000263305               0.999999998              -0.000002981               0.000262795               0.999999998              -0.000004093               0.000263737               0.999999998              -0.000004245               0.000266962               0.999999998              -0.000003793               0.000272510               0.999999998              -0.000002930               0.000280249               0.999999998              -0.000001776               0.000289989               0.999999998              -0.000000462               0.000301542               0.999999998               0.000000992               0.000314637               0.999999998               0.000002554               0.000329153               0.999999998               0.000004042               0.000344999               0.999999998               0.000005386               0.000361978               0.999999998               0.000006929               0.000379983               0.999999998               0.000008567               0.000398973               0.999999998               0.000009478               0.000418945               0.999999998               0.000009987               0.000439920               0.999999998               0.000010182               0.000461912               0.999999998              -0.000000000               0.000264704               0.999999998               0.000000000               0.000264731               0.999999998              -0.000000000               0.000265921               0.999999998               0.000000000               0.000269262               0.999999998               0.000000000               0.000274823               0.999999998               0.000000000               0.000282483               0.999999998               0.000000000               0.000292035               0.999999998               0.000000000               0.000303443               0.999999998              -0.000000000               0.000316443               0.999999998              -0.000000000               0.000330795               0.999999998              -0.000000000               0.000346469               0.999999998               0.000000000               0.000363397               0.999999998               0.000000000               0.000381417               0.999999998              -0.000000000               0.000400391               0.999999998              -0.000000000               0.000420258               0.999999998              -0.000000000               0.000440971               0.999999998               0.000000000               0.000462741               0.999999998 </DataArray>
<DataArray type="Float64"                                    Name="defo"                                                      NumberOfComponents=" 3" format="ascii">
              0.000005023              -0.000000000               0.999999998              -0.000005391               0.000000000               0.999999998              -0.000010549              -0.000000000               0.999999998              -0.000013625               0.000000000               0.999999998              -0.000015999               0.000000000               0.999999998              -0.000018265               0.000000000               0.999999998              -0.000020716               0.000000000               0.999999998              -0.000023597               0.000000000               0.999999998              -0.000026997              -0.000000000               0.999999998              -0.000030855               0.000000000               0.999999998              -0.000035236              -0.000000000               0.999999998              -0.000040100              -0.000000000               0.999999998              -0.000045458               0.000000000               0.999999998              -0.000051302               0.000000000               0.999999998              -0.000057628               0.000000000               0.999999998              -0.000064497               0.000000000               0.999999998              -0.000071858               0.000000000               0.999999998               0.000004936               0.000025526               0.999999998              -0.000005134               0.000023033               0.999999998              -0.000010086               0.000022520               0.999999998              -0.000013043               0.000023163               0.999999998              -0.000015429               0.000024548               0.999999998              -0.000017745               0.000026433               0.999999998              -0.000020306               0.000028646               0.999999998              -0.000023294               0.000031196               0.999999998              -0.000026780               0.000033991               0.999999998              -0.000030799               0.000036947               0.999999998              -0.000035342               0.000040059               0.999999998              -0.000040388               0.000043286               0.999999998              -0.000045924               0.000046735               0.999999998              -0.000051977               0.000050316               0.999999998              -0.000058505               0.000054090               0.999999998              -0.000065499               0.000058132               0.999999998              -0.000072971               0.000062077               0.999999998               0.000004655               0.000050794               0.999999998              -0.000004343               0.000045785               0.999999998              -0.000008721               0.000044809               0.999999998              -0.000011460               0.000046205               0.999999998              -0.000013825               0.000049043               0.999999998              -0.000016318               0.000052833               0.999999998              -0.000019190               0.000057420               0.999999998              -0.000022546               0.000062505               0.999999998              -0.000026454               0.000068052               0.999999998              -0.000030941               0.000073968               0.999999998              -0.000035923               0.000080198               0.999999998              -0.000041430               0.000086695               0.999999998              -0.000047472               0.000093555               0.999999998              -0.000054001               0.000100704               0.999999998              -0.000061016               0.000108197               0.999999998              -0.000068477               0.000116092               0.999999998              -0.000076358               0.000124085               0.999999998               0.000004250               0.000075611               0.999999998              -0.000003040               0.000068003               0.999999998              -0.000006588               0.000066754               0.999999998              -0.000009084               0.000069042               0.999999998              -0.000011571               0.000073453               0.999999998              -0.000014419               0.000079330               0.999999998              -0.000017832               0.000086221               0.999999998              -0.000021853               0.000093927               0.999999998              -0.000026469               0.000102250               0.999999998              -0.000031695               0.000111103               0.999999998              -0.000037495               0.000120392               0.999999998              -0.000043828               0.000130059               0.999999998              -0.000050663               0.000140332               0.999999998              -0.000057990               0.000151095               0.999999998              -0.000065812               0.000162280               0.999999998              -0.000074062               0.000173943               0.999999998              -0.000082650               0.000185845               0.999999998               0.000003786               0.000099769               0.999999998              -0.000001242               0.000089530               0.999999998              -0.000003876               0.000088209               0.999999998              -0.000006250               0.000091552               0.999999998              -0.000009117               0.000097664               0.999999998              -0.000012630               0.000105656               0.999999998              -0.000016843               0.000114940               0.999999998              -0.000021757               0.000125201               0.999999998              -0.000027334               0.000136297               0.999999998              -0.000033559               0.000148092               0.999999998              -0.000040374               0.000160460               0.999999998              -0.000047709               0.000173400               0.999999998              -0.000055563               0.000187026               0.999999998              -0.000063933               0.000201390               0.999999998              -0.000072772               0.000216183               0.999999998              -0.000081911               0.000231214               0.999999998              -0.000091227               0.000246619               0.999999998               0.000003236               0.000122967               0.999999998               0.000001005               0.000110266               0.999999998              -0.000000804               0.000109117               0.999999998              -0.000003367               0.000113646               0.999999998              -0.000006868               0.000121573               0.999999998              -0.000011295               0.000131696               0.999999998              -0.000016558               0.000143318               0.999999998              -0.000022651               0.000156225               0.999999998              -0.000029431               0.000170087               0.999999998              -0.000036776               0.000184820               0.999999998              -0.000044679               0.000200276               0.999999998              -0.000053145               0.000216544               0.999999998              -0.000062181               0.000233621               0.999999998              -0.000071635               0.000251463               0.999999998              -0.000081350               0.000269479               0.999999998              -0.000091229               0.000287558               0.999999998              -0.000101263               0.000306054               0.999999998               0.000002733               0.000144981               0.999999998               0.000003561               0.000130181               0.999999998               0.000002275               0.000129390               0.999999998              -0.000000755               0.000135224               0.999999998              -0.000005161               0.000145011               0.999999998              -0.000010745               0.000157292               0.999999998              -0.000017306               0.000171330               0.999999998              -0.000024650               0.000186844               0.999999998              -0.000032578               0.000203522               0.999999998              -0.000041032               0.000221148               0.999999998              -0.000050087               0.000239793               0.999999998              -0.000059735               0.000259407               0.999999998              -0.000069811               0.000279791               0.999999998              -0.000080170               0.000300832               0.999999998              -0.000090613               0.000321922               0.999999998              -0.000101211               0.000343111               0.999999998              -0.000112085               0.000364926               0.999999998               0.000002307               0.000165574               0.999999998               0.000006195               0.000149222               0.999999998               0.000005130               0.000148939               0.999999998               0.000001343               0.000156173               0.999999998              -0.000004195               0.000167839               0.999999998              -0.000011082               0.000182276               0.999999998              -0.000018898               0.000198766               0.999999998              -0.000027359               0.000216903               0.999999998              -0.000036409               0.000236388               0.999999998              -0.000045974               0.000256991               0.999999998              -0.000056156               0.000278877               0.999999998              -0.000066747               0.000301865               0.999999998              -0.000077683               0.000325710               0.999999998              -0.000088768               0.000350039               0.999999998              -0.000100005               0.000374441               0.999999998              -0.000111581               0.000399277               0.999999998              -0.000123598               0.000424930               0.999999998               0.000001844               0.000184382               0.999999998               0.000008759               0.000167354               0.999999998               0.000007490               0.000167663               0.999999998               0.000002763               0.000176324               0.999999998              -0.000003997               0.000189849               0.999999998              -0.000012123               0.000206512               0.999999998              -0.000021084               0.000225505               0.999999998              -0.000030613               0.000246319               0.999999998              -0.000040645               0.000268694               0.999999998              -0.000051229               0.000292518               0.999999998              -0.000062372               0.000317810               0.999999998              -0.000073874               0.000344315               0.999999998              -0.000085646               0.000371654               0.999999998              -0.000097558               0.000399456               0.999999998              -0.000109734               0.000427866               0.999999998              -0.000122338               0.000457029               0.999999998              -0.000135268               0.000487015               0.999999998               0.000001165               0.000201995               0.999999998               0.000010320               0.000186222               0.999999998               0.000010223               0.000184727               0.999999998               0.000006307               0.000191182               0.999999998               0.000000375               0.000202526               0.999999998              -0.000006908               0.000217068               0.999999998              -0.000014935               0.000234004               0.999999998              -0.000023512               0.000252773               0.999999998              -0.000032392               0.000273047               0.999999998              -0.000041539               0.000294742               0.999999998              -0.000051211               0.000317755               0.999999998              -0.000061341               0.000342099               0.999999998              -0.000071890               0.000367442               0.999999998              -0.000082460               0.000393679               0.999999998              -0.000092971               0.000420578               0.999999998              -0.000103654               0.000448301               0.999999998              -0.000114525               0.000476825               0.999999998               0.000000691               0.000217886               0.999999998               0.000011008               0.000204270               0.999999998               0.000012094               0.000201952               0.999999998               0.000009205               0.000206661               0.999999998               0.000004221               0.000216033               0.999999998              -0.000002022               0.000228681               0.999999998              -0.000009093               0.000243689               0.999999998              -0.000016693               0.000260567               0.999999998              -0.000024380               0.000278970               0.999999998              -0.000032321               0.000298724               0.999999998              -0.000040602               0.000319726               0.999999998              -0.000049376               0.000341906               0.999999998              -0.000058509               0.000365262               0.999999998              -0.000067693               0.000389628               0.999999998              -0.000076660               0.000414913               0.999999998              -0.000085502               0.000441005               0.999999998              -0.000094427               0.000467893               0.999999998               0.000000326               0.000231747               0.999999998               0.000010862               0.000221014               0.999999998               0.000012870               0.000218626               0.999999998               0.000011032               0.000222201               0.999999998               0.000007136               0.000229989               0.999999998               0.000002017               0.000240921               0.999999998              -0.000003976               0.000254252               0.999999998              -0.000010476               0.000269470               0.999999998              -0.000017088               0.000286221               0.999999998              -0.000023751               0.000304269               0.999999998              -0.000030837               0.000323519               0.999999998              -0.000038262               0.000343863               0.999999998              -0.000045851               0.000365346               0.999999998              -0.000053303               0.000387999               0.999999998              -0.000060698               0.000411707               0.999999998              -0.000067747               0.000436342               0.999999998              -0.000074529               0.000461718               0.999999998               0.000000069               0.000243387               0.999999998               0.000009866               0.000235794               0.999999998               0.000012384               0.000233991               0.999999998               0.000011477               0.000236950               0.999999998               0.000008692               0.000243630               0.999999998               0.000004671               0.000253188               0.999999998              -0.000000127               0.000265094               0.999999998              -0.000005443               0.000278880               0.999999998              -0.000010909               0.000294212               0.999999998              -0.000016406               0.000310897               0.999999998              -0.000022197               0.000328700               0.999999998              -0.000028274               0.000347585               0.999999998              -0.000034328               0.000367593               0.999999998              -0.000040062               0.000388724               0.999999998              -0.000045445               0.000410963               0.999999998              -0.000050716               0.000434217               0.999999998              -0.000055515               0.000458250               0.999999998              -0.000000071               0.000252619               0.999999998               0.000008095               0.000248008               0.999999998               0.000010624               0.000247169               0.999999998               0.000010425               0.000250007               0.999999998               0.000008587               0.000255960               0.999999998               0.000005715               0.000264572               0.999999998               0.000002108               0.000275411               0.999999998              -0.000001939               0.000288075               0.999999998              -0.000006200               0.000302297               0.999999998              -0.000010459               0.000317934               0.999999998              -0.000014773               0.000334821               0.999999998              -0.000019338               0.000352723               0.999999998              -0.000023850               0.000371693               0.999999998              -0.000027967               0.000391700               0.999999998              -0.000031689               0.000412747               0.999999998              -0.000035043               0.000434807               0.999999998              -0.000037679               0.000457760               0.999999998              -0.000000091               0.000259284               0.999999998               0.000005739               0.000257166               0.999999998               0.000007760               0.000257319               0.999999998               0.000007898               0.000260303               0.999999998               0.000006861               0.000265973               0.999999998               0.000005068               0.000273968               0.999999998               0.000002669               0.000284082               0.999999998              -0.000000032               0.000296034               0.999999998              -0.000002954               0.000309551               0.999999998              -0.000005861               0.000324524               0.999999998              -0.000008765               0.000340766               0.999999998              -0.000011725               0.000358043               0.999999998              -0.000014750               0.000376354               0.999999998              -0.000017525               0.000395635               0.999999998              -0.000019877               0.000415946               0.999999998              -0.000021493               0.000437347               0.999999998              -0.000022366               0.000459692               0.999999998              -0.000000055               0.000263305               0.999999998               0.000002981               0.000262795               0.999999998               0.000004093               0.000263737               0.999999998               0.000004245               0.000266962               0.999999998               0.000003793               0.000272510               0.999999998               0.000002930               0.000280249               0.999999998               0.000001776               0.000289989               0.999999998               0.000000462               0.000301542               0.999999998              -0.000000992               0.000314637               0.999999998              -0.000002554               0.000329153               0.999999998              -0.000004042               0.000344999               0.999999998              -0.000005386               0.000361978               0.999999998              -0.000006929               0.000379983               0.999999998              -0.000008567               0.000398973               0.999999998              -0.000009478               0.000418945               0.999999998              -0.000009987               0.000439920               0.999999998              -0.000010182               0.000461912               0.999999998              -0.000000000               0.000264704               0.999999998               0.000000000               0.000264731               0.999999998              -0.000000000               0.000265921               0.999999998               0.000000000               0.000269262               0.999999998               0.000000000               0.000274823               0.999999998               0.000000000               0.000282483               0.999999998               0.000000000               0.000292035               0.999999998               0.000000000               0.000303443               0.999999998              -0.000000000               0.000316443               0.999999998              -0.000000000               0.000330795               0.999999998              -0.000000000               0.000346469               0.999999998               0.000000000               0.000363397               0.999999998               0.000000000               0.000381417               0.999999998              -0.000000000               0.000400391               0.999999998              -0.000000000               0.000420258               0.999999998              -0.000000000               0.000440971               0.999999998               0.000000000               0.000462741               0.999999998               0.000005023              -0.000000000               0.999999998              -0.000005391               0.000000000               0.999999998              -0.000010549              -0.000000000               0.999999998              -0.000013625               0.000000000               0.999999998              -0.000015999               0.000000000               0.999999998              -0.000018265               0.000000000               0.999999998              -0.000020716               0.000000000               0.999999998              -0.000023597               0.000000000               0.999999998              -0.000026997              -0.000000000               0.999999998              -0.000030855               0.000000000               0.999999998              -0.000035236              -0.000000000               0.999999998              -0.000040100              -0.000000000               0.999999998              -0.000045458               0.000000000               0.999999998              -0.000051302               0.000000000               0.999999998              -0.000057628               0.000000000               0.999999998              -0.000064497               0.000000000               0.999999998              -0.000071858               0.000000000               0.999999998               0.000004936              -0.000025526               0.999999998              -0.000005134              -0.000023033               0.999999998              -0.000010086              -0.000022520               0.999999998              -0.000013043              -0.000023163               0.999999998              -0.000015429              -0.000024548               0.999999998              -0.000017745              -0.000026433               0.999999998              -0.000020306              -0.000028646               0.999999998              -0.000023294              -0.000031196               0.999999998              -0.000026780              -0.000033991               0.999999998              -0.000030799              -0.000036947               0.999999998              -0.000035342              -0.000040059               0.999999998              -0.000040388              -0.000043286               0.999999998              -0.000045924              -0.000046735               0.999999998              -0.000051977              -0.000050316               0.999999998              -0.000058505              -0.000054090               0.999999998              -0.000065499              -0.000058132               0.999999998              -0.000072971              -0.000062077               0.999999998               0.000004655              -0.000050794               0.999999998              -0.000004343              -0.000045785               0.999999998              -0.000008721              -0.000044809               0.999999998              -0.000011460              -0.000046205               0.999999998              -0.000013825              -0.000049043               0.999999998              -0.000016318              -0.000052833               0.999999998              -0.000019190              -0.000057420               0.999999998              -0.000022546              -0.000062505               0.999999998              -0.000026454              -0.000068052               0.999999998              -0.000030941              -0.000073968               0.999999998              -0.000035923              -0.000080198               0.999999998              -0.000041430              -0.000086695               0.999999998              -0.000047472              -0.000093555               0.999999998              -0.000054001              -0.000100704               0.999999998              -0.000061016              -0.000108197               0.999999998              -0.000068477              -0.000116092               0.999999998              -0.000076358              -0.000124085               0.999999998               0.000004250              -0.000075611               0.999999998              -0.000003040              -0.000068003               0.999999998              -0.000006588              -0.000066754               0.999999998              -0.000009084              -0.000069042               0.999999998              -0.000011571              -0.000073453               0.999999998              -0.000014419              -0.000079330               0.999999998              -0.000017832              -0.000086221               0.999999998              -0.000021853              -0.000093927               0.999999998              -0.000026469              -0.000102250               0.999999998              -0.000031695              -0.000111103               0.999999998              -0.000037495              -0.000120392               0.999999998              -0.000043828              -0.000130059               0.999999998              -0.000050663              -0.000140332               0.999999998              -0.000057990              -0.000151095               0.999999998              -0.000065812              -0.000162280               0.999999998              -0.000074062              -0.000173943               0.999999998              -0.000082650              -0.000185845               0.999999998               0.000003786              -0.000099769               0.999999998              -0.000001242              -0.000089530               0.999999998              -0.000003876              -0.000088209               0.999999998              -0.000006250              -0.000091552               0.999999998              -0.000009117              -0.000097664               0.999999998              -0.000012630              -0.000105656               0.999999998              -0.000016843              -0.000114940               0.999999998              -0.000021757              -0.000125201               0.999999998              -0.000027334              -0.000136297               0.999999998              -0.000033559              -0.000148092               0.999999998              -0.000040374              -0.000160460               0.999999998              -0.000047709              -0.000173400               0.999999998              -0.000055563              -0.000187026               0.999999998              -0.000063933              -0.000201390               0.999999998              -0.000072772              -0.000216183               0.999999998              -0.000081911              -0.000231214               0.999999998              -0.000091227              -0.000246619               0.999999998               0.000003236              -0.000122967               0.999999998               0.000001005              -0.000110266               0.999999998              -0.000000804              -0.000109117               0.999999998              -0.000003367              -0.000113646               0.999999998              -0.000006868              -0.000121573               0.999999998              -0.000011295              -0.000131696               0.999999998              -0.000016558              -0.000143318               0.999999998              -0.000022651              -0.000156225               0.999999998              -0.000029431              -0.000170087               0.999999998              -0.000036776              -0.000184820               0.999999998              -0.000044679              -0.000200276               0.999999998              -0.000053145              -0.000216544               0.999999998              -0.000062181              -0.000233621               0.999999998              -0.000071635              -0.000251463               0.999999998              -0.000081350              -0.000269479               0.999999998              -0.000091229              -0.000287558               0.999999998              -0.000101263              -0.000306054               0.999999998               0.000002733              -0.000144981               0.999999998               0.000003561              -0.000130181               0.999999998               0.000002275              -0.000129390               0.999999998              -0.000000755              -0.000135224               0.999999998              -0.000005161              -0.000145011               0.999999998              -0.000010745              -0.000157292               0.999999998              -0.000017306              -0.000171330               0.999999998              -0.000024650              -0.000186844               0.999999998              -0.000032578              -0.000203522               0.999999998              -0.000041032              -0.000221148               0.999999998              -0.000050087              -0.000239793               0.999999998              -0.000059735              -0.000259407               0.999999998              -0.000069811              -0.000279791               0.999999998              -0.000080170              -0.000300832               0.999999998              -0.000090613              -0.000321922               0.999999998              -0.000101211              -0.000343111               0.999999998              -0.000112085              -0.000364926               0.999999998               0.000002307              -0.000165574               0.999999998               0.000006195              -0.000149222               0.999999998               0.000005130              -0.000148939               0.999999998               0.000001343              -0.000156173               0.999999998              -0.000004195              -0.000167839               0.999999998              -0.000011082              -0.000182276               0.999999998              -0.000018898              -0.000198766               0.999999998              -0.000027359              -0.000216903               0.999999998              -0.000036409              -0.000236388               0.999999998              -0.000045974              -0.000256991               0.999999998              -0.000056156              -0.000278877               0.999999998              -0.000066747              -0.000301865               0.999999998              -0.000077683              -0.000325710               0.999999998              -0.000088768              -0.000350039               0.999999998              -0.000100005              -0.000374441               0.999999998              -0.000111581              -0.000399277               0.999999998              -0.000123598              -0.000424930               0.999999998               0.000001844              -0.000184382               0.999999998               0.000008759              -0.000167354               0.999999998               0.000007490              -0.000167663               0.999999998               0.000002763              -0.000176324               0.999999998              -0.000003997              -0.000189849               0.999999998              -0.000012123              -0.000206512               0.999999998              -0.000021084              -0.000225505               0.999999998              -0.000030613              -0.000246319               0.999999998              -0.000040645              -0.000268694               0.999999998              -0.000051229              -0.000292518               0.999999998              -0.000062372              -0.000317810               0.999999998              -0.000073874              -0.000344315               0.999999998              -0.000085646              -0.000371654               0.999999998              -0.000097558              -0.000399456               0.999999998              -0.000109734              -0.000427866               0.999999998              -0.000122338              -0.000457029               0.999999998              -0.000135268              -0.000487015               0.999999998               0.000001165              -0.000201995               0.999999998               0.000010320              -0.000186222               0.999999998               0.000010223              -0.000184727               0.999999998               0.000006307              -0.000191182               0.999999998               0.000000375              -0.000202526               0.999999998              -0.000006908              -0.000217068               0.999999998              -0.000014935              -0.000234004               0.999999998              -0.000023512              -0.000252773               0.999999998              -0.000032392              -0.000273047               0.999999998              -0.000041539              -0.000294742               0.999999998              -0.000051211              -0.000317755               0.999999998              -0.000061341              -0.000342099               0.999999998              -0.000071890              -0.000367442               0.999999998              -0.000082460              -0.000393679               0.999999998              -0.000092971              -0.000420578               0.999999998              -0.000103654              -0.000448301               0.999999998              -0.000114525              -0.000476825               0.999999998               0.000000691              -0.000217886               0.999999998               0.000011008              -0.000204270               0.999999998               0.000012094              -0.000201952               0.999999998               0.000009205              -0.000206661               0.999999998               0.000004221              -0.000216033               0.999999998              -0.000002022              -0.000228681               0.999999998              -0.000009093              -0.000243689               0.999999998              -0.000016693              -0.000260567               0.999999998              -0.000024380              -0.000278970               0.999999998              -0.000032321              -0.000298724               0.999999998              -0.000040602              -0.000319726               0.999999998              -0.000049376              -0.000341906               0.999999998              -0.000058509              -0.000365262               0.999999998              -0.000067693              -0.000389628               0.999999998              -0.000076660              -0.000414913               0.999999998              -0.000085502              -0.000441005               0.999999998              -0.000094427              -0.000467893               0.999999998               0.000000326              -0.000231747               0.999999998               0.000010862              -0.000221014               0.999999998               0.000012870              -0.000218626               0.999999998               0.000011032              -0.000222201               0.999999998               0.000007136              -0.000229989               0.999999998               0.000002017              -0.000240921               0.999999998              -0.000003976              -0.000254252               0.999999998              -0.000010476              -0.000269470               0.999999998              -0.000017088              -0.000286221               0.999999998              -0.000023751              -0.000304269               0.999999998              -0.000030837              -0.000323519               0.999999998              -0.000038262              -0.000343863               0.999999998              -0.000045851              -0.000365346               0.999999998              -0.000053303              -0.000387999               0.999999998              -0.000060698              -0.000411707               0.999999998              -0.000067747              -0.000436342               0.999999998              -0.000074529              -0.000461718               0.999999998               0.000000069              -0.000243387               0.999999998               0.000009866              -0.000235794               0.999999998               0.000012384              -0.000233991               0.999999998               0.000011477              -0.000236950               0.999999998               0.000008692              -0.000243630               0.999999998               0.000004671              -0.000253188               0.999999998              -0.000000127              -0.000265094               0.999999998              -0.000005443              -0.000278880               0.999999998              -0.000010909              -0.000294212               0.999999998              -0.000016406              -0.000310897               0.999999998              -0.000022197              -0.000328700               0.999999998              -0.000028274              -0.000347585               0.999999998              -0.000034328              -0.000367593               0.999999998              -0.000040062              -0.000388724               0.999999998              -0.000045445              -0.000410963               0.999999998              -0.000050716              -0.000434217               0.999999998              -0.000055515              -0.000458250               0.999999998              -0.000000071              -0.000252619               0.999999998               0.000008095              -0.000248008               0.999999998               0.000010624              -0.000247169               0.999999998               0.000010425              -0.000250007               0.999999998               0.000008587              -0.000255960               0.999999998               0.000005715              -0.000264572               0.999999998               0.000002108              -0.000275411               0.999999998              -0.000001939              -0.000288075               0.999999998              -0.000006200              -0.000302297               0.999999998              -0.000010459              -0.000317934               0.999999998              -0.000014773              -0.000334821               0.999999998              -0.000019338              -0.000352723               0.999999998              -0.000023850              -0.000371693               0.999999998              -0.000027967              -0.000391700               0.999999998              -0.000031689              -0.000412747               0.999999998              -0.000035043              -0.000434807               0.999999998              -0.000037679              -0.000457760               0.999999998              -0.000000091              -0.000259284               0.999999998               0.000005739              -0.000257166               0.999999998               0.000007760              -0.000257319               0.999999998               0.000007898              -0.000260303               0.999999998               0.000006861              -0.000265973               0.999999998               0.000005068              -0.000273968               0.999999998               0.000002669              -0.000284082               0.999999998              -0.000000032              -0.000296034               0.999999998              -0.000002954              -0.000309551               0.999999998              -0.000005861              -0.000324524               0.999999998              -0.000008765              -0.000340766               0.999999998              -0.000011725              -0.000358043               0.999999998              -0.000014750              -0.000376354               0.999999998              -0.000017525              -0.000395635               0.999999998              -0.000019877              -0.000415946               0.999999998              -0.000021493              -0.000437347               0.999999998              -0.000022366              -0.000459692               0.999999998              -0.000000055              -0.000263305               0.999999998               0.000002981              -0.000262795               0.999999998               0.000004093              -0.000263737               0.999999998               0.000004245              -0.000266962               0.999999998               0.000003793              -0.000272510               0.999999998               0.000002930              -0.000280249               0.999999998               0.000001776              -0.000289989               0.999999998               0.000000462              -0.000301542               0.999999998              -0.000000992              -0.000314637               0.999999998              -0.000002554              -0.000329153               0.999999998              -0.000004042              -0.000344999               0.999999998              -0.000005386              -0.000361978               0.999999998              -0.000006929              -0.000379983               0.999999998              -0.000008567              -0.000398973               0.999999998              -0.000009478              -0.000418945               0.999999998              -0.000009987              -0.000439920               0.999999998              -0.000010182              -0.000461912               0.999999998              -0.000000000              -0.000264704               0.999999998              -0.000000000              -0.000264731               0.999999998              -0.000000000              -0.000265921               0.999999998               0.000000000              -0.000269262               0.999999998               0.000000000              -0.000274823               0.999999998              -0.000000000              -0.000282483               0.999999998              -0.000000000              -0.000292035               0.999999998               0.000000000              -0.000303443               0.999999998              -0.000000000              -0.000316443               0.999999998               0.000000000              -0.000330795               0.999999998              -0.000000000              -0.000346469               0.999999998              -0.000000000              -0.000363397               0.999999998              -0.000000000              -0.000381417               0.999999998               0.000000000              -0.000400391               0.999999998               0.000000000              -0.000420258               0.999999998               0.000000000              -0.000440971               0.999999998               0.000000000              -0.000462741               0.999999998              -0.000005023              -0.000000000               0.999999998               0.000005391               0.000000000               0.999999998               0.000010549               0.000000000               0.999999998               0.000013625              -0.000000000               0.999999998               0.000015999               0.000000000               0.999999998               0.000018265               0.000000000               0.999999998               0.000020716               0.000000000               0.999999998               0.000023597               0.000000000               0.999999998               0.000026997               0.000000000               0.999999998               0.000030855               0.000000000               0.999999998               0.000035236               0.000000000               0.999999998               0.000040100               0.000000000               0.999999998               0.000045458              -0.000000000               0.999999998               0.000051302              -0.000000000               0.999999998               0.000057628               0.000000000               0.999999998               0.000064497              -0.000000000               0.999999998               0.000071858               0.000000000               0.999999998              -0.000004936              -0.000025526               0.999999998               0.000005134              -0.000023033               0.999999998               0.000010086              -0.000022520               0.999999998               0.000013043              -0.000023163               0.999999998               0.000015429              -0.000024548               0.999999998               0.000017745              -0.000026433               0.999999998               0.000020306              -0.000028646               0.999999998               0.000023294              -0.000031196               0.999999998               0.000026780              -0.000033991               0.999999998               0.000030799              -0.000036947               0.999999998               0.000035342              -0.000040059               0.999999998               0.000040388              -0.000043286               0.999999998               0.000045924              -0.000046735               0.999999998               0.000051977              -0.000050316               0.999999998               0.000058505              -0.000054090               0.999999998               0.000065499              -0.000058132               0.999999998               0.000072971              -0.000062077               0.999999998              -0.000004655              -0.000050794               0.999999998               0.000004343              -0.000045785               0.999999998               0.000008721              -0.000044809               0.999999998               0.000011460              -0.000046205               0.999999998               0.000013825              -0.000049043               0.999999998               0.000016318              -0.000052833               0.999999998               0.000019190              -0.000057420               0.999999998               0.000022546              -0.000062505               0.999999998               0.000026454              -0.000068052               0.999999998               0.000030941              -0.000073968               0.999999998               0.000035923              -0.000080198               0.999999998               0.000041430              -0.000086695               0.999999998               0.000047472              -0.000093555               0.999999998               0.000054001              -0.000100704               0.999999998               0.000061016              -0.000108197               0.999999998               0.000068477              -0.000116092               0.999999998               0.000076358              -0.000124085               0.999999998              -0.000004250              -0.000075611               0.999999998               0.000003040              -0.000068003               0.999999998               0.000006588              -0.000066754               0.999999998               0.000009084              -0.000069042               0.999999998               0.000011571              -0.000073453               0.999999998               0.000014419              -0.000079330               0.999999998               0.000017832              -0.000086221               0.999999998               0.000021853              -0.000093927               0.999999998               0.000026469              -0.000102250               0.999999998               0.000031695              -0.000111103               0.999999998               0.000037495              -0.000120392               0.999999998               0.000043828              -0.000130059               0.999999998               0.000050663              -0.000140332               0.999999998               0.000057990              -0.000151095               0.999999998               0.000065812              -0.000162280               0.999999998               0.000074062              -0.000173943               0.999999998               0.000082650              -0.000185845               0.999999998              -0.000003786              -0.000099769               0.999999998               0.000001242              -0.000089530               0.999999998               0.000003876              -0.000088209               0.999999998               0.000006250              -0.000091552               0.999999998               0.000009117              -0.000097664               0.999999998               0.000012630              -0.000105656               0.999999998               0.000016843              -0.000114940               0.999999998               0.000021757              -0.000125201               0.999999998               0.000027334              -0.000136297               0.999999998               0.000033559              -0.000148092               0.999999998               0.000040374              -0.000160460               0.999999998               0.000047709              -0.000173400               0.999999998               0.000055563              -0.000187026               0.999999998               0.000063933              -0.000201390               0.999999998               0.000072772              -0.000216183               0.999999998               0.000081911              -0.000231214               0.999999998               0.000091227              -0.000246619               0.999999998              -0.000003236              -0.000122967               0.999999998              -0.000001005              -0.000110266               0.999999998               0.000000804              -0.000109117               0.999999998               0.000003367              -0.000113646               0.999999998               0.000006868              -0.000121573               0.999999998               0.000011295              -0.000131696               0.999999998               0.000016558              -0.000143318               0.999999998               0.000022651              -0.000156225               0.999999998               0.000029431              -0.000170087               0.999999998               0.000036776              -0.000184820               0.999999998               0.000044679              -0.000200276               0.999999998               0.000053145              -0.000216544               0.999999998               0.000062181              -0.000233621               0.999999998               0.000071635              -0.000251463               0.999999998               0.000081350              -0.000269479               0.999999998               0.000091229              -0.000287558               0.999999998               0.000101263              -0.000306054               0.999999998              -0.000002733              -0.000144981               0.999999998              -0.000003561              -0.000130181               0.999999998              -0.000002275              -0.000129390               0.999999998               0.000000755              -0.000135224               0.999999998               0.000005161              -0.000145011               0.999999998               0.000010745              -0.000157292               0.999999998               0.000017306              -0.000171330               0.999999998               0.000024650              -0.000186844               0.999999998               0.000032578              -0.000203522               0.999999998               0.000041032              -0.000221148               0.999999998               0.000050087              -0.000239793               0.999999998               0.000059735              -0.000259407               0.999999998               0.000069811              -0.000279791               0.999999998               0.000080170              -0.000300832               0.999999998               0.000090613              -0.000321922               0.999999998               0.000101211              -0.000343111               0.999999998               0.000112085              -0.000364926               0.999999998              -0.000002307              -0.000165574               0.999999998              -0.000006195              -0.000149222               0.999999998              -0.000005130              -0.000148939               0.999999998              -0.000001343              -0.000156173               0.999999998               0.000004195              -0.000167839               0.999999998               0.000011082              -0.000182276               0.999999998               0.000018898              -0.000198766               0.999999998               0.000027359              -0.000216903               0.999999998               0.000036409              -0.000236388               0.999999998               0.000045974              -0.000256991               0.999999998               0.000056156              -0.000278877               0.999999998               0.000066747              -0.000301865               0.999999998               0.000077683              -0.000325710               0.999999998               0.000088768              -0.000350039               0.999999998               0.000100005              -0.000374441               0.999999998               0.000111581              -0.000399277               0.999999998               0.000123598              -0.000424930               0.999999998              -0.000001844              -0.000184382               0.999999998              -0.000008759              -0.000167354               0.999999998              -0.000007490              -0.000167663               0.999999998              -0.000002763              -0.000176324               0.999999998               0.000003997              -0.000189849               0.999999998               0.000012123              -0.000206512               0.999999998               0.000021084              -0.000225505               0.999999998               0.000030613              -0.000246319               0.999999998               0.000040645              -0.000268694               0.999999998               0.000051229              -0.000292518               0.999999998               0.000062372              -0.000317810               0.999999998               0.000073874              -0.000344315               0.999999998               0.000085646              -0.000371654               0.999999998               0.000097558              -0.000399456               0.999999998               0.000109734              -0.000427866               0.999999998               0.000122338              -0.000457029               0.999999998               0.000135268              -0.000487015               0.999999998              -0.000001165              -0.000201995               0.999999998              -0.000010320              -0.000186222               0.999999998              -0.000010223              -0.000184727               0.999999998              -0.000006307              -0.000191182               0.999999998              -0.000000375              -0.000202526               0.999999998               0.000006908              -0.000217068               0.999999998               0.000014935              -0.000234004               0.999999998               0.000023512              -0.000252773               0.999999998               0.000032392              -0.000273047               0.999999998               0.000041539              -0.000294742               0.999999998               0.000051211              -0.000317755               0.999999998               0.000061341              -0.000342099               0.999999998               0.000071890              -0.000367442               0.999999998               0.000082460              -0.000393679               0.999999998               0.000092971              -0.000420578               0.999999998               0.000103654              -0.000448301               0.999999998               0.000114525              -0.000476825               0.999999998              -0.000000691              -0.000217886               0.999999998              -0.000011008              -0.000204270               0.999999998              -0.000012094              -0.000201952               0.999999998              -0.000009205              -0.000206661               0.999999998              -0.000004221              -0.000216033               0.999999998               0.000002022              -0.000228681               0.999999998               0.000009093              -0.000243689               0.999999998               0.000016693              -0.000260567               0.999999998               0.000024380              -0.000278970               0.999999998               0.000032321              -0.000298724               0.999999998               0.000040602              -0.000319726               0.999999998               0.000049376              -0.000341906               0.999999998               0.000058509              -0.000365262               0.999999998               0.000067693              -0.000389628               0.999999998               0.000076660              -0.000414913               0.999999998               0.000085502              -0.000441005               0.999999998               0.000094427              -0.000467893               0.999999998              -0.000000326              -0.000231747               0.999999998              -0.000010862              -0.000221014               0.999999998              -0.000012870              -0.000218626               0.999999998              -0.000011032              -0.000222201               0.999999998              -0.000007136              -0.000229989               0.999999998              -0.000002017              -0.000240921               0.999999998               0.000003976              -0.000254252               0.999999998               0.000010476              -0.000269470               0.999999998               0.000017088              -0.000286221               0.999999998               0.000023751              -0.000304269               0.999999998               0.000030837              -0.000323519               0.999999998               0.000038262              -0.000343863               0.999999998               0.000045851              -0.000365346               0.999999998               0.000053303              -0.000387999               0.999999998               0.000060698              -0.000411707               0.999999998               0.000067747              -0.000436342               0.999999998               0.000074529              -0.000461718               0.999999998              -0.000000069              -0.000243387               0.999999998              -0.000009866              -0.000235794               0.999999998              -0.000012384              -0.000233991               0.999999998              -0.000011477              -0.000236950               0.999999998              -0.000008692              -0.000243630               0.999999998              -0.000004671              -0.000253188               0.999999998               0.000000127              -0.000265094               0.999999998               0.000005443              -0.000278880               0.999999998               0.000010909              -0.000294212               0.999999998               0.000016406              -0.000310897               0.999999998               0.000022197              -0.000328700               0.999999998               0.000028274              -0.000347585               0.999999998               0.000034328              -0.000367593               0.999999998               0.000040062              -0.000388724               0.999999998               0.000045445              -0.000410963               0.999999998               0.000050716              -0.000434217               0.999999998               0.000055515              -0.000458250               0.999999998               0.000000071              -0.000252619               0.999999998              -0.000008095              -0.000248008               0.999999998              -0.000010624              -0.000247169               0.999999998              -0.000010425              -0.000250007               0.999999998              -0.000008587              -0.000255960               0.999999998              -0.000005715              -0.000264572               0.999999998              -0.000002108              -0.000275411               0.999999998               0.000001939              -0.000288075               0.999999998               0.000006200              -0.000302297               0.999999998               0.000010459              -0.000317934               0.999999998               0.000014773              -0.000334821               0.999999998               0.000019338              -0.000352723               0.999999998               0.000023850              -0.000371693               0.999999998               0.000027967              -0.000391700               0.999999998               0.000031689              -0.000412747               0.999999998               0.000035043              -0.000434807               0.999999998               0.000037679              -0.000457760               0.999999998               0.000000091              -0.000259284               0.999999998              -0.000005739              -0.000257166               0.999999998              -0.000007760              -0.000257319               0.999999998              -0.000007898              -0.000260303               0.999999998              -0.000006861              -0.000265973               0.999999998              -0.000005068              -0.000273968               0.999999998              -0.000002669              -0.000284082               0.999999998               0.000000032              -0.000296034               0.999999998               0.000002954              -0.000309551               0.999999998               0.000005861              -0.000324524               0.999999998               0.000008765              -0.000340766               0.999999998               0.000011725              -0.000358043               0.999999998               0.000014750              -0.000376354               0.999999998               0.000017525              -0.000395635               0.999999998               0.000019877              -0.000415946               0.999999998               0.000021493              -0.000437347               0.999999998               0.000022366              -0.000459692               0.999999998               0.000000055              -0.000263305               0.999999998              -0.000002981              -0.000262795               0.999999998              -0.000004093              -0.000263737               0.999999998              -0.000004245              -0.000266962               0.999999998              -0.000003793              -0.000272510               0.999999998              -0.000002930              -0.000280249               0.999999998              -0.000001776              -0.000289989               0.999999998              -0.000000462              -0.000301542               0.999999998               0.000000992              -0.000314637               0.999999998               0.000002554              -0.000329153               0.999999998               0.000004042              -0.000344999               0.999999998               0.000005386              -0.000361978               0.999999998               0.000006929              -0.000379983               0.999999998               0.000008567              -0.000398973               0.999999998               0.000009478              -0.000418945               0.999999998               0.000009987              -0.000439920               0.999999998               0.000010182              -0.000461912               0.999999998              -0.000000000              -0.000264704               0.999999998              -0.000000000              -0.000264731               0.999999998              -0.000000000              -0.000265921               0.999999998               0.000000000              -0.000269262               0.999999998               0.000000000              -0.000274823               0.999999998              -0.000000000              -0.000282483               0.999999998              -0.000000000              -0.000292035               0.999999998               0.000000000              -0.000303443               0.999999998              -0.000000000              -0.000316443               0.999999998               0.000000000              -0.000330795               0.999999998              -0.000000000              -0.000346469               0.999999998              -0.000000000              -0.000363397               0.999999998              -0.000000000              -0.000381417               0.999999998               0.000000000              -0.000400391               0.999999998               0.000000000              -0.000420258               0.999999998               0.000000000              -0.000440971               0.999999998               0.000000000              -0.000462741               0.999999998              -0.000005023              -0.000000000               0.999999998               0.000005391               0.000000000               0.999999998               0.000010549               0.000000000               0.999999998               0.000013625              -0.000000000               0.999999998               0.000015999               0.000000000               0.999999998               0.000018265               0.000000000               0.999999998               0.000020716               0.000000000               0.999999998               0.000023597               0.000000000               0.999999998               0.000026997               0.000000000               0.999999998               0.000030855               0.000000000               0.999999998               0.000035236               0.000000000               0.999999998               0.000040100               0.000000000               0.999999998               0.000045458              -0.000000000               0.999999998               0.000051302              -0.000000000               0.999999998               0.000057628               0.000000000               0.999999998               0.000064497              -0.000000000               0.999999998               0.000071858               0.000000000               0.999999998              -0.000004936               0.000025526               0.999999998               0.000005134               0.000023033               0.999999998               0.000010086               0.000022520               0.999999998               0.000013043               0.000023163               0.999999998               0.000015429               0.000024548               0.999999998               0.000017745               0.000026433               0.999999998               0.000020306               0.000028646               0.999999998               0.000023294               0.000031196               0.999999998               0.000026780               0.000033991               0.999999998               0.000030799               0.000036947               0.999999998               0.000035342               0.000040059               0.999999998               0.000040388               0.000043286               0.999999998               0.000045924               0.000046735               0.999999998               0.000051977               0.000050316               0.999999998               0.000058505               0.000054090               0.999999998               0.000065499               0.000058132               0.999999998               0.000072971               0.000062077               0.999999998              -0.000004655               0.000050794               0.999999998               0.000004343               0.000045785               0.999999998               0.000008721               0.000044809               0.999999998               0.000011460               0.000046205               0.999999998               0.000013825               0.000049043               0.999999998               0.000016318               0.000052833               0.999999998               0.000019190               0.000057420               0.999999998               0.000022546               0.000062505               0.999999998               0.000026454               0.000068052               0.999999998               0.000030941               0.000073968               0.999999998               0.000035923               0.000080198               0.999999998               0.000041430               0.000086695               0.999999998               0.000047472               0.000093555               0.999999998               0.000054001               0.000100704               0.999999998               0.000061016               0.000108197               0.999999998               0.000068477               0.000116092               0.999999998               0.000076358               0.000124085               0.999999998              -0.000004250               0.000075611               0.999999998               0.000003040               0.000068003               0.999999998               0.000006588               0.000066754               0.999999998               0.000009084               0.000069042               0.999999998               0.000011571               0.000073453               0.999999998               0.000014419               0.000079330               0.999999998               0.000017832               0.000086221               0.999999998               0.000021853               0.000093927               0.999999998               0.000026469               0.000102250               0.999999998               0.000031695               0.000111103               0.999999998               0.000037495               0.000120392               0.999999998               0.000043828               0.000130059               0.999999998               0.000050663               0.000140332               0.999999998               0.000057990               0.000151095               0.999999998               0.000065812               0.000162280               0.999999998               0.000074062               0.000173943               0.999999998               0.000082650               0.000185845               0.999999998              -0.000003786               0.000099769               0.999999998               0.000001242               0.000089530               0.999999998               0.000003876               0.000088209               0.999999998               0.000006250               0.000091552               0.999999998               0.000009117               0.000097664               0.999999998               0.000012630               0.000105656               0.999999998               0.000016843               0.000114940               0.999999998               0.000021757               0.000125201               0.999999998               0.000027334               0.000136297               0.999999998               0.000033559               0.000148092               0.999999998               0.000040374               0.000160460               0.999999998               0.000047709               0.000173400               0.999999998               0.000055563               0.000187026               0.999999998               0.000063933               0.000201390               0.999999998               0.000072772               0.000216183               0.999999998               0.000081911               0.000231214               0.999999998               0.000091227               0.000246619               0.999999998              -0.000003236               0.000122967               0.999999998              -0.000001005               0.000110266               0.999999998               0.000000804               0.000109117               0.999999998               0.000003367               0.000113646               0.999999998               0.000006868               0.000121573               0.999999998               0.000011295               0.000131696               0.999999998               0.000016558               0.000143318               0.999999998               0.000022651               0.000156225               0.999999998               0.000029431               0.000170087               0.999999998               0.000036776               0.000184820               0.999999998               0.000044679               0.000200276               0.999999998               0.000053145               0.000216544               0.999999998               0.000062181               0.000233621               0.999999998               0.000071635               0.000251463               0.999999998               0.000081350               0.000269479               0.999999998               0.000091229               0.000287558               0.999999998               0.000101263               0.000306054               0.999999998              -0.000002733               0.000144981               0.999999998              -0.000003561               0.000130181               0.999999998              -0.000002275               0.000129390               0.999999998               0.000000755               0.000135224               0.999999998               0.000005161               0.000145011               0.999999998               0.000010745               0.000157292               0.999999998               0.000017306               0.000171330               0.999999998               0.000024650               0.000186844               0.999999998               0.000032578               0.000203522               0.999999998               0.000041032               0.000221148               0.999999998               0.000050087               0.000239793               0.999999998               0.000059735               0.000259407               0.999999998               0.000069811               0.000279791               0.999999998               0.000080170               0.000300832               0.999999998               0.000090613               0.000321922               0.999999998               0.000101211               0.000343111               0.999999998               0.000112085               0.000364926               0.999999998              -0.000002307               0.000165574               0.999999998              -0.000006195               0.000149222               0.999999998              -0.000005130               0.000148939               0.999999998              -0.000001343               0.000156173               0.999999998               0.000004195               0.000167839               0.999999998               0.000011082               0.000182276               0.999999998               0.000018898               0.000198766               0.999999998               0.000027359               0.000216903               0.999999998               0.000036409               0.000236388               0.999999998               0.000045974               0.000256991               0.999999998               0.000056156               0.000278877               0.999999998               0.000066747               0.000301865               0.999999998               0.000077683               0.000325710               0.999999998               0.000088768               0.000350039               0.999999998               0.000100005               0.000374441               0.999999998               0.000111581               0.000399277               0.999999998               0.000123598               0.000424930               0.999999998              -0.000001844               0.000184382               0.999999998              -0.000008759               0.000167354               0.999999998              -0.000007490               0.000167663               0.999999998              -0.000002763               0.000176324               0.999999998               0.000003997               0.000189849               0.999999998               0.000012123               0.000206512               0.999999998               0.000021084               0.000225505               0.999999998               0.000030613               0.000246319               0.999999998               0.000040645               0.000268694               0.999999998               0.000051229               0.000292518               0.999999998               0.000062372               0.000317810               0.999999998               0.000073874               0.000344315               0.999999998               0.000085646               0.000371654               0.999999998               0.000097558               0.000399456               0.999999998               0.000109734               0.000427866               0.999999998               0.000122338               0.000457029               0.999999998               0.000135268               0.000487015               0.999999998              -0.000001165               0.000201995               0.999999998              -0.000010320               0.000186222               0.999999998              -0.000010223               0.000184727               0.999999998              -0.000006307               0.000191182               0.999999998              -0.000000375               0.000202526               0.999999998               0.000006908               0.000217068               0.999999998               0.000014935               0.000234004               0.999999998               0.000023512               0.000252773               0.999999998               0.000032392               0.000273047               0.999999998               0.000041539               0.000294742               0.999999998               0.000051211               0.000317755               0.999999998               0.000061341               0.000342099               0.999999998               0.000071890               0.000367442               0.999999998               0.000082460               0.000393679               0.999999998               0.000092971               0.000420578               0.999999998               0.000103654               0.000448301               0.999999998               0.000114525               0.000476825               0.999999998              -0.000000691               0.000217886               0.999999998              -0.000011008               0.000204270               0.999999998              -0.000012094               0.000201952               0.999999998              -0.000009205               0.000206661               0.999999998              -0.000004221               0.000216033               0.999999998               0.000002022               0.000228681               0.999999998               0.000009093               0.000243689               0.999999998               0.000016693               0.000260567               0.999999998               0.000024380               0.000278970               0.999999998               0.000032321               0.000298724               0.999999998               0.000040602               0.000319726               0.999999998               0.000049376               0.000341906               0.999999998               0.000058509               0.000365262               0.999999998               0.000067693               0.000389628               0.999999998               0.000076660               0.000414913               0.999999998               0.000085502               0.000441005               0.999999998               0.000094427               0.000467893               0.999999998              -0.000000326               0.000231747               0.999999998              -0.000010862               0.000221014               0.999999998              -0.000012870               0.000218626               0.999999998              -0.000011032               0.000222201               0.999999998              -0.000007136               0.000229989               0.999999998              -0.000002017               0.000240921               0.999999998               0.000003976               0.000254252               0.999999998               0.000010476               0.000269470               0.999999998               0.000017088               0.000286221               0.999999998               0.000023751               0.000304269               0.999999998               0.000030837               0.000323519               0.999999998               0.000038262               0.000343863               0.999999998               0.000045851               0.000365346               0.999999998               0.000053303               0.000387999               0.999999998               0.000060698               0.000411707               0.999999998               0.000067747               0.000436342               0.999999998               0.000074529               0.000461718               0.999999998              -0.000000069               0.000243387               0.999999998              -0.000009866               0.000235794               0.999999998              -0.000012384               0.000233991               0.999999998              -0.000011477               0.000236950               0.999999998              -0.000008692               0.000243630               0.999999998              -0.000004671               0.000253188               0.999999998               0.000000127               0.000265094               0.999999998               0.000005443               0.000278880               0.999999998               0.000010909               0.000294212               0.999999998               0.000016406               0.000310897               0.999999998               0.000022197               0.000328700               0.999999998               0.000028274               0.000347585               0.999999998               0.000034328               0.000367593               0.999999998               0.000040062               0.000388724               0.999999998               0.000045445               0.000410963               0.999999998               0.000050716               0.000434217               0.999999998               0.000055515               0.000458250               0.999999998               0.000000071               0.000252619               0.999999998              -0.000008095               0.000248008               0.999999998              -0.000010624               0.000247169               0.999999998              -0.000010425               0.000250007               0.999999998              -0.000008587               0.000255960               0.999999998              -0.000005715               0.000264572               0.999999998              -0.000002108               0.000275411               0.999999998               0.000001939               0.000288075               0.999999998               0.000006200               0.000302297               0.999999998               0.000010459               0.000317934               0.999999998               0.000014773               0.000334821               0.999999998               0.000019338               0.000352723               0.999999998               0.000023850               0.000371693               0.999999998               0.000027967               0.000391700               0.999999998               0.000031689               0.000412747               0.999999998               0.000035043               0.000434807               0.999999998               0.000037679               0.000457760               0.999999998               0.000000091               0.000259284               0.999999998              -0.000005739               0.000257166               0.999999998              -0.000007760               0.000257319               0.999999998              -0.000007898               0.000260303               0.999999998              -0.000006861               0.000265973               0.999999998              -0.000005068               0.000273968               0.999999998              -0.000002669               0.000284082               0.999999998               0.000000032               0.000296034               0.999999998               0.000002954               0.000309551               0.999999998               0.000005861               0.000324524               0.999999998               0.000008765               0.000340766               0.999999998               0.000011725               0.000358043               0.999999998               0.000014750               0.000376354               0.999999998               0.000017525               0.000395635               0.999999998               0.000019877               0.000415946               0.999999998               0.000021493               0.000437347               0.999999998               0.000022366               0.000459692               0.999999998               0.000000055               0.000263305               0.999999998              -0.000002981               0.000262795               0.999999998              -0.000004093               0.000263737               0.999999998              -0.000004245               0.000266962               0.999999998              -0.000003793               0.000272510               0.999999998              -0.000002930               0.000280249               0.999999998              -0.000001776               0.000289989               0.999999998              -0.000000462               0.000301542               0.999999998               0.000000992               0.000314637               0.999999998               0.000002554               0.000329153               0.999999998               0.000004042               0.000344999               0.999999998               0.000005386               0.000361978               0.999999998               0.000006929               0.000379983               0.999999998               0.000008567               0.000398973               0.999999998               0.000009478               0.000418945               0.999999998               0.000009987               0.000439920               0.999999998               0.000010182               0.000461912               0.999999998              -0.000000000               0.000264704               0.999999998               0.000000000               0.000264731               0.999999998              -0.000000000               0.000265921               0.999999998               0.000000000               0.000269262               0.999999998               0.000000000               0.000274823               0.999999998               0.000000000               0.000282483               0.999999998               0.000000000               0.000292035               0.999999998               0.000000000               0.000303443               0.999999998              -0.000000000               0.000316443               0.999999998              -0.000000000               0.000330795               0.999999998              -0.000000000               0.000346469               0.999999998               0.000000000               0.000363397               0.999999998               0.000000000               0.000381417               0.999999998              -0.000000000               0.000400391               0.999999998              -0.000000000               0.000420258               0.999999998              -0.000000000               0.000440971               0.999999998               0.000000000               0.000462741               0.999999998 </DataArray>
<DataArray type="Float64"                                    Name="stress"                                                      NumberOfComponents="10" format="ascii">
              0.000406610               0.004803475               0.000000000              -0.000447955               0.001750461               0.001302506               0.000000000               0.000000000               0.000000000               0.000000000               0.000461085               0.004008124               0.000000000              -0.000328108               0.001445397               0.001117289               0.000000000               0.000000000               0.000000000               0.000000000               0.000653884               0.003365284               0.000000000              -0.000175453               0.001180235               0.001004781               0.000000000               0.000000000               0.000000000               0.000000000               0.000688123               0.003010728               0.000000000              -0.000118295               0.001042998               0.000924703               0.000000000               0.000000000               0.000000000               0.000000000               0.000662224               0.002805504              -0.000000000              -0.000102354               0.000969277               0.000866923               0.000000000               0.000000000               0.000000000               0.000000000               0.000614922               0.002683410               0.000000000              -0.000104830               0.000929404               0.000824574               0.000000000               0.000000000               0.000000000               0.000000000               0.000552935               0.002607362              -0.000000000              -0.000118569               0.000908635               0.000790066               0.000000000               0.000000000               0.000000000               0.000000000               0.000484148               0.002563502              -0.000000000              -0.000138882               0.000900786               0.000761904               0.000000000               0.000000000               0.000000000               0.000000000               0.000419581               0.002541761              -0.000000000              -0.000160377               0.000900704               0.000740327               0.000000000               0.000000000               0.000000000               0.000000000               0.000358494               0.002532579              -0.000000000              -0.000182137               0.000904897               0.000722760               0.000000000               0.000000000               0.000000000               0.000000000               0.000299913               0.002531757              -0.000000000              -0.000204002               0.000911911               0.000707909               0.000000000               0.000000000               0.000000000               0.000000000               0.000245299               0.002537701              -0.000000000              -0.000225225               0.000920967               0.000695742               0.000000000               0.000000000               0.000000000               0.000000000               0.000192836               0.002551431              -0.000000000              -0.000246615               0.000932674               0.000686059               0.000000000               0.000000000               0.000000000               0.000000000               0.000142785               0.002570180              -0.000000000              -0.000267728               0.000945961               0.000678233               0.000000000               0.000000000               0.000000000               0.000000000               0.000093298               0.002594495              -0.000000000              -0.000289325               0.000961265               0.000671940               0.000000000               0.000000000               0.000000000               0.000000000               0.000044838               0.002623631              -0.000000000              -0.000311139               0.000978248               0.000667109               0.000000000               0.000000000               0.000000000               0.000000000               0.000023824               0.002643947               0.000000000              -0.000321558               0.000988493               0.000666935               0.000000000               0.000000000               0.000000000               0.000000000               0.000436271               0.004727798              -0.000373208              -0.000427372               0.001718374               0.001291002               0.000000000               0.000000000               0.000000000               0.000000000               0.000473389               0.003952912              -0.000248234              -0.000316592               0.001423155               0.001106563               0.000000000               0.000000000               0.000000000               0.000000000               0.000648065               0.003333100              -0.000116647              -0.000173613               0.001168893               0.000995280               0.000000000               0.000000000               0.000000000               0.000000000               0.000673148               0.002992644              -0.000052329              -0.000121650               0.001038088               0.000916438               0.000000000               0.000000000               0.000000000               0.000000000               0.000642254               0.002794517              -0.000020315              -0.000108469               0.000967653               0.000859184               0.000000000               0.000000000               0.000000000               0.000000000               0.000593125               0.002676572              -0.000004860              -0.000112149               0.000929565               0.000817416               0.000000000               0.000000000               0.000000000               0.000000000               0.000533191               0.002606742               0.000002537              -0.000125896               0.000910870               0.000784975               0.000000000               0.000000000               0.000000000               0.000000000               0.000467826               0.002564347               0.000006647              -0.000145108               0.000903143               0.000758035               0.000000000               0.000000000               0.000000000               0.000000000               0.000403332               0.002541254               0.000007618              -0.000166407               0.000902545               0.000736138               0.000000000               0.000000000               0.000000000               0.000000000               0.000342685               0.002531734               0.000006487              -0.000187959               0.000906556               0.000718597               0.000000000               0.000000000               0.000000000               0.000000000               0.000286079               0.002531493               0.000004945              -0.000209157               0.000913541               0.000704385               0.000000000               0.000000000               0.000000000               0.000000000               0.000232692               0.002538078               0.000004927              -0.000230000               0.000922684               0.000692685               0.000000000               0.000000000               0.000000000               0.000000000               0.000181104               0.002551102               0.000005339              -0.000250973               0.000934017               0.000683043               0.000000000               0.000000000               0.000000000               0.000000000               0.000132038               0.002569167               0.000005754              -0.000271631               0.000946924               0.000675293               0.000000000               0.000000000               0.000000000               0.000000000               0.000086299               0.002592689               0.000009069              -0.000291723               0.000961462               0.000669739               0.000000000               0.000000000               0.000000000               0.000000000               0.000041924               0.002620221               0.000008104              -0.000311805               0.000977333               0.000665528               0.000000000               0.000000000               0.000000000               0.000000000               0.000022826               0.002641479               0.000004158              -0.000321624               0.000987692               0.000666068               0.000000000               0.000000000               0.000000000               0.000000000               0.000520884               0.004513721              -0.000709356              -0.000368883               0.001627520               0.001258636               0.000000000               0.000000000               0.000000000               0.000000000               0.000507363               0.003796665              -0.000472064              -0.000284321               0.001360316               0.001075995               0.000000000               0.000000000               0.000000000               0.000000000               0.000628481               0.003245341              -0.000223855              -0.000169987               0.001138432               0.000968445               0.000000000               0.000000000               0.000000000               0.000000000               0.000631196               0.002943946              -0.000105484              -0.000131294               0.001025070               0.000893776               0.000000000               0.000000000               0.000000000               0.000000000               0.000590705               0.002767569              -0.000047399              -0.000124431               0.000963991               0.000839560               0.000000000               0.000000000               0.000000000               0.000000000               0.000537226               0.002663129              -0.000017917              -0.000131431               0.000931511               0.000800080               0.000000000               0.000000000               0.000000000               0.000000000               0.000478772               0.002600510              -0.000004274              -0.000145524               0.000915336               0.000769812               0.000000000               0.000000000               0.000000000               0.000000000               0.000418925               0.002562415               0.000000898              -0.000163205               0.000908531               0.000745327               0.000000000               0.000000000               0.000000000               0.000000000               0.000358388               0.002539882               0.000002553              -0.000183089               0.000907648               0.000724559               0.000000000               0.000000000               0.000000000               0.000000000               0.000303159               0.002530368               0.000001717              -0.000202611               0.000910985               0.000708374               0.000000000               0.000000000               0.000000000               0.000000000               0.000252677               0.002529582              -0.000000401              -0.000221443               0.000917000               0.000695557               0.000000000               0.000000000               0.000000000               0.000000000               0.000202627               0.002534769               0.000000050              -0.000240860               0.000925201               0.000684341               0.000000000               0.000000000               0.000000000               0.000000000               0.000155759               0.002547715               0.000001921              -0.000260054               0.000935914               0.000675860               0.000000000               0.000000000               0.000000000               0.000000000               0.000111919               0.002566647               0.000003661              -0.000278861               0.000948494               0.000669633               0.000000000               0.000000000               0.000000000               0.000000000               0.000071035               0.002588562               0.000008331              -0.000296931               0.000961822               0.000664891               0.000000000               0.000000000               0.000000000               0.000000000               0.000034125               0.002613138               0.000008761              -0.000313845               0.000975652               0.000661808               0.000000000               0.000000000               0.000000000               0.000000000               0.000020015               0.002634218               0.000004842              -0.000321771               0.000985321               0.000663550               0.000000000               0.000000000               0.000000000               0.000000000               0.000636579               0.004185039              -0.000980192              -0.000284413               0.001489803               0.001205390               0.000000000               0.000000000               0.000000000               0.000000000               0.000550355               0.003560530              -0.000653481              -0.000238683               0.001266392               0.001027710               0.000000000               0.000000000               0.000000000               0.000000000               0.000594596               0.003116092              -0.000315401              -0.000166538               0.001094199               0.000927662               0.000000000               0.000000000               0.000000000               0.000000000               0.000565805               0.002870265              -0.000159455              -0.000146606               0.001005614               0.000859008               0.000000000               0.000000000               0.000000000               0.000000000               0.000516254               0.002725548              -0.000084227              -0.000147098               0.000957540               0.000810442               0.000000000               0.000000000               0.000000000               0.000000000               0.000462049               0.002638982              -0.000047081              -0.000156604               0.000931853               0.000775249               0.000000000               0.000000000               0.000000000               0.000000000               0.000405321               0.002582887              -0.000028988              -0.000170865               0.000917909               0.000747044               0.000000000               0.000000000               0.000000000               0.000000000               0.000351679               0.002548978              -0.000020734              -0.000186742               0.000911898               0.000725156               0.000000000               0.000000000               0.000000000               0.000000000               0.000299635               0.002529731              -0.000017475              -0.000203853               0.000911186               0.000707333               0.000000000               0.000000000               0.000000000               0.000000000               0.000250399               0.002520981              -0.000017149              -0.000221222               0.000914059               0.000692837               0.000000000               0.000000000               0.000000000               0.000000000               0.000206116               0.002520355              -0.000018654              -0.000237750               0.000919360               0.000681610               0.000000000               0.000000000               0.000000000               0.000000000               0.000164826               0.002527080              -0.000015609              -0.000254075               0.000927043               0.000672968               0.000000000               0.000000000               0.000000000               0.000000000               0.000125545               0.002540642              -0.000009229              -0.000270500               0.000937039               0.000666539               0.000000000               0.000000000               0.000000000               0.000000000               0.000087807               0.002560171              -0.000005789              -0.000287093               0.000949080               0.000661987               0.000000000               0.000000000               0.000000000               0.000000000               0.000053075               0.002579208              -0.000001938              -0.000302497               0.000960560               0.000658063               0.000000000               0.000000000               0.000000000               0.000000000               0.000024274               0.002595587               0.000001258              -0.000315345               0.000970302               0.000654957               0.000000000               0.000000000               0.000000000               0.000000000               0.000014406               0.002609956               0.000000286              -0.000320841               0.000976924               0.000656082               0.000000000               0.000000000               0.000000000               0.000000000               0.000758039               0.003767482              -0.001169431              -0.000186671               0.001318038               0.001131367               0.000000000               0.000000000               0.000000000               0.000000000               0.000588312               0.003270310              -0.000783669              -0.000188172               0.001152816               0.000964644               0.000000000               0.000000000               0.000000000               0.000000000               0.000545054               0.002960351              -0.000390528              -0.000165648               0.001041990               0.000876341               0.000000000               0.000000000               0.000000000               0.000000000               0.000485703               0.002779287              -0.000216028              -0.000165272               0.000981510               0.000816238               0.000000000               0.000000000               0.000000000               0.000000000               0.000429126               0.002669332              -0.000131943              -0.000172744               0.000947350               0.000774606               0.000000000               0.000000000               0.000000000               0.000000000               0.000378776               0.002599434              -0.000089852              -0.000182888               0.000927432               0.000744544               0.000000000               0.000000000               0.000000000               0.000000000               0.000329970               0.002553009              -0.000068262              -0.000195387               0.000916123               0.000720737               0.000000000               0.000000000               0.000000000               0.000000000               0.000285635               0.002525649              -0.000056760              -0.000208593               0.000911405               0.000702813               0.000000000               0.000000000               0.000000000               0.000000000               0.000244265               0.002510865              -0.000049900              -0.000222258               0.000911033               0.000688774               0.000000000               0.000000000               0.000000000               0.000000000               0.000203744               0.002505104              -0.000045553              -0.000236733               0.000913937               0.000677204               0.000000000               0.000000000               0.000000000               0.000000000               0.000166694               0.002507760              -0.000041705              -0.000250959               0.000919565               0.000668605               0.000000000               0.000000000               0.000000000               0.000000000               0.000132685               0.002519285              -0.000034602              -0.000265153               0.000928138               0.000662984               0.000000000               0.000000000               0.000000000               0.000000000               0.000099314               0.002534266              -0.000023876              -0.000279540               0.000937927               0.000658387               0.000000000               0.000000000               0.000000000               0.000000000               0.000067351               0.002549962              -0.000017250              -0.000293488               0.000947808               0.000654320               0.000000000               0.000000000               0.000000000               0.000000000               0.000039499               0.002558801              -0.000015112              -0.000305037               0.000954604               0.000649567               0.000000000               0.000000000               0.000000000               0.000000000               0.000018725               0.002561307              -0.000008697              -0.000313141               0.000958141               0.000645000               0.000000000               0.000000000               0.000000000               0.000000000               0.000011634               0.002565065              -0.000004386              -0.000316269               0.000960436               0.000644167               0.000000000               0.000000000               0.000000000               0.000000000               0.000864817               0.003300186              -0.001268137              -0.000088218               0.001129457               0.001041239               0.000000000               0.000000000               0.000000000               0.000000000               0.000614479               0.002956170              -0.000862833              -0.000139092               0.001031744               0.000892652               0.000000000               0.000000000               0.000000000               0.000000000               0.000484727               0.002794040              -0.000454052              -0.000167482               0.000987165               0.000819682               0.000000000               0.000000000               0.000000000               0.000000000               0.000404194               0.002680704              -0.000275769              -0.000183515               0.000954731               0.000771216               0.000000000               0.000000000               0.000000000               0.000000000               0.000347803               0.002606151              -0.000187854              -0.000195342               0.000933822               0.000738480               0.000000000               0.000000000               0.000000000               0.000000000               0.000304093               0.002554054              -0.000142807              -0.000205221               0.000919750               0.000714529               0.000000000               0.000000000               0.000000000               0.000000000               0.000265628               0.002519394              -0.000116493              -0.000215313               0.000911561               0.000696247               0.000000000               0.000000000               0.000000000               0.000000000               0.000231668               0.002500782              -0.000099087              -0.000225722               0.000908826               0.000683105               0.000000000               0.000000000               0.000000000               0.000000000               0.000202473               0.002492307              -0.000085834              -0.000235610               0.000909298               0.000673687               0.000000000               0.000000000               0.000000000               0.000000000               0.000171518               0.002489787              -0.000073645              -0.000246903               0.000912222               0.000665318               0.000000000               0.000000000               0.000000000               0.000000000               0.000139042               0.002496071              -0.000061935              -0.000259867               0.000918638               0.000658770               0.000000000               0.000000000               0.000000000               0.000000000               0.000107046               0.002508921              -0.000049034              -0.000273472               0.000927456               0.000653984               0.000000000               0.000000000               0.000000000               0.000000000               0.000078032               0.002521423              -0.000033939              -0.000285915               0.000935771               0.000649856               0.000000000               0.000000000               0.000000000               0.000000000               0.000055939               0.002529381              -0.000025731              -0.000295195               0.000941517               0.000646322               0.000000000               0.000000000               0.000000000               0.000000000               0.000036826               0.002528689              -0.000024645              -0.000302276               0.000943646               0.000641371               0.000000000               0.000000000               0.000000000               0.000000000               0.000018708               0.002525061              -0.000015770              -0.000308616               0.000944551               0.000635934               0.000000000               0.000000000               0.000000000               0.000000000               0.000011539               0.002525832              -0.000008781              -0.000311401               0.000945736               0.000634335               0.000000000               0.000000000               0.000000000               0.000000000               0.000934212               0.002821135              -0.001282721              -0.000002314               0.000941140               0.000938826               0.000000000               0.000000000               0.000000000               0.000000000               0.000623446               0.002641149              -0.000899513              -0.000096352               0.000912491               0.000816139               0.000000000               0.000000000               0.000000000               0.000000000               0.000423287               0.002626896              -0.000509410              -0.000169629               0.000932166               0.000762537               0.000000000               0.000000000               0.000000000               0.000000000               0.000333595               0.002580427              -0.000336510              -0.000197455               0.000925952               0.000728497               0.000000000               0.000000000               0.000000000               0.000000000               0.000282429               0.002539032              -0.000247443              -0.000211468               0.000916825               0.000705357               0.000000000               0.000000000               0.000000000               0.000000000               0.000246131               0.002505295              -0.000198070              -0.000220862               0.000908711               0.000687849               0.000000000               0.000000000               0.000000000               0.000000000               0.000218741               0.002485122              -0.000164048              -0.000228612               0.000904570               0.000675958               0.000000000               0.000000000               0.000000000               0.000000000               0.000194643               0.002474250              -0.000135843              -0.000236290               0.000903505               0.000667215               0.000000000               0.000000000               0.000000000               0.000000000               0.000173100               0.002470995              -0.000113692              -0.000243961               0.000904977               0.000661016               0.000000000               0.000000000               0.000000000               0.000000000               0.000145611               0.002472283              -0.000092595              -0.000254431               0.000908896               0.000654466               0.000000000               0.000000000               0.000000000               0.000000000               0.000114556               0.002482547              -0.000071979              -0.000267359               0.000916627               0.000649268               0.000000000               0.000000000               0.000000000               0.000000000               0.000086024               0.002496730              -0.000053267              -0.000279831               0.000925512               0.000645681               0.000000000               0.000000000               0.000000000               0.000000000               0.000063866               0.002508901              -0.000035992              -0.000289662               0.000932846               0.000643184               0.000000000               0.000000000               0.000000000               0.000000000               0.000049973               0.002514649              -0.000027632              -0.000295591               0.000936738               0.000641148               0.000000000               0.000000000               0.000000000               0.000000000               0.000037767               0.002517529              -0.000027045              -0.000300528               0.000939344               0.000638816               0.000000000               0.000000000               0.000000000               0.000000000               0.000020476               0.002524722              -0.000017833              -0.000307911               0.000944202               0.000636291               0.000000000               0.000000000               0.000000000               0.000000000               0.000014432               0.002534731              -0.000011598              -0.000311429               0.000948712               0.000637283               0.000000000               0.000000000               0.000000000               0.000000000               0.000962939               0.002356154              -0.001227976               0.000066581               0.000763183               0.000829764               0.000000000               0.000000000               0.000000000               0.000000000               0.000617757               0.002341917              -0.000901924              -0.000061082               0.000800991               0.000739910               0.000000000               0.000000000               0.000000000               0.000000000               0.000371885               0.002466288              -0.000558073              -0.000168829               0.000878364               0.000709535               0.000000000               0.000000000               0.000000000               0.000000000               0.000282067               0.002480412              -0.000394633              -0.000204276               0.000894888               0.000690612               0.000000000               0.000000000               0.000000000               0.000000000               0.000236586               0.002468724              -0.000303395              -0.000219870               0.000896190               0.000676319               0.000000000               0.000000000               0.000000000               0.000000000               0.000207914               0.002454669              -0.000245651              -0.000228865               0.000894503               0.000665638               0.000000000               0.000000000               0.000000000               0.000000000               0.000190311               0.002449134              -0.000200621              -0.000234775               0.000894628               0.000659853               0.000000000               0.000000000               0.000000000               0.000000000               0.000171923               0.002447081              -0.000162196              -0.000241414               0.000896157               0.000654743               0.000000000               0.000000000               0.000000000               0.000000000               0.000150670               0.002450035              -0.000130979              -0.000249752               0.000899921               0.000650168               0.000000000               0.000000000               0.000000000               0.000000000               0.000124277               0.002461099              -0.000101975              -0.000261033               0.000907369               0.000646336               0.000000000               0.000000000               0.000000000               0.000000000               0.000098475               0.002479197              -0.000073382              -0.000272971               0.000917381               0.000644410               0.000000000               0.000000000               0.000000000               0.000000000               0.000077921               0.002498833              -0.000049573              -0.000283133               0.000927314               0.000644181               0.000000000               0.000000000               0.000000000               0.000000000               0.000063945               0.002515701              -0.000033097              -0.000290483               0.000935386               0.000644903               0.000000000               0.000000000               0.000000000               0.000000000               0.000055138               0.002529006              -0.000027102              -0.000295448               0.000941476               0.000646028               0.000000000               0.000000000               0.000000000               0.000000000               0.000042633               0.002549240              -0.000026294              -0.000302667               0.000950627               0.000647960               0.000000000               0.000000000               0.000000000               0.000000000               0.000023497               0.002577255              -0.000017588              -0.000313345               0.000963525               0.000650180               0.000000000               0.000000000               0.000000000               0.000000000               0.000016666               0.002598914              -0.000012992              -0.000318614               0.000972500               0.000653887               0.000000000               0.000000000               0.000000000               0.000000000               0.000965167               0.001941354              -0.001126018               0.000119266               0.000607356               0.000726622               0.000000000               0.000000000               0.000000000               0.000000000               0.000618211               0.002073142              -0.000887143              -0.000027315               0.000700145               0.000672830               0.000000000               0.000000000               0.000000000               0.000000000               0.000350429               0.002320966              -0.000613066              -0.000158710               0.000826551               0.000667841               0.000000000               0.000000000               0.000000000               0.000000000               0.000260295               0.002389841              -0.000456881              -0.000201119               0.000863645               0.000662526               0.000000000               0.000000000               0.000000000               0.000000000               0.000216348               0.002407806              -0.000359681              -0.000219845               0.000875875               0.000656031               0.000000000               0.000000000               0.000000000               0.000000000               0.000192214               0.002414613              -0.000291315              -0.000229746               0.000881445               0.000651699               0.000000000               0.000000000               0.000000000               0.000000000               0.000178783               0.002423566              -0.000236400              -0.000235902               0.000886481               0.000650579               0.000000000               0.000000000               0.000000000               0.000000000               0.000166250               0.002433354              -0.000190490              -0.000241825               0.000891718               0.000649893               0.000000000               0.000000000               0.000000000               0.000000000               0.000146482               0.002447047              -0.000150268              -0.000250950               0.000899324               0.000648375               0.000000000               0.000000000               0.000000000               0.000000000               0.000120896               0.002470517              -0.000114672              -0.000263478               0.000911323               0.000647846               0.000000000               0.000000000               0.000000000               0.000000000               0.000098909               0.002498836              -0.000082386              -0.000275263               0.000924691               0.000649428               0.000000000               0.000000000               0.000000000               0.000000000               0.000085005               0.002524575              -0.000057391              -0.000283694               0.000936081               0.000652387               0.000000000               0.000000000               0.000000000               0.000000000               0.000076431               0.002542815              -0.000040118              -0.000289190               0.000943993               0.000654804               0.000000000               0.000000000               0.000000000               0.000000000               0.000068887               0.002565854              -0.000028847              -0.000294898               0.000953575               0.000658677               0.000000000               0.000000000               0.000000000               0.000000000               0.000055783               0.002604656              -0.000021632              -0.000304663               0.000969764               0.000665102               0.000000000               0.000000000               0.000000000               0.000000000               0.000039450               0.002654868              -0.000013317              -0.000317064               0.000990635               0.000673571               0.000000000               0.000000000               0.000000000               0.000000000               0.000028365               0.002681598              -0.000007483              -0.000324562               0.001002044               0.000677482               0.000000000               0.000000000               0.000000000               0.000000000               0.000934667               0.001531670              -0.001000171               0.000159039               0.000457538               0.000616577               0.000000000               0.000000000               0.000000000               0.000000000               0.000633830               0.001755854              -0.000864695               0.000018203               0.000579211               0.000597414               0.000000000               0.000000000               0.000000000               0.000000000               0.000370298               0.002093214              -0.000679230              -0.000122790               0.000738661               0.000615871               0.000000000               0.000000000               0.000000000               0.000000000               0.000274633               0.002226636              -0.000533850              -0.000175342               0.000800652               0.000625310               0.000000000               0.000000000               0.000000000               0.000000000               0.000227087               0.002287073              -0.000430386              -0.000200726               0.000829259               0.000628532               0.000000000               0.000000000               0.000000000               0.000000000               0.000198960               0.002322933              -0.000352842              -0.000215756               0.000846222               0.000630466               0.000000000               0.000000000               0.000000000               0.000000000               0.000183805               0.002351797              -0.000290442              -0.000225047               0.000858940               0.000633893               0.000000000               0.000000000               0.000000000               0.000000000               0.000172853               0.002377096              -0.000237509              -0.000232317               0.000869796               0.000637480               0.000000000               0.000000000               0.000000000               0.000000000               0.000156868               0.002404837              -0.000189162              -0.000241778               0.000882197               0.000640419               0.000000000               0.000000000               0.000000000               0.000000000               0.000136691               0.002438735              -0.000150106              -0.000253582               0.000897431               0.000643849               0.000000000               0.000000000               0.000000000               0.000000000               0.000117756               0.002478432              -0.000118614              -0.000265645               0.000914684               0.000649039               0.000000000               0.000000000               0.000000000               0.000000000               0.000105448               0.002516916              -0.000093248              -0.000275071               0.000930654               0.000655583               0.000000000               0.000000000               0.000000000               0.000000000               0.000098479               0.002552721              -0.000069891              -0.000282160               0.000944952               0.000662792               0.000000000               0.000000000               0.000000000               0.000000000               0.000092511               0.002591511              -0.000046195              -0.000289247               0.000960244               0.000670997               0.000000000               0.000000000               0.000000000               0.000000000               0.000081173               0.002638851              -0.000027217              -0.000299416               0.000979413               0.000679998               0.000000000               0.000000000               0.000000000               0.000000000               0.000064690               0.002695882              -0.000012333              -0.000312726               0.001002860               0.000690134               0.000000000               0.000000000               0.000000000               0.000000000               0.000047054               0.002718233              -0.000001727              -0.000322133               0.001013446               0.000691313               0.000000000               0.000000000               0.000000000               0.000000000               0.000862660               0.001144692              -0.000851749               0.000180409               0.000321423               0.000501832               0.000000000               0.000000000               0.000000000               0.000000000               0.000650118               0.001432930              -0.000818326               0.000064676               0.000456079               0.000520756               0.000000000               0.000000000               0.000000000               0.000000000               0.000422888               0.001829983              -0.000727107              -0.000070166               0.000633376               0.000563211               0.000000000               0.000000000               0.000000000               0.000000000               0.000323552               0.002025935              -0.000607262              -0.000131910               0.000719275               0.000587365               0.000000000               0.000000000               0.000000000               0.000000000               0.000269004               0.002135325              -0.000504061              -0.000166039               0.000767114               0.000601075               0.000000000               0.000000000               0.000000000               0.000000000               0.000232534               0.002205602              -0.000421434              -0.000188500               0.000798027               0.000609527               0.000000000               0.000000000               0.000000000               0.000000000               0.000211553               0.002259121              -0.000355264              -0.000203057               0.000820719               0.000617661               0.000000000               0.000000000               0.000000000               0.000000000               0.000198989               0.002305843              -0.000295541              -0.000213609               0.000839810               0.000626200               0.000000000               0.000000000               0.000000000               0.000000000               0.000186288               0.002349833              -0.000242077              -0.000223871               0.000857893               0.000634023               0.000000000               0.000000000               0.000000000               0.000000000               0.000170694               0.002394029              -0.000200781              -0.000235243               0.000876416               0.000641173               0.000000000               0.000000000               0.000000000               0.000000000               0.000156078               0.002440962              -0.000169806              -0.000246590               0.000895842               0.000649252               0.000000000               0.000000000               0.000000000               0.000000000               0.000143253               0.002491028              -0.000142190              -0.000257658               0.000916220               0.000658562               0.000000000               0.000000000               0.000000000               0.000000000               0.000130768               0.002544178              -0.000111158              -0.000268984               0.000937712               0.000668728               0.000000000               0.000000000               0.000000000               0.000000000               0.000119106               0.002597893              -0.000076695              -0.000280071               0.000959313               0.000679242               0.000000000               0.000000000               0.000000000               0.000000000               0.000108603               0.002653966              -0.000045602              -0.000291019               0.000981653               0.000690634               0.000000000               0.000000000               0.000000000               0.000000000               0.000090566               0.002708123              -0.000019988              -0.000304552               0.001004216               0.000699664               0.000000000               0.000000000               0.000000000               0.000000000               0.000069331               0.002726363              -0.000004655              -0.000314795               0.001013710               0.000698915               0.000000000               0.000000000               0.000000000               0.000000000               0.000754106               0.000804764              -0.000683325               0.000182192               0.000207521               0.000389713               0.000000000               0.000000000               0.000000000               0.000000000               0.000648341               0.001117782              -0.000734363               0.000103403               0.000338122               0.000441526               0.000000000               0.000000000               0.000000000               0.000000000               0.000489081               0.001534721              -0.000728529              -0.000008436               0.000514380               0.000505944               0.000000000               0.000000000               0.000000000               0.000000000               0.000400081               0.001778384              -0.000643362              -0.000072268               0.000616878               0.000544610               0.000000000               0.000000000               0.000000000               0.000000000               0.000339963               0.001932878              -0.000551858              -0.000114124               0.000682327               0.000568203               0.000000000               0.000000000               0.000000000               0.000000000               0.000297805               0.002042156              -0.000472028              -0.000143593               0.000728576               0.000584983               0.000000000               0.000000000               0.000000000               0.000000000               0.000267341               0.002127466              -0.000405126              -0.000165680               0.000764375               0.000598695               0.000000000               0.000000000               0.000000000               0.000000000               0.000247147               0.002198794              -0.000343400              -0.000182169               0.000793647               0.000611478               0.000000000               0.000000000               0.000000000               0.000000000               0.000233674               0.002262230              -0.000287319              -0.000195150               0.000819119               0.000623969               0.000000000               0.000000000               0.000000000               0.000000000               0.000218188               0.002321238              -0.000245511              -0.000208334               0.000843183               0.000634849               0.000000000               0.000000000               0.000000000               0.000000000               0.000203378               0.002378761              -0.000215225              -0.000221078               0.000866605               0.000645527               0.000000000               0.000000000               0.000000000               0.000000000               0.000189814               0.002441604              -0.000184504              -0.000234020               0.000891866               0.000657847               0.000000000               0.000000000               0.000000000               0.000000000               0.000175133               0.002513008              -0.000146696              -0.000248451               0.000920478               0.000672027               0.000000000               0.000000000               0.000000000               0.000000000               0.000157453               0.002586283              -0.000106743              -0.000264240               0.000950166               0.000685926               0.000000000               0.000000000               0.000000000               0.000000000               0.000139304               0.002655864              -0.000068953              -0.000279743               0.000978527               0.000698784               0.000000000               0.000000000               0.000000000               0.000000000               0.000119336               0.002715661              -0.000033059              -0.000294706               0.001003447               0.000708741               0.000000000               0.000000000               0.000000000               0.000000000               0.000095945               0.002733474              -0.000011764              -0.000305704               0.001013050               0.000707346               0.000000000               0.000000000               0.000000000               0.000000000               0.000616961               0.000525291              -0.000510927               0.000165697               0.000119862               0.000285559               0.000000000               0.000000000               0.000000000               0.000000000               0.000631817               0.000828730              -0.000618091               0.000133338               0.000231794               0.000365133               0.000000000               0.000000000               0.000000000               0.000000000               0.000561056               0.001231051              -0.000676456               0.000056513               0.000391508               0.000448022               0.000000000               0.000000000               0.000000000               0.000000000               0.000494079               0.001502443              -0.000627030              -0.000002527               0.000501651               0.000499125               0.000000000               0.000000000               0.000000000               0.000000000               0.000435705               0.001694459              -0.000555811              -0.000048418               0.000580953               0.000532535               0.000000000               0.000000000               0.000000000               0.000000000               0.000388274               0.001842267              -0.000486971              -0.000084681               0.000642310               0.000557629               0.000000000               0.000000000               0.000000000               0.000000000               0.000349470               0.001961512              -0.000424892              -0.000114138               0.000691877               0.000577739               0.000000000               0.000000000               0.000000000               0.000000000               0.000319012               0.002059680              -0.000366836              -0.000137830               0.000732496               0.000594666               0.000000000               0.000000000               0.000000000               0.000000000               0.000299273               0.002148623              -0.000313021              -0.000156350               0.000768317               0.000611967               0.000000000               0.000000000               0.000000000               0.000000000               0.000281116               0.002229150              -0.000272164              -0.000173225               0.000800784               0.000627559               0.000000000               0.000000000               0.000000000               0.000000000               0.000257798               0.002301462              -0.000242842              -0.000191008               0.000830816               0.000639807               0.000000000               0.000000000               0.000000000               0.000000000               0.000238722               0.002379063              -0.000212149              -0.000207862               0.000862300               0.000654439               0.000000000               0.000000000               0.000000000               0.000000000               0.000223346               0.002464747              -0.000172120              -0.000224338               0.000896354               0.000672015               0.000000000               0.000000000               0.000000000               0.000000000               0.000206896               0.002551900              -0.000127616              -0.000241401               0.000931092               0.000689691               0.000000000               0.000000000               0.000000000               0.000000000               0.000187130               0.002635250              -0.000087757              -0.000259232               0.000964819               0.000705587               0.000000000               0.000000000               0.000000000               0.000000000               0.000164168               0.002705245              -0.000047678              -0.000276592               0.000993936               0.000717345               0.000000000               0.000000000               0.000000000               0.000000000               0.000139298               0.002727737              -0.000021939              -0.000288730               0.001005480               0.000716750               0.000000000               0.000000000               0.000000000               0.000000000               0.000465880               0.000312575              -0.000350546               0.000135631               0.000058980               0.000194611               0.000000000               0.000000000               0.000000000               0.000000000               0.000600280               0.000584787              -0.000478429               0.000152005               0.000144258               0.000296263               0.000000000               0.000000000               0.000000000               0.000000000               0.000627165               0.000948811              -0.000568127               0.000116584               0.000277406               0.000393990               0.000000000               0.000000000               0.000000000               0.000000000               0.000592780               0.001229110              -0.000549659               0.000068653               0.000386815               0.000455468               0.000000000               0.000000000               0.000000000               0.000000000               0.000542003               0.001448728              -0.000501747               0.000022159               0.000475518               0.000497677               0.000000000               0.000000000               0.000000000               0.000000000               0.000489658               0.001628971              -0.000448663              -0.000020000               0.000549652               0.000529652               0.000000000               0.000000000               0.000000000               0.000000000               0.000442945               0.001779219              -0.000398053              -0.000056298               0.000611833               0.000555535               0.000000000               0.000000000               0.000000000               0.000000000               0.000401618               0.001905706              -0.000350066              -0.000087606               0.000664431               0.000576825               0.000000000               0.000000000               0.000000000               0.000000000               0.000372016               0.002022329              -0.000304631              -0.000113285               0.000711865               0.000598580               0.000000000               0.000000000               0.000000000               0.000000000               0.000347982               0.002130811              -0.000266012              -0.000135858               0.000755549               0.000619691               0.000000000               0.000000000               0.000000000               0.000000000               0.000319017               0.002222874              -0.000238631              -0.000158227               0.000793693               0.000635466               0.000000000               0.000000000               0.000000000               0.000000000               0.000291185               0.002310390              -0.000212637              -0.000179604               0.000829990               0.000650386               0.000000000               0.000000000               0.000000000               0.000000000               0.000273879               0.002404186              -0.000177428              -0.000197818               0.000867327               0.000669509               0.000000000               0.000000000               0.000000000               0.000000000               0.000264373               0.002500922              -0.000136879              -0.000213475               0.000904791               0.000691316               0.000000000               0.000000000               0.000000000               0.000000000               0.000256154               0.002599038              -0.000097627              -0.000228822               0.000942611               0.000713790               0.000000000               0.000000000               0.000000000               0.000000000               0.000237759               0.002686835              -0.000053655              -0.000246694               0.000977834               0.000731140               0.000000000               0.000000000               0.000000000               0.000000000               0.000215948               0.002720845              -0.000026576              -0.000259124               0.000993314               0.000734190               0.000000000               0.000000000               0.000000000               0.000000000               0.000330622               0.000170821              -0.000212194               0.000102629               0.000022730               0.000125359               0.000000000               0.000000000               0.000000000               0.000000000               0.000562475               0.000400737              -0.000323785               0.000160834               0.000079966               0.000240800               0.000000000               0.000000000               0.000000000               0.000000000               0.000676728               0.000717439              -0.000410367               0.000164092               0.000184447               0.000348538               0.000000000               0.000000000               0.000000000               0.000000000               0.000680022               0.000997344              -0.000410350               0.000130339               0.000288998               0.000419337               0.000000000               0.000000000               0.000000000               0.000000000               0.000640767               0.001232645              -0.000383148               0.000086206               0.000382142               0.000468348               0.000000000               0.000000000               0.000000000               0.000000000               0.000588228               0.001434697              -0.000349023               0.000041248               0.000464478               0.000505726               0.000000000               0.000000000               0.000000000               0.000000000               0.000533760               0.001611575              -0.000313664              -0.000001287               0.000537615               0.000536328               0.000000000               0.000000000               0.000000000               0.000000000               0.000481842               0.001763474              -0.000279702              -0.000039744               0.000601067               0.000561323               0.000000000               0.000000000               0.000000000               0.000000000               0.000439945               0.001901421              -0.000247148              -0.000072698               0.000658033               0.000585335               0.000000000               0.000000000               0.000000000               0.000000000               0.000410001               0.002030770              -0.000216657              -0.000100096               0.000710282               0.000610186               0.000000000               0.000000000               0.000000000               0.000000000               0.000379535               0.002140497              -0.000192490              -0.000125236               0.000755237               0.000630001               0.000000000               0.000000000               0.000000000               0.000000000               0.000347104               0.002238888              -0.000173785              -0.000149697               0.000796187               0.000646491               0.000000000               0.000000000               0.000000000               0.000000000               0.000328490               0.002339521              -0.000152299              -0.000169256               0.000836251               0.000666995               0.000000000               0.000000000               0.000000000               0.000000000               0.000325742               0.002445629              -0.000121872              -0.000183550               0.000876385               0.000692835               0.000000000               0.000000000               0.000000000               0.000000000               0.000325721               0.002558071              -0.000083933              -0.000197613               0.000918553               0.000720940               0.000000000               0.000000000               0.000000000               0.000000000               0.000328103               0.002667835              -0.000043272              -0.000210440               0.000959416               0.000748976               0.000000000               0.000000000               0.000000000               0.000000000               0.000326817               0.002717328              -0.000021965              -0.000217109               0.000978137               0.000761027               0.000000000               0.000000000               0.000000000               0.000000000               0.000239961               0.000091486              -0.000099793               0.000078549               0.000004312               0.000082861               0.000000000               0.000000000               0.000000000               0.000000000               0.000535097               0.000288208              -0.000163320               0.000164634               0.000041190               0.000205824               0.000000000               0.000000000               0.000000000               0.000000000               0.000707311               0.000567792              -0.000215327               0.000194266               0.000124507               0.000318772               0.000000000               0.000000000               0.000000000               0.000000000               0.000736784               0.000839689              -0.000220059               0.000171331               0.000222783               0.000394114               0.000000000               0.000000000               0.000000000               0.000000000               0.000709460               0.001082534              -0.000208582               0.000130730               0.000317265               0.000447994               0.000000000               0.000000000               0.000000000               0.000000000               0.000660074               0.001298133              -0.000192111               0.000085260               0.000404287               0.000489547               0.000000000               0.000000000               0.000000000               0.000000000               0.000602956               0.001491006              -0.000173015               0.000039732               0.000483753               0.000523485               0.000000000               0.000000000               0.000000000               0.000000000               0.000546697               0.001659783              -0.000155206              -0.000002461               0.000554076               0.000551614               0.000000000               0.000000000               0.000000000               0.000000000               0.000495279               0.001808114              -0.000139628              -0.000040285               0.000616127               0.000575842               0.000000000               0.000000000               0.000000000               0.000000000               0.000455494               0.001947713              -0.000122769              -0.000072654               0.000673449               0.000600795               0.000000000               0.000000000               0.000000000               0.000000000               0.000423599               0.002074875              -0.000105818              -0.000100509               0.000725121               0.000624612               0.000000000               0.000000000               0.000000000               0.000000000               0.000395438               0.002188427              -0.000096857              -0.000125264               0.000771223               0.000645959               0.000000000               0.000000000               0.000000000               0.000000000               0.000372845               0.002295269              -0.000092323              -0.000147092               0.000814113               0.000667021               0.000000000               0.000000000               0.000000000               0.000000000               0.000363214               0.002403161              -0.000073631              -0.000164190               0.000855775               0.000691586               0.000000000               0.000000000               0.000000000               0.000000000               0.000371342               0.002517750              -0.000046240              -0.000175465               0.000897730               0.000722265               0.000000000               0.000000000               0.000000000               0.000000000               0.000400775               0.002641321              -0.000023752              -0.000179874               0.000940389               0.000760515               0.000000000               0.000000000               0.000000000               0.000000000               0.000422769               0.002704938              -0.000013111              -0.000179578               0.000961496               0.000781918               0.000000000               0.000000000               0.000000000               0.000000000               0.000207979               0.000065112              -0.000000000               0.000069853              -0.000001580               0.000068272               0.000000000               0.000000000               0.000000000               0.000000000               0.000525210               0.000249137               0.000000000               0.000165810               0.000027775               0.000193585               0.000000000               0.000000000               0.000000000               0.000000000               0.000717506               0.000515292              -0.000000000               0.000204651               0.000103545               0.000308197               0.000000000               0.000000000               0.000000000               0.000000000               0.000756181               0.000784482               0.000000000               0.000185506               0.000199656               0.000385162               0.000000000               0.000000000               0.000000000               0.000000000               0.000733169               0.001028957               0.000000000               0.000146317               0.000294210               0.000440527               0.000000000               0.000000000               0.000000000               0.000000000               0.000684157               0.001245833              -0.000000000               0.000100829               0.000381664               0.000482492               0.000000000               0.000000000               0.000000000               0.000000000               0.000628389               0.001444188               0.000000000               0.000055122               0.000463017               0.000518139               0.000000000               0.000000000               0.000000000               0.000000000               0.000574062               0.001622650               0.000000000               0.000012442               0.000536731               0.000549173               0.000000000               0.000000000               0.000000000               0.000000000               0.000519748               0.001774541              -0.000000000              -0.000026912               0.000600478               0.000573566               0.000000000               0.000000000               0.000000000               0.000000000               0.000471885               0.001914404              -0.000000000              -0.000062344               0.000658909               0.000596566               0.000000000               0.000000000               0.000000000               0.000000000               0.000439318               0.002050030               0.000000000              -0.000091509               0.000713839               0.000622330               0.000000000               0.000000000               0.000000000               0.000000000               0.000417576               0.002174839              -0.000000000              -0.000115263               0.000763360               0.000648097               0.000000000               0.000000000               0.000000000               0.000000000               0.000391815               0.002284089              -0.000000000              -0.000138580               0.000807549               0.000668969               0.000000000               0.000000000               0.000000000               0.000000000               0.000372416               0.002386916              -0.000000000              -0.000158708               0.000848533               0.000689825               0.000000000               0.000000000               0.000000000               0.000000000               0.000386716               0.002497052              -0.000000000              -0.000167113               0.000888046               0.000720934               0.000000000               0.000000000               0.000000000               0.000000000               0.000428540               0.002623409              -0.000000000              -0.000167223               0.000930202               0.000762979               0.000000000               0.000000000               0.000000000               0.000000000               0.000458697               0.002692741               0.000000000              -0.000164581               0.000952432               0.000787851               0.000000000               0.000000000               0.000000000               0.000000000               0.000000000               0.000000000               0.000000000               0.000000000               0.000000000               0.000000000               0.000000000               0.000000000               0.000000000               0.000000000               0.000000000               0.000000000               0.000000000               0.000000000               0.000000000               0.000000000               0.000000000               0.000000000               0.000000000               0.000000000               0.000000000               0.000000000               0.000000000               0.000000000               0.000000000               0.000000000               0.000000000               0.000000000               0.000000000               0.000000000               0.000000000               0.000000000               0.000000000               0.000000000               0.000000000               0.000000000               0.000000000               0.000000000               0.000000000               0.000000000               0.000000000               0.000000000               0.000000000               0.000000000               0.000000000               0.000000000               0.000000000               0.000000000               0.000000000               0.000000000               0.000000000               0.000000000               0.000000000               0.000000000               0.000000000               0.000000000               0.000000000               0.000000000               0.000000000               0.000000000               0.000000000               0.000000000               0.000000000               0.000000000               0.000000000               0.000000000               0.000000000               0.000000000               0.000000000               0.000000000               0.000000000               0.000000000               0.000000000               0.000000000               0.000000000               0.000000000               0.000000000               0.000000000               0.000000000               0.000000000               0.000000000               0.000000000               0.000000000               0.000000000               0.000000000               0.000000000               0.000000000               0.000000000               0.000000000               0.000000000               0.000000000               0.000000000               0.000000000               0.000000000               0.000000000               0.000000000               0.000000000               0.000000000               0.000000000               0.000000000               0.000000000               0.000000000               0.000000000               0.000000000               0.000000000               0.000000000               0.000000000               0.000000000               0.000000000               0.000000000               0.000000000               0.000000000               0.000000000               0.000000000               0.000000000               0.000000000               0.000000000               0.000000000               0.000000000               0.000000000               0.000000000               0.000000000               0.000000000               0.000000000               0.000000000               0.000000000               0.000000000               0.000000000               0.000000000               0.000000000               0.000000000               0.000000000               0.000000000               0.000000000               0.000000000               0.000000000               0.000000000               0.000000000               0.000000000               0.000000000               0.000000000               0.000000000               0.000000000               0.000000000               0.000000000               0.000000000               0.000000000               0.000000000               0.000000000               0.000000000               0.000000000               0.000000000               0.000000000               0.000000000               0.000000000               0.000000000               0.000000000               0.000000000               0.000000000               0.000000000               0.000000000               0.000000000               0.000000000               0.000000000               0.000000000               0.000000000               0.000000000               0.000000000               0.000000000               0.000000000               0.000436271               0.004727798               0.000373208              -0.000427372               0.001718374               0.001291002               0.000000000               0.000000000               0.000000000               0.000000000               0.000473389               0.003952912               0.000248234              -0.000316592               0.001423155               0.001106563               0.000000000               0.000000000               0.000000000               0.000000000               0.000648065               0.003333100               0.000116647              -0.000173613               0.001168893               0.000995280               0.000000000               0.000000000               0.000000000               0.000000000               0.000673148               0.002992644               0.000052329              -0.000121650               0.001038088               0.000916438               0.000000000               0.000000000               0.000000000               0.000000000               0.000642254               0.002794517               0.000020315              -0.000108469               0.000967653               0.000859184               0.000000000               0.000000000               0.000000000               0.000000000               0.000593125               0.002676572               0.000004860              -0.000112149               0.000929565               0.000817416               0.000000000               0.000000000               0.000000000               0.000000000               0.000533191               0.002606742              -0.000002537              -0.000125896               0.000910870               0.000784975               0.000000000               0.000000000               0.000000000               0.000000000               0.000467826               0.002564347              -0.000006647              -0.000145108               0.000903143               0.000758035               0.000000000               0.000000000               0.000000000               0.000000000               0.000403332               0.002541254              -0.000007618              -0.000166407               0.000902545               0.000736138               0.000000000               0.000000000               0.000000000               0.000000000               0.000342685               0.002531734              -0.000006487              -0.000187959               0.000906556               0.000718597               0.000000000               0.000000000               0.000000000               0.000000000               0.000286079               0.002531493              -0.000004945              -0.000209157               0.000913541               0.000704385               0.000000000               0.000000000               0.000000000               0.000000000               0.000232692               0.002538078              -0.000004927              -0.000230000               0.000922684               0.000692685               0.000000000               0.000000000               0.000000000               0.000000000               0.000181104               0.002551102              -0.000005339              -0.000250973               0.000934017               0.000683043               0.000000000               0.000000000               0.000000000               0.000000000               0.000132038               0.002569167              -0.000005754              -0.000271631               0.000946924               0.000675293               0.000000000               0.000000000               0.000000000               0.000000000               0.000086299               0.002592689              -0.000009069              -0.000291723               0.000961462               0.000669739               0.000000000               0.000000000               0.000000000               0.000000000               0.000041924               0.002620221              -0.000008104              -0.000311805               0.000977333               0.000665528               0.000000000               0.000000000               0.000000000               0.000000000               0.000022826               0.002641479              -0.000004158              -0.000321624               0.000987692               0.000666068               0.000000000               0.000000000               0.000000000               0.000000000               0.000520884               0.004513721               0.000709356              -0.000368883               0.001627520               0.001258636               0.000000000               0.000000000               0.000000000               0.000000000               0.000507363               0.003796665               0.000472064              -0.000284321               0.001360316               0.001075995               0.000000000               0.000000000               0.000000000               0.000000000               0.000628481               0.003245341               0.000223855              -0.000169987               0.001138432               0.000968445               0.000000000               0.000000000               0.000000000               0.000000000               0.000631196               0.002943946               0.000105484              -0.000131294               0.001025070               0.000893776               0.000000000               0.000000000               0.000000000               0.000000000               0.000590705               0.002767569               0.000047399              -0.000124431               0.000963991               0.000839560               0.000000000               0.000000000               0.000000000               0.000000000               0.000537226               0.002663129               0.000017917              -0.000131431               0.000931511               0.000800080               0.000000000               0.000000000               0.000000000               0.000000000               0.000478772               0.002600510               0.000004274              -0.000145524               0.000915336               0.000769812               0.000000000               0.000000000               0.000000000               0.000000000               0.000418925               0.002562415              -0.000000898              -0.000163205               0.000908531               0.000745327               0.000000000               0.000000000               0.000000000               0.000000000               0.000358388               0.002539882              -0.000002553              -0.000183089               0.000907648               0.000724559               0.000000000               0.000000000               0.000000000               0.000000000               0.000303159               0.002530368              -0.000001717              -0.000202611               0.000910985               0.000708374               0.000000000               0.000000000               0.000000000               0.000000000               0.000252677               0.002529582               0.000000401              -0.000221443               0.000917000               0.000695557               0.000000000               0.000000000               0.000000000               0.000000000               0.000202627               0.002534769              -0.000000050              -0.000240860               0.000925201               0.000684341               0.000000000               0.000000000               0.000000000               0.000000000               0.000155759               0.002547715              -0.000001921              -0.000260054               0.000935914               0.000675860               0.000000000               0.000000000               0.000000000               0.000000000               0.000111919               0.002566647              -0.000003661              -0.000278861               0.000948494               0.000669633               0.000000000               0.000000000               0.000000000               0.000000000               0.000071035               0.002588562              -0.000008331              -0.000296931               0.000961822               0.000664891               0.000000000               0.000000000               0.000000000               0.000000000               0.000034125               0.002613138              -0.000008761              -0.000313845               0.000975652               0.000661808               0.000000000               0.000000000               0.000000000               0.000000000               0.000020015               0.002634218              -0.000004842              -0.000321771               0.000985321               0.000663550               0.000000000               0.000000000               0.000000000               0.000000000               0.000636579               0.004185039               0.000980192              -0.000284413               0.001489803               0.001205390               0.000000000               0.000000000               0.000000000               0.000000000               0.000550355               0.003560530               0.000653481              -0.000238683               0.001266392               0.001027710               0.000000000               0.000000000               0.000000000               0.000000000               0.000594596               0.003116092               0.000315401              -0.000166538               0.001094199               0.000927662               0.000000000               0.000000000               0.000000000               0.000000000               0.000565805               0.002870265               0.000159455              -0.000146606               0.001005614               0.000859008               0.000000000               0.000000000               0.000000000               0.000000000               0.000516254               0.002725548               0.000084227              -0.000147098               0.000957540               0.000810442               0.000000000               0.000000000               0.000000000               0.000000000               0.000462049               0.002638982               0.000047081              -0.000156604               0.000931853               0.000775249               0.000000000               0.000000000               0.000000000               0.000000000               0.000405321               0.002582887               0.000028988              -0.000170865               0.000917909               0.000747044               0.000000000               0.000000000               0.000000000               0.000000000               0.000351679               0.002548978               0.000020734              -0.000186742               0.000911898               0.000725156               0.000000000               0.000000000               0.000000000               0.000000000               0.000299635               0.002529731               0.000017475              -0.000203853               0.000911186               0.000707333               0.000000000               0.000000000               0.000000000               0.000000000               0.000250399               0.002520981               0.000017149              -0.000221222               0.000914059               0.000692837               0.000000000               0.000000000               0.000000000               0.000000000               0.000206116               0.002520355               0.000018654              -0.000237750               0.000919360               0.000681610               0.000000000               0.000000000               0.000000000               0.000000000               0.000164826               0.002527080               0.000015609              -0.000254075               0.000927043               0.000672968               0.000000000               0.000000000               0.000000000               0.000000000               0.000125545               0.002540642               0.000009229              -0.000270500               0.000937039               0.000666539               0.000000000               0.000000000               0.000000000               0.000000000               0.000087807               0.002560171               0.000005789              -0.000287093               0.000949080               0.000661987               0.000000000               0.000000000               0.000000000               0.000000000               0.000053075               0.002579208               0.000001938              -0.000302497               0.000960560               0.000658063               0.000000000               0.000000000               0.000000000               0.000000000               0.000024274               0.002595587              -0.000001258              -0.000315345               0.000970302               0.000654957               0.000000000               0.000000000               0.000000000               0.000000000               0.000014406               0.002609956              -0.000000286              -0.000320841               0.000976924               0.000656082               0.000000000               0.000000000               0.000000000               0.000000000               0.000758039               0.003767482               0.001169431              -0.000186671               0.001318038               0.001131367               0.000000000               0.000000000               0.000000000               0.000000000               0.000588312               0.003270310               0.000783669              -0.000188172               0.001152816               0.000964644               0.000000000               0.000000000               0.000000000               0.000000000               0.000545054               0.002960351               0.000390528              -0.000165648               0.001041990               0.000876341               0.000000000               0.000000000               0.000000000               0.000000000               0.000485703               0.002779287               0.000216028              -0.000165272               0.000981510               0.000816238               0.000000000               0.000000000               0.000000000               0.000000000               0.000429126               0.002669332               0.000131943              -0.000172744               0.000947350               0.000774606               0.000000000               0.000000000               0.000000000               0.000000000               0.000378776               0.002599434               0.000089852              -0.000182888               0.000927432               0.000744544               0.000000000               0.000000000               0.000000000               0.000000000               0.000329970               0.002553009               0.000068262              -0.000195387               0.000916123               0.000720737               0.000000000               0.000000000               0.000000000               0.000000000               0.000285635               0.002525649               0.000056760              -0.000208593               0.000911405               0.000702813               0.000000000               0.000000000               0.000000000               0.000000000               0.000244265               0.002510865               0.000049900              -0.000222258               0.000911033               0.000688774               0.000000000               0.000000000               0.000000000               0.000000000               0.000203744               0.002505104               0.000045553              -0.000236733               0.000913937               0.000677204               0.000000000               0.000000000               0.000000000               0.000000000               0.000166694               0.002507760               0.000041705              -0.000250959               0.000919565               0.000668605               0.000000000               0.000000000               0.000000000               0.000000000               0.000132685               0.002519285               0.000034602              -0.000265153               0.000928138               0.000662984               0.000000000               0.000000000               0.000000000               0.000000000               0.000099314               0.002534266               0.000023876              -0.000279540               0.000937927               0.000658387               0.000000000               0.000000000               0.000000000               0.000000000               0.000067351               0.002549962               0.000017250              -0.000293488               0.000947808               0.000654320               0.000000000               0.000000000               0.000000000               0.000000000               0.000039499               0.002558801               0.000015112              -0.000305037               0.000954604               0.000649567               0.000000000               0.000000000               0.000000000               0.000000000               0.000018725               0.002561307               0.000008697              -0.000313141               0.000958141               0.000645000               0.000000000               0.000000000               0.000000000               0.000000000               0.000011634               0.002565065               0.000004386              -0.000316269               0.000960436               0.000644167               0.000000000               0.000000000               0.000000000               0.000000000               0.000864817               0.003300186               0.001268137              -0.000088218               0.001129457               0.001041239               0.000000000               0.000000000               0.000000000               0.000000000               0.000614479               0.002956170               0.000862833              -0.000139092               0.001031744               0.000892652               0.000000000               0.000000000               0.000000000               0.000000000               0.000484727               0.002794040               0.000454052              -0.000167482               0.000987165               0.000819682               0.000000000               0.000000000               0.000000000               0.000000000               0.000404194               0.002680704               0.000275769              -0.000183515               0.000954731               0.000771216               0.000000000               0.000000000               0.000000000               0.000000000               0.000347803               0.002606151               0.000187854              -0.000195342               0.000933822               0.000738480               0.000000000               0.000000000               0.000000000               0.000000000               0.000304093               0.002554054               0.000142807              -0.000205221               0.000919750               0.000714529               0.000000000               0.000000000               0.000000000               0.000000000               0.000265628               0.002519394               0.000116493              -0.000215313               0.000911561               0.000696247               0.000000000               0.000000000               0.000000000               0.000000000               0.000231668               0.002500782               0.000099087              -0.000225722               0.000908826               0.000683105               0.000000000               0.000000000               0.000000000               0.000000000               0.000202473               0.002492307               0.000085834              -0.000235610               0.000909298               0.000673687               0.000000000               0.000000000               0.000000000               0.000000000               0.000171518               0.002489787               0.000073645              -0.000246903               0.000912222               0.000665318               0.000000000               0.000000000               0.000000000               0.000000000               0.000139042               0.002496071               0.000061935              -0.000259867               0.000918638               0.000658770               0.000000000               0.000000000               0.000000000               0.000000000               0.000107046               0.002508921               0.000049034              -0.000273472               0.000927456               0.000653984               0.000000000               0.000000000               0.000000000               0.000000000               0.000078032               0.002521423               0.000033939              -0.000285915               0.000935771               0.000649856               0.000000000               0.000000000               0.000000000               0.000000000               0.000055939               0.002529381               0.000025731              -0.000295195               0.000941517               0.000646322               0.000000000               0.000000000               0.000000000               0.000000000               0.000036826               0.002528689               0.000024645              -0.000302276               0.000943646               0.000641371               0.000000000               0.000000000               0.000000000               0.000000000               0.000018708               0.002525061               0.000015770              -0.000308616               0.000944551               0.000635934               0.000000000               0.000000000               0.000000000               0.000000000               0.000011539               0.002525832               0.000008781              -0.000311401               0.000945736               0.000634335               0.000000000               0.000000000               0.000000000               0.000000000               0.000934212               0.002821135               0.001282721              -0.000002314               0.000941140               0.000938826               0.000000000               0.000000000               0.000000000               0.000000000               0.000623446               0.002641149               0.000899513              -0.000096352               0.000912491               0.000816139               0.000000000               0.000000000               0.000000000               0.000000000               0.000423287               0.002626896               0.000509410              -0.000169629               0.000932166               0.000762537               0.000000000               0.000000000               0.000000000               0.000000000               0.000333595               0.002580427               0.000336510              -0.000197455               0.000925952               0.000728497               0.000000000               0.000000000               0.000000000               0.000000000               0.000282429               0.002539032               0.000247443              -0.000211468               0.000916825               0.000705357               0.000000000               0.000000000               0.000000000               0.000000000               0.000246131               0.002505295               0.000198070              -0.000220862               0.000908711               0.000687849               0.000000000               0.000000000               0.000000000               0.000000000               0.000218741               0.002485122               0.000164048              -0.000228612               0.000904570               0.000675958               0.000000000               0.000000000               0.000000000               0.000000000               0.000194643               0.002474250               0.000135843              -0.000236290               0.000903505               0.000667215               0.000000000               0.000000000               0.000000000               0.000000000               0.000173100               0.002470995               0.000113692              -0.000243961               0.000904977               0.000661016               0.000000000               0.000000000               0.000000000               0.000000000               0.000145611               0.002472283               0.000092595              -0.000254431               0.000908896               0.000654466               0.000000000               0.000000000               0.000000000               0.000000000               0.000114556               0.002482547               0.000071979              -0.000267359               0.000916627               0.000649268               0.000000000               0.000000000               0.000000000               0.000000000               0.000086024               0.002496730               0.000053267              -0.000279831               0.000925512               0.000645681               0.000000000               0.000000000               0.000000000               0.000000000               0.000063866               0.002508901               0.000035992              -0.000289662               0.000932846               0.000643184               0.000000000               0.000000000               0.000000000               0.000000000               0.000049973               0.002514649               0.000027632              -0.000295591               0.000936738               0.000641148               0.000000000               0.000000000               0.000000000               0.000000000               0.000037767               0.002517529               0.000027045              -0.000300528               0.000939344               0.000638816               0.000000000               0.000000000               0.000000000               0.000000000               0.000020476               0.002524722               0.000017833              -0.000307911               0.000944202               0.000636291               0.000000000               0.000000000               0.000000000               0.000000000               0.000014432               0.002534731               0.000011598              -0.000311429               0.000948712               0.000637283               0.000000000               0.000000000               0.000000000               0.000000000               0.000962939               0.002356154               0.001227976               0.000066581               0.000763183               0.000829764               0.000000000               0.000000000               0.000000000               0.000000000               0.000617757               0.002341917               0.000901924              -0.000061082               0.000800991               0.000739910               0.000000000               0.000000000               0.000000000               0.000000000               0.000371885               0.002466288               0.000558073              -0.000168829               0.000878364               0.000709535               0.000000000               0.000000000               0.000000000               0.000000000               0.000282067               0.002480412               0.000394633              -0.000204276               0.000894888               0.000690612               0.000000000               0.000000000               0.000000000               0.000000000               0.000236586               0.002468724               0.000303395              -0.000219870               0.000896190               0.000676319               0.000000000               0.000000000               0.000000000               0.000000000               0.000207914               0.002454669               0.000245651              -0.000228865               0.000894503               0.000665638               0.000000000               0.000000000               0.000000000               0.000000000               0.000190311               0.002449134               0.000200621              -0.000234775               0.000894628               0.000659853               0.000000000               0.000000000               0.000000000               0.000000000               0.000171923               0.002447081               0.000162196              -0.000241414               0.000896157               0.000654743               0.000000000               0.000000000               0.000000000               0.000000000               0.000150670               0.002450035               0.000130979              -0.000249752               0.000899921               0.000650168               0.000000000               0.000000000               0.000000000               0.000000000               0.000124277               0.002461099               0.000101975              -0.000261033               0.000907369               0.000646336               0.000000000               0.000000000               0.000000000               0.000000000               0.000098475               0.002479197               0.000073382              -0.000272971               0.000917381               0.000644410               0.000000000               0.000000000               0.000000000               0.000000000               0.000077921               0.002498833               0.000049573              -0.000283133               0.000927314               0.000644181               0.000000000               0.000000000               0.000000000               0.000000000               0.000063945               0.002515701               0.000033097              -0.000290483               0.000935386               0.000644903               0.000000000               0.000000000               0.000000000               0.000000000               0.000055138               0.002529006               0.000027102              -0.000295448               0.000941476               0.000646028               0.000000000               0.000000000               0.000000000               0.000000000               0.000042633               0.002549240               0.000026294              -0.000302667               0.000950627               0.000647960               0.000000000               0.000000000               0.000000000               0.000000000               0.000023497               0.002577255               0.000017588              -0.000313345               0.000963525               0.000650180               0.000000000               0.000000000               0.000000000               0.000000000               0.000016666               0.002598914               0.000012992              -0.000318614               0.000972500               0.000653887               0.000000000               0.000000000               0.000000000               0.000000000               0.000965167               0.001941354               0.001126018               0.000119266               0.000607356               0.000726622               0.000000000               0.000000000               0.000000000               0.000000000               0.000618211               0.002073142               0.000887143              -0.000027315               0.000700145               0.000672830               0.000000000               0.000000000               0.000000000               0.000000000               0.000350429               0.002320966               0.000613066              -0.000158710               0.000826551               0.000667841               0.000000000               0.000000000               0.000000000               0.000000000               0.000260295               0.002389841               0.000456881              -0.000201119               0.000863645               0.000662526               0.000000000               0.000000000               0.000000000               0.000000000               0.000216348               0.002407806               0.000359681              -0.000219845               0.000875875               0.000656031               0.000000000               0.000000000               0.000000000               0.000000000               0.000192214               0.002414613               0.000291315              -0.000229746               0.000881445               0.000651699               0.000000000               0.000000000               0.000000000               0.000000000               0.000178783               0.002423566               0.000236400              -0.000235902               0.000886481               0.000650579               0.000000000               0.000000000               0.000000000               0.000000000               0.000166250               0.002433354               0.000190490              -0.000241825               0.000891718               0.000649893               0.000000000               0.000000000               0.000000000               0.000000000               0.000146482               0.002447047               0.000150268              -0.000250950               0.000899324               0.000648375               0.000000000               0.000000000               0.000000000               0.000000000               0.000120896               0.002470517               0.000114672              -0.000263478               0.000911323               0.000647846               0.000000000               0.000000000               0.000000000               0.000000000               0.000098909               0.002498836               0.000082386              -0.000275263               0.000924691               0.000649428               0.000000000               0.000000000               0.000000000               0.000000000               0.000085005               0.002524575               0.000057391              -0.000283694               0.000936081               0.000652387               0.000000000               0.000000000               0.000000000               0.000000000               0.000076431               0.002542815               0.000040118              -0.000289190               0.000943993               0.000654804               0.000000000               0.000000000               0.000000000               0.000000000               0.000068887               0.002565854               0.000028847              -0.000294898               0.000953575               0.000658677               0.000000000               0.000000000               0.000000000               0.000000000               0.000055783               0.002604656               0.000021632              -0.000304663               0.000969764               0.000665102               0.000000000               0.000000000               0.000000000               0.000000000               0.000039450               0.002654868               0.000013317              -0.000317064               0.000990635               0.000673571               0.000000000               0.000000000               0.000000000               0.000000000               0.000028365               0.002681598               0.000007483              -0.000324562               0.001002044               0.000677482               0.000000000               0.000000000               0.000000000               0.000000000               0.000934667               0.001531670               0.001000171               0.000159039               0.000457538               0.000616577               0.000000000               0.000000000               0.000000000               0.000000000               0.000633830               0.001755854               0.000864695               0.000018203               0.000579211               0.000597414               0.000000000               0.000000000               0.000000000               0.000000000               0.000370298               0.002093214               0.000679230              -0.000122790               0.000738661               0.000615871               0.000000000               0.000000000               0.000000000               0.000000000               0.000274633               0.002226636               0.000533850              -0.000175342               0.000800652               0.000625310               0.000000000               0.000000000               0.000000000               0.000000000               0.000227087               0.002287073               0.000430386              -0.000200726               0.000829259               0.000628532               0.000000000               0.000000000               0.000000000               0.000000000               0.000198960               0.002322933               0.000352842              -0.000215756               0.000846222               0.000630466               0.000000000               0.000000000               0.000000000               0.000000000               0.000183805               0.002351797               0.000290442              -0.000225047               0.000858940               0.000633893               0.000000000               0.000000000               0.000000000               0.000000000               0.000172853               0.002377096               0.000237509              -0.000232317               0.000869796               0.000637480               0.000000000               0.000000000               0.000000000               0.000000000               0.000156868               0.002404837               0.000189162              -0.000241778               0.000882197               0.000640419               0.000000000               0.000000000               0.000000000               0.000000000               0.000136691               0.002438735               0.000150106              -0.000253582               0.000897431               0.000643849               0.000000000               0.000000000               0.000000000               0.000000000               0.000117756               0.002478432               0.000118614              -0.000265645               0.000914684               0.000649039               0.000000000               0.000000000               0.000000000               0.000000000               0.000105448               0.002516916               0.000093248              -0.000275071               0.000930654               0.000655583               0.000000000               0.000000000               0.000000000               0.000000000               0.000098479               0.002552721               0.000069891              -0.000282160               0.000944952               0.000662792               0.000000000               0.000000000               0.000000000               0.000000000               0.000092511               0.002591511               0.000046195              -0.000289247               0.000960244               0.000670997               0.000000000               0.000000000               0.000000000               0.000000000               0.000081173               0.002638851               0.000027217              -0.000299416               0.000979413               0.000679998               0.000000000               0.000000000               0.000000000               0.000000000               0.000064690               0.002695882               0.000012333              -0.000312726               0.001002860               0.000690134               0.000000000               0.000000000               0.000000000               0.000000000               0.000047054               0.002718233               0.000001727              -0.000322133               0.001013446               0.000691313               0.000000000               0.000000000               0.000000000               0.000000000               0.000862660               0.001144692               0.000851749               0.000180409               0.000321423               0.000501832               0.000000000               0.000000000               0.000000000               0.000000000               0.000650118               0.001432930               0.000818326               0.000064676               0.000456079               0.000520756               0.000000000               0.000000000               0.000000000               0.000000000               0.000422888               0.001829983               0.000727107              -0.000070166               0.000633376               0.000563211               0.000000000               0.000000000               0.000000000               0.000000000               0.000323552               0.002025935               0.000607262              -0.000131910               0.000719275               0.000587365               0.000000000               0.000000000               0.000000000               0.000000000               0.000269004               0.002135325               0.000504061              -0.000166039               0.000767114               0.000601075               0.000000000               0.000000000               0.000000000               0.000000000               0.000232534               0.002205602               0.000421434              -0.000188500               0.000798027               0.000609527               0.000000000               0.000000000               0.000000000               0.000000000               0.000211553               0.002259121               0.000355264              -0.000203057               0.000820719               0.000617661               0.000000000               0.000000000               0.000000000               0.000000000               0.000198989               0.002305843               0.000295541              -0.000213609               0.000839810               0.000626200               0.000000000               0.000000000               0.000000000               0.000000000               0.000186288               0.002349833               0.000242077              -0.000223871               0.000857893               0.000634023               0.000000000               0.000000000               0.000000000               0.000000000               0.000170694               0.002394029               0.000200781              -0.000235243               0.000876416               0.000641173               0.000000000               0.000000000               0.000000000               0.000000000               0.000156078               0.002440962               0.000169806              -0.000246590               0.000895842               0.000649252               0.000000000               0.000000000               0.000000000               0.000000000               0.000143253               0.002491028               0.000142190              -0.000257658               0.000916220               0.000658562               0.000000000               0.000000000               0.000000000               0.000000000               0.000130768               0.002544178               0.000111158              -0.000268984               0.000937712               0.000668728               0.000000000               0.000000000               0.000000000               0.000000000               0.000119106               0.002597893               0.000076695              -0.000280071               0.000959313               0.000679242               0.000000000               0.000000000               0.000000000               0.000000000               0.000108603               0.002653966               0.000045602              -0.000291019               0.000981653               0.000690634               0.000000000               0.000000000               0.000000000               0.000000000               0.000090566               0.002708123               0.000019988              -0.000304552               0.001004216               0.000699664               0.000000000               0.000000000               0.000000000               0.000000000               0.000069331               0.002726363               0.000004655              -0.000314795               0.001013710               0.000698915               0.000000000               0.000000000               0.000000000               0.000000000               0.000754106               0.000804764               0.000683325               0.000182192               0.000207521               0.000389713               0.000000000               0.000000000               0.000000000               0.000000000               0.000648341               0.001117782               0.000734363               0.000103403               0.000338122               0.000441526               0.000000000               0.000000000               0.000000000               0.000000000               0.000489081               0.001534721               0.000728529              -0.000008436               0.000514380               0.000505944               0.000000000               0.000000000               0.000000000               0.000000000               0.000400081               0.001778384               0.000643362              -0.000072268               0.000616878               0.000544610               0.000000000               0.000000000               0.000000000               0.000000000               0.000339963               0.001932878               0.000551858              -0.000114124               0.000682327               0.000568203               0.000000000               0.000000000               0.000000000               0.000000000               0.000297805               0.002042156               0.000472028              -0.000143593               0.000728576               0.000584983               0.000000000               0.000000000               0.000000000               0.000000000               0.000267341               0.002127466               0.000405126              -0.000165680               0.000764375               0.000598695               0.000000000               0.000000000               0.000000000               0.000000000               0.000247147               0.002198794               0.000343400              -0.000182169               0.000793647               0.000611478               0.000000000               0.000000000               0.000000000               0.000000000               0.000233674               0.002262230               0.000287319              -0.000195150               0.000819119               0.000623969               0.000000000               0.000000000               0.000000000               0.000000000               0.000218188               0.002321238               0.000245511              -0.000208334               0.000843183               0.000634849               0.000000000               0.000000000               0.000000000               0.000000000               0.000203378               0.002378761               0.000215225              -0.000221078               0.000866605               0.000645527               0.000000000               0.000000000               0.000000000               0.000000000               0.000189814               0.002441604               0.000184504              -0.000234020               0.000891866               0.000657847               0.000000000               0.000000000               0.000000000               0.000000000               0.000175133               0.002513008               0.000146696              -0.000248451               0.000920478               0.000672027               0.000000000               0.000000000               0.000000000               0.000000000               0.000157453               0.002586283               0.000106743              -0.000264240               0.000950166               0.000685926               0.000000000               0.000000000               0.000000000               0.000000000               0.000139304               0.002655864               0.000068953              -0.000279743               0.000978527               0.000698784               0.000000000               0.000000000               0.000000000               0.000000000               0.000119336               0.002715661               0.000033059              -0.000294706               0.001003447               0.000708741               0.000000000               0.000000000               0.000000000               0.000000000               0.000095945               0.002733474               0.000011764              -0.000305704               0.001013050               0.000707346               0.000000000               0.000000000               0.000000000               0.000000000               0.000616961               0.000525291               0.000510927               0.000165697               0.000119862               0.000285559               0.000000000               0.000000000               0.000000000               0.000000000               0.000631817               0.000828730               0.000618091               0.000133338               0.000231794               0.000365133               0.000000000               0.000000000               0.000000000               0.000000000               0.000561056               0.001231051               0.000676456               0.000056513               0.000391508               0.000448022               0.000000000               0.000000000               0.000000000               0.000000000               0.000494079               0.001502443               0.000627030              -0.000002527               0.000501651               0.000499125               0.000000000               0.000000000               0.000000000               0.000000000               0.000435705               0.001694459               0.000555811              -0.000048418               0.000580953               0.000532535               0.000000000               0.000000000               0.000000000               0.000000000               0.000388274               0.001842267               0.000486971              -0.000084681               0.000642310               0.000557629               0.000000000               0.000000000               0.000000000               0.000000000               0.000349470               0.001961512               0.000424892              -0.000114138               0.000691877               0.000577739               0.000000000               0.000000000               0.000000000               0.000000000               0.000319012               0.002059680               0.000366836              -0.000137830               0.000732496               0.000594666               0.000000000               0.000000000               0.000000000               0.000000000               0.000299273               0.002148623               0.000313021              -0.000156350               0.000768317               0.000611967               0.000000000               0.000000000               0.000000000               0.000000000               0.000281116               0.002229150               0.000272164              -0.000173225               0.000800784               0.000627559               0.000000000               0.000000000               0.000000000               0.000000000               0.000257798               0.002301462               0.000242842              -0.000191008               0.000830816               0.000639807               0.000000000               0.000000000               0.000000000               0.000000000               0.000238722               0.002379063               0.000212149              -0.000207862               0.000862300               0.000654439               0.000000000               0.000000000               0.000000000               0.000000000               0.000223346               0.002464747               0.000172120              -0.000224338               0.000896354               0.000672015               0.000000000               0.000000000               0.000000000               0.000000000               0.000206896               0.002551900               0.000127616              -0.000241401               0.000931092               0.000689691               0.000000000               0.000000000               0.000000000               0.000000000               0.000187130               0.002635250               0.000087757              -0.000259232               0.000964819               0.000705587               0.000000000               0.000000000               0.000000000               0.000000000               0.000164168               0.002705245               0.000047678              -0.000276592               0.000993936               0.000717345               0.000000000               0.000000000               0.000000000               0.000000000               0.000139298               0.002727737               0.000021939              -0.000288730               0.001005480               0.000716750               0.000000000               0.000000000               0.000000000               0.000000000               0.000465880               0.000312575               0.000350546               0.000135631               0.000058980               0.000194611               0.000000000               0.000000000               0.000000000               0.000000000               0.000600280               0.000584787               0.000478429               0.000152005               0.000144258               0.000296263               0.000000000               0.000000000               0.000000000               0.000000000               0.000627165               0.000948811               0.000568127               0.000116584               0.000277406               0.000393990               0.000000000               0.000000000               0.000000000               0.000000000               0.000592780               0.001229110               0.000549659               0.000068653               0.000386815               0.000455468               0.000000000               0.000000000               0.000000000               0.000000000               0.000542003               0.001448728               0.000501747               0.000022159               0.000475518               0.000497677               0.000000000               0.000000000               0.000000000               0.000000000               0.000489658               0.001628971               0.000448663              -0.000020000               0.000549652               0.000529652               0.000000000               0.000000000               0.000000000               0.000000000               0.000442945               0.001779219               0.000398053              -0.000056298               0.000611833               0.000555535               0.000000000               0.000000000               0.000000000               0.000000000               0.000401618               0.001905706               0.000350066              -0.000087606               0.000664431               0.000576825               0.000000000               0.000000000               0.000000000               0.000000000               0.000372016               0.002022329               0.000304631              -0.000113285               0.000711865               0.000598580               0.000000000               0.000000000               0.000000000               0.000000000               0.000347982               0.002130811               0.000266012              -0.000135858               0.000755549               0.000619691               0.000000000               0.000000000               0.000000000               0.000000000               0.000319017               0.002222874               0.000238631              -0.000158227               0.000793693               0.000635466               0.000000000               0.000000000               0.000000000               0.000000000               0.000291185               0.002310390               0.000212637              -0.000179604               0.000829990               0.000650386               0.000000000               0.000000000               0.000000000               0.000000000               0.000273879               0.002404186               0.000177428              -0.000197818               0.000867327               0.000669509               0.000000000               0.000000000               0.000000000               0.000000000               0.000264373               0.002500922               0.000136879              -0.000213475               0.000904791               0.000691316               0.000000000               0.000000000               0.000000000               0.000000000               0.000256154               0.002599038               0.000097627              -0.000228822               0.000942611               0.000713790               0.000000000               0.000000000               0.000000000               0.000000000               0.000237759               0.002686835               0.000053655              -0.000246694               0.000977834               0.000731140               0.000000000               0.000000000               0.000000000               0.000000000               0.000215948               0.002720845               0.000026576              -0.000259124               0.000993314               0.000734190               0.000000000               0.000000000               0.000000000               0.000000000               0.000330622               0.000170821               0.000212194               0.000102629               0.000022730               0.000125359               0.000000000               0.000000000               0.000000000               0.000000000               0.000562475               0.000400737               0.000323785               0.000160834               0.000079966               0.000240800               0.000000000               0.000000000               0.000000000               0.000000000               0.000676728               0.000717439               0.000410367               0.000164092               0.000184447               0.000348538               0.000000000               0.000000000               0.000000000               0.000000000               0.000680022               0.000997344               0.000410350               0.000130339               0.000288998               0.000419337               0.000000000               0.000000000               0.000000000               0.000000000               0.000640767               0.001232645               0.000383148               0.000086206               0.000382142               0.000468348               0.000000000               0.000000000               0.000000000               0.000000000               0.000588228               0.001434697               0.000349023               0.000041248               0.000464478               0.000505726               0.000000000               0.000000000               0.000000000               0.000000000               0.000533760               0.001611575               0.000313664              -0.000001287               0.000537615               0.000536328               0.000000000               0.000000000               0.000000000               0.000000000               0.000481842               0.001763474               0.000279702              -0.000039744               0.000601067               0.000561323               0.000000000               0.000000000               0.000000000               0.000000000               0.000439945               0.001901421               0.000247148              -0.000072698               0.000658033               0.000585335               0.000000000               0.000000000               0.000000000               0.000000000               0.000410001               0.002030770               0.000216657              -0.000100096               0.000710282               0.000610186               0.000000000               0.000000000               0.000000000               0.000000000               0.000379535               0.002140497               0.000192490              -0.000125236               0.000755237               0.000630001               0.000000000               0.000000000               0.000000000               0.000000000               0.000347104               0.002238888               0.000173785              -0.000149697               0.000796187               0.000646491               0.000000000               0.000000000               0.000000000               0.000000000               0.000328490               0.002339521               0.000152299              -0.000169256               0.000836251               0.000666995               0.000000000               0.000000000               0.000000000               0.000000000               0.000325742               0.002445629               0.000121872              -0.000183550               0.000876385               0.000692835               0.000000000               0.000000000               0.000000000               0.000000000               0.000325721               0.002558071               0.000083933              -0.000197613               0.000918553               0.000720940               0.000000000               0.000000000               0.000000000               0.000000000               0.000328103               0.002667835               0.000043272              -0.000210440               0.000959416               0.000748976               0.000000000               0.000000000               0.000000000               0.000000000               0.000326817               0.002717328               0.000021965              -0.000217109               0.000978137               0.000761027               0.000000000               0.000000000               0.000000000               0.000000000               0.000239961               0.000091486               0.000099793               0.000078549               0.000004312               0.000082861               0.000000000               0.000000000               0.000000000               0.000000000               0.000535097               0.000288208               0.000163320               0.000164634               0.000041190               0.000205824               0.000000000               0.000000000               0.000000000               0.000000000               0.000707311               0.000567792               0.000215327               0.000194266               0.000124507               0.000318772               0.000000000               0.000000000               0.000000000               0.000000000               0.000736784               0.000839689               0.000220059               0.000171331               0.000222783               0.000394114               0.000000000               0.000000000               0.000000000               0.000000000               0.000709460               0.001082534               0.000208582               0.000130730               0.000317265               0.000447994               0.000000000               0.000000000               0.000000000               0.000000000               0.000660074               0.001298133               0.000192111               0.000085260               0.000404287               0.000489547               0.000000000               0.000000000               0.000000000               0.000000000               0.000602956               0.001491006               0.000173015               0.000039732               0.000483753               0.000523485               0.000000000               0.000000000               0.000000000               0.000000000               0.000546697               0.001659783               0.000155206              -0.000002461               0.000554076               0.000551614               0.000000000               0.000000000               0.000000000               0.000000000               0.000495279               0.001808114               0.000139628              -0.000040285               0.000616127               0.000575842               0.000000000               0.000000000               0.000000000               0.000000000               0.000455494               0.001947713               0.000122769              -0.000072654               0.000673449               0.000600795               0.000000000               0.000000000               0.000000000               0.000000000               0.000423599               0.002074875               0.000105818              -0.000100509               0.000725121               0.000624612               0.000000000               0.000000000               0.000000000               0.000000000               0.000395438               0.002188427               0.000096857              -0.000125264               0.000771223               0.000645959               0.000000000               0.000000000               0.000000000               0.000000000               0.000372845               0.002295269               0.000092323              -0.000147092               0.000814113               0.000667021               0.000000000               0.000000000               0.000000000               0.000000000               0.000363214               0.002403161               0.000073631              -0.000164190               0.000855775               0.000691586               0.000000000               0.000000000               0.000000000               0.000000000               0.000371342               0.002517750               0.000046240              -0.000175465               0.000897730               0.000722265               0.000000000               0.000000000               0.000000000               0.000000000               0.000400775               0.002641321               0.000023752              -0.000179874               0.000940389               0.000760515               0.000000000               0.000000000               0.000000000               0.000000000               0.000422769               0.002704938               0.000013111              -0.000179578               0.000961496               0.000781918               0.000000000               0.000000000               0.000000000               0.000000000               0.000207979               0.000065112              -0.000000000               0.000069853              -0.000001580               0.000068272               0.000000000               0.000000000               0.000000000               0.000000000               0.000525210               0.000249137              -0.000000000               0.000165810               0.000027775               0.000193585               0.000000000               0.000000000               0.000000000               0.000000000               0.000717506               0.000515292              -0.000000000               0.000204651               0.000103545               0.000308197               0.000000000               0.000000000               0.000000000               0.000000000               0.000756181               0.000784482              -0.000000000               0.000185506               0.000199656               0.000385162               0.000000000               0.000000000               0.000000000               0.000000000               0.000733169               0.001028957               0.000000000               0.000146317               0.000294210               0.000440527               0.000000000               0.000000000               0.000000000               0.000000000               0.000684157               0.001245833              -0.000000000               0.000100829               0.000381664               0.000482492               0.000000000               0.000000000               0.000000000               0.000000000               0.000628389               0.001444188              -0.000000000               0.000055122               0.000463017               0.000518139               0.000000000               0.000000000               0.000000000               0.000000000               0.000574062               0.001622650               0.000000000               0.000012442               0.000536731               0.000549173               0.000000000               0.000000000               0.000000000               0.000000000               0.000519748               0.001774541              -0.000000000              -0.000026912               0.000600478               0.000573566               0.000000000               0.000000000               0.000000000               0.000000000               0.000471885               0.001914404              -0.000000000              -0.000062344               0.000658909               0.000596566               0.000000000               0.000000000               0.000000000               0.000000000               0.000439318               0.002050030               0.000000000              -0.000091509               0.000713839               0.000622330               0.000000000               0.000000000               0.000000000               0.000000000               0.000417576               0.002174839               0.000000000              -0.000115263               0.000763360               0.000648097               0.000000000               0.000000000               0.000000000               0.000000000               0.000391815               0.002284089               0.000000000              -0.000138580               0.000807549               0.000668969               0.000000000               0.000000000               0.000000000               0.000000000               0.000372416               0.002386916              -0.000000000              -0.000158708               0.000848533               0.000689825               0.000000000               0.000000000               0.000000000               0.000000000               0.000386716               0.002497052               0.000000000              -0.000167113               0.000888046               0.000720934               0.000000000               0.000000000               0.000000000               0.000000000               0.000428540               0.002623409               0.000000000              -0.000167223               0.000930202               0.000762979               0.000000000               0.000000000               0.000000000               0.000000000               0.000458697               0.002692741               0.000000000              -0.000164581               0.000952432               0.000787851               0.000000000               0.000000000               0.000000000               0.000000000               0.000406610               0.004803475              -0.000000000              -0.000447955               0.001750461               0.001302506               0.000000000               0.000000000               0.000000000               0.000000000               0.000461085               0.004008124              -0.000000000              -0.000328108               0.001445397               0.001117289               0.000000000               0.000000000               0.000000000               0.000000000               0.000653884               0.003365284              -0.000000000              -0.000175453               0.001180235               0.001004781               0.000000000               0.000000000               0.000000000               0.000000000               0.000688123               0.003010728               0.000000000              -0.000118295               0.001042998               0.000924703               0.000000000               0.000000000               0.000000000               0.000000000               0.000662224               0.002805504              -0.000000000              -0.000102354               0.000969277               0.000866923               0.000000000               0.000000000               0.000000000               0.000000000               0.000614922               0.002683410              -0.000000000              -0.000104830               0.000929404               0.000824574               0.000000000               0.000000000               0.000000000               0.000000000               0.000552935               0.002607362              -0.000000000              -0.000118569               0.000908635               0.000790066               0.000000000               0.000000000               0.000000000               0.000000000               0.000484148               0.002563502              -0.000000000              -0.000138882               0.000900786               0.000761904               0.000000000               0.000000000               0.000000000               0.000000000               0.000419581               0.002541761              -0.000000000              -0.000160377               0.000900704               0.000740327               0.000000000               0.000000000               0.000000000               0.000000000               0.000358494               0.002532579               0.000000000              -0.000182137               0.000904897               0.000722760               0.000000000               0.000000000               0.000000000               0.000000000               0.000299913               0.002531757               0.000000000              -0.000204002               0.000911911               0.000707909               0.000000000               0.000000000               0.000000000               0.000000000               0.000245299               0.002537701               0.000000000              -0.000225225               0.000920967               0.000695742               0.000000000               0.000000000               0.000000000               0.000000000               0.000192836               0.002551431               0.000000000              -0.000246615               0.000932674               0.000686059               0.000000000               0.000000000               0.000000000               0.000000000               0.000142785               0.002570180               0.000000000              -0.000267728               0.000945961               0.000678233               0.000000000               0.000000000               0.000000000               0.000000000               0.000093298               0.002594495               0.000000000              -0.000289325               0.000961265               0.000671940               0.000000000               0.000000000               0.000000000               0.000000000               0.000044838               0.002623631               0.000000000              -0.000311139               0.000978248               0.000667109               0.000000000               0.000000000               0.000000000               0.000000000               0.000023824               0.002643947              -0.000000000              -0.000321558               0.000988493               0.000666935               0.000000000               0.000000000               0.000000000               0.000000000               0.000436271               0.004727798              -0.000373208              -0.000427372               0.001718374               0.001291002               0.000000000               0.000000000               0.000000000               0.000000000               0.000473389               0.003952912              -0.000248234              -0.000316592               0.001423155               0.001106563               0.000000000               0.000000000               0.000000000               0.000000000               0.000648065               0.003333100              -0.000116647              -0.000173613               0.001168893               0.000995280               0.000000000               0.000000000               0.000000000               0.000000000               0.000673148               0.002992644              -0.000052329              -0.000121650               0.001038088               0.000916438               0.000000000               0.000000000               0.000000000               0.000000000               0.000642254               0.002794517              -0.000020315              -0.000108469               0.000967653               0.000859184               0.000000000               0.000000000               0.000000000               0.000000000               0.000593125               0.002676572              -0.000004860              -0.000112149               0.000929565               0.000817416               0.000000000               0.000000000               0.000000000               0.000000000               0.000533191               0.002606742               0.000002537              -0.000125896               0.000910870               0.000784975               0.000000000               0.000000000               0.000000000               0.000000000               0.000467826               0.002564347               0.000006647              -0.000145108               0.000903143               0.000758035               0.000000000               0.000000000               0.000000000               0.000000000               0.000403332               0.002541254               0.000007618              -0.000166407               0.000902545               0.000736138               0.000000000               0.000000000               0.000000000               0.000000000               0.000342685               0.002531734               0.000006487              -0.000187959               0.000906556               0.000718597               0.000000000               0.000000000               0.000000000               0.000000000               0.000286079               0.002531493               0.000004945              -0.000209157               0.000913541               0.000704385               0.000000000               0.000000000               0.000000000               0.000000000               0.000232692               0.002538078               0.000004927              -0.000230000               0.000922684               0.000692685               0.000000000               0.000000000               0.000000000               0.000000000               0.000181104               0.002551102               0.000005339              -0.000250973               0.000934017               0.000683043               0.000000000               0.000000000               0.000000000               0.000000000               0.000132038               0.002569167               0.000005754              -0.000271631               0.000946924               0.000675293               0.000000000               0.000000000               0.000000000               0.000000000               0.000086299               0.002592689               0.000009069              -0.000291723               0.000961462               0.000669739               0.000000000               0.000000000               0.000000000               0.000000000               0.000041924               0.002620221               0.000008104              -0.000311805               0.000977333               0.000665528               0.000000000               0.000000000               0.000000000               0.000000000               0.000022826               0.002641479               0.000004158              -0.000321624               0.000987692               0.000666068               0.000000000               0.000000000               0.000000000               0.000000000               0.000520884               0.004513721              -0.000709356              -0.000368883               0.001627520               0.001258636               0.000000000               0.000000000               0.000000000               0.000000000               0.000507363               0.003796665              -0.000472064              -0.000284321               0.001360316               0.001075995               0.000000000               0.000000000               0.000000000               0.000000000               0.000628481               0.003245341              -0.000223855              -0.000169987               0.001138432               0.000968445               0.000000000               0.000000000               0.000000000               0.000000000               0.000631196               0.002943946              -0.000105484              -0.000131294               0.001025070               0.000893776               0.000000000               0.000000000               0.000000000               0.000000000               0.000590705               0.002767569              -0.000047399              -0.000124431               0.000963991               0.000839560               0.000000000               0.000000000               0.000000000               0.000000000               0.000537226               0.002663129              -0.000017917              -0.000131431               0.000931511               0.000800080               0.000000000               0.000000000               0.000000000               0.000000000               0.000478772               0.002600510              -0.000004274              -0.000145524               0.000915336               0.000769812               0.000000000               0.000000000               0.000000000               0.000000000               0.000418925               0.002562415               0.000000898              -0.000163205               0.000908531               0.000745327               0.000000000               0.000000000               0.000000000               0.000000000               0.000358388               0.002539882               0.000002553              -0.000183089               0.000907648               0.000724559               0.000000000               0.000000000               0.000000000               0.000000000               0.000303159               0.002530368               0.000001717              -0.000202611               0.000910985               0.000708374               0.000000000               0.000000000               0.000000000               0.000000000               0.000252677               0.002529582              -0.000000401              -0.000221443               0.000917000               0.000695557               0.000000000               0.000000000               0.000000000               0.000000000               0.000202627               0.002534769               0.000000050              -0.000240860               0.000925201               0.000684341               0.000000000               0.000000000               0.000000000               0.000000000               0.000155759               0.002547715               0.000001921              -0.000260054               0.000935914               0.000675860               0.000000000               0.000000000               0.000000000               0.000000000               0.000111919               0.002566647               0.000003661              -0.000278861               0.000948494               0.000669633               0.000000000               0.000000000               0.000000000               0.000000000               0.000071035               0.002588562               0.000008331              -0.000296931               0.000961822               0.000664891               0.000000000               0.000000000               0.000000000               0.000000000               0.000034125               0.002613138               0.000008761              -0.000313845               0.000975652               0.000661808               0.000000000               0.000000000               0.000000000               0.000000000               0.000020015               0.002634218               0.000004842              -0.000321771               0.000985321               0.000663550               0.000000000               0.000000000               0.000000000               0.000000000               0.000636579               0.004185039              -0.000980192              -0.000284413               0.001489803               0.001205390               0.000000000               0.000000000               0.000000000               0.000000000               0.000550355               0.003560530              -0.000653481              -0.000238683               0.001266392               0.001027710               0.000000000               0.000000000               0.000000000               0.000000000               0.000594596               0.003116092              -0.000315401              -0.000166538               0.001094199               0.000927662               0.000000000               0.000000000               0.000000000               0.000000000               0.000565805               0.002870265              -0.000159455              -0.000146606               0.001005614               0.000859008               0.000000000               0.000000000               0.000000000               0.000000000               0.000516254               0.002725548              -0.000084227              -0.000147098               0.000957540               0.000810442               0.000000000               0.000000000               0.000000000               0.000000000               0.000462049               0.002638982              -0.000047081              -0.000156604               0.000931853               0.000775249               0.000000000               0.000000000               0.000000000               0.000000000               0.000405321               0.002582887              -0.000028988              -0.000170865               0.000917909               0.000747044               0.000000000               0.000000000               0.000000000               0.000000000               0.000351679               0.002548978              -0.000020734              -0.000186742               0.000911898               0.000725156               0.000000000               0.000000000               0.000000000               0.000000000               0.000299635               0.002529731              -0.000017475              -0.000203853               0.000911186               0.000707333               0.000000000               0.000000000               0.000000000               0.000000000               0.000250399               0.002520981              -0.000017149              -0.000221222               0.000914059               0.000692837               0.000000000               0.000000000               0.000000000               0.000000000               0.000206116               0.002520355              -0.000018654              -0.000237750               0.000919360               0.000681610               0.000000000               0.000000000               0.000000000               0.000000000               0.000164826               0.002527080              -0.000015609              -0.000254075               0.000927043               0.000672968               0.000000000               0.000000000               0.000000000               0.000000000               0.000125545               0.002540642              -0.000009229              -0.000270500               0.000937039               0.000666539               0.000000000               0.000000000               0.000000000               0.000000000               0.000087807               0.002560171              -0.000005789              -0.000287093               0.000949080               0.000661987               0.000000000               0.000000000               0.000000000               0.000000000               0.000053075               0.002579208              -0.000001938              -0.000302497               0.000960560               0.000658063               0.000000000               0.000000000               0.000000000               0.000000000               0.000024274               0.002595587               0.000001258              -0.000315345               0.000970302               0.000654957               0.000000000               0.000000000               0.000000000               0.000000000               0.000014406               0.002609956               0.000000286              -0.000320841               0.000976924               0.000656082               0.000000000               0.000000000               0.000000000               0.000000000               0.000758039               0.003767482              -0.001169431              -0.000186671               0.001318038               0.001131367               0.000000000               0.000000000               0.000000000               0.000000000               0.000588312               0.003270310              -0.000783669              -0.000188172               0.001152816               0.000964644               0.000000000               0.000000000               0.000000000               0.000000000               0.000545054               0.002960351              -0.000390528              -0.000165648               0.001041990               0.000876341               0.000000000               0.000000000               0.000000000               0.000000000               0.000485703               0.002779287              -0.000216028              -0.000165272               0.000981510               0.000816238               0.000000000               0.000000000               0.000000000               0.000000000               0.000429126               0.002669332              -0.000131943              -0.000172744               0.000947350               0.000774606               0.000000000               0.000000000               0.000000000               0.000000000               0.000378776               0.002599434              -0.000089852              -0.000182888               0.000927432               0.000744544               0.000000000               0.000000000               0.000000000               0.000000000               0.000329970               0.002553009              -0.000068262              -0.000195387               0.000916123               0.000720737               0.000000000               0.000000000               0.000000000               0.000000000               0.000285635               0.002525649              -0.000056760              -0.000208593               0.000911405               0.000702813               0.000000000               0.000000000               0.000000000               0.000000000               0.000244265               0.002510865              -0.000049900              -0.000222258               0.000911033               0.000688774               0.000000000               0.000000000               0.000000000               0.000000000               0.000203744               0.002505104              -0.000045553              -0.000236733               0.000913937               0.000677204               0.000000000               0.000000000               0.000000000               0.000000000               0.000166694               0.002507760              -0.000041705              -0.000250959               0.000919565               0.000668605               0.000000000               0.000000000               0.000000000               0.000000000               0.000132685               0.002519285              -0.000034602              -0.000265153               0.000928138               0.000662984               0.000000000               0.000000000               0.000000000               0.000000000               0.000099314               0.002534266              -0.000023876              -0.000279540               0.000937927               0.000658387               0.000000000               0.000000000               0.000000000               0.000000000               0.000067351               0.002549962              -0.000017250              -0.000293488               0.000947808               0.000654320               0.000000000               0.000000000               0.000000000               0.000000000               0.000039499               0.002558801              -0.000015112              -0.000305037               0.000954604               0.000649567               0.000000000               0.000000000               0.000000000               0.000000000               0.000018725               0.002561307              -0.000008697              -0.000313141               0.000958141               0.000645000               0.000000000               0.000000000               0.000000000               0.000000000               0.000011634               0.002565065              -0.000004386              -0.000316269               0.000960436               0.000644167               0.000000000               0.000000000               0.000000000               0.000000000               0.000864817               0.003300186              -0.001268137              -0.000088218               0.001129457               0.001041239               0.000000000               0.000000000               0.000000000               0.000000000               0.000614479               0.002956170              -0.000862833              -0.000139092               0.001031744               0.000892652               0.000000000               0.000000000               0.000000000               0.000000000               0.000484727               0.002794040              -0.000454052              -0.000167482               0.000987165               0.000819682               0.000000000               0.000000000               0.000000000               0.000000000               0.000404194               0.002680704              -0.000275769              -0.000183515               0.000954731               0.000771216               0.000000000               0.000000000               0.000000000               0.000000000               0.000347803               0.002606151              -0.000187854              -0.000195342               0.000933822               0.000738480               0.000000000               0.000000000               0.000000000               0.000000000               0.000304093               0.002554054              -0.000142807              -0.000205221               0.000919750               0.000714529               0.000000000               0.000000000               0.000000000               0.000000000               0.000265628               0.002519394              -0.000116493              -0.000215313               0.000911561               0.000696247               0.000000000               0.000000000               0.000000000               0.000000000               0.000231668               0.002500782              -0.000099087              -0.000225722               0.000908826               0.000683105               0.000000000               0.000000000               0.000000000               0.000000000               0.000202473               0.002492307              -0.000085834              -0.000235610               0.000909298               0.000673687               0.000000000               0.000000000               0.000000000               0.000000000               0.000171518               0.002489787              -0.000073645              -0.000246903               0.000912222               0.000665318               0.000000000               0.000000000               0.000000000               0.000000000               0.000139042               0.002496071              -0.000061935              -0.000259867               0.000918638               0.000658770               0.000000000               0.000000000               0.000000000               0.000000000               0.000107046               0.002508921              -0.000049034              -0.000273472               0.000927456               0.000653984               0.000000000               0.000000000               0.000000000               0.000000000               0.000078032               0.002521423              -0.000033939              -0.000285915               0.000935771               0.000649856               0.000000000               0.000000000               0.000000000               0.000000000               0.000055939               0.002529381              -0.000025731              -0.000295195               0.000941517               0.000646322               0.000000000               0.000000000               0.000000000               0.000000000               0.000036826               0.002528689              -0.000024645              -0.000302276               0.000943646               0.000641371               0.000000000               0.000000000               0.000000000               0.000000000               0.000018708               0.002525061              -0.000015770              -0.000308616               0.000944551               0.000635934               0.000000000               0.000000000               0.000000000               0.000000000               0.000011539               0.002525832              -0.000008781              -0.000311401               0.000945736               0.000634335               0.000000000               0.000000000               0.000000000               0.000000000               0.000934212               0.002821135              -0.001282721              -0.000002314               0.000941140               0.000938826               0.000000000               0.000000000               0.000000000               0.000000000               0.000623446               0.002641149              -0.000899513              -0.000096352               0.000912491               0.000816139               0.000000000               0.000000000               0.000000000               0.000000000               0.000423287               0.002626896              -0.000509410              -0.000169629               0.000932166               0.000762537               0.000000000               0.000000000               0.000000000               0.000000000               0.000333595               0.002580427              -0.000336510              -0.000197455               0.000925952               0.000728497               0.000000000               0.000000000               0.000000000               0.000000000               0.000282429               0.002539032              -0.000247443              -0.000211468               0.000916825               0.000705357               0.000000000               0.000000000               0.000000000               0.000000000               0.000246131               0.002505295              -0.000198070              -0.000220862               0.000908711               0.000687849               0.000000000               0.000000000               0.000000000               0.000000000               0.000218741               0.002485122              -0.000164048              -0.000228612               0.000904570               0.000675958               0.000000000               0.000000000               0.000000000               0.000000000               0.000194643               0.002474250              -0.000135843              -0.000236290               0.000903505               0.000667215               0.000000000               0.000000000               0.000000000               0.000000000               0.000173100               0.002470995              -0.000113692              -0.000243961               0.000904977               0.000661016               0.000000000               0.000000000               0.000000000               0.000000000               0.000145611               0.002472283              -0.000092595              -0.000254431               0.000908896               0.000654466               0.000000000               0.000000000               0.000000000               0.000000000               0.000114556               0.002482547              -0.000071979              -0.000267359               0.000916627               0.000649268               0.000000000               0.000000000               0.000000000               0.000000000               0.000086024               0.002496730              -0.000053267              -0.000279831               0.000925512               0.000645681               0.000000000               0.000000000               0.000000000               0.000000000               0.000063866               0.002508901              -0.000035992              -0.000289662               0.000932846               0.000643184               0.000000000               0.000000000               0.000000000               0.000000000               0.000049973               0.002514649              -0.000027632              -0.000295591               0.000936738               0.000641148               0.000000000               0.000000000               0.000000000               0.000000000               0.000037767               0.002517529              -0.000027045              -0.000300528               0.000939344               0.000638816               0.000000000               0.000000000               0.000000000               0.000000000               0.000020476               0.002524722              -0.000017833              -0.000307911               0.000944202               0.000636291               0.000000000               0.000000000               0.000000000               0.000000000               0.000014432               0.002534731              -0.000011598              -0.000311429               0.000948712               0.000637283               0.000000000               0.000000000               0.000000000               0.000000000               0.000962939               0.002356154              -0.001227976               0.000066581               0.000763183               0.000829764               0.000000000               0.000000000               0.000000000               0.000000000               0.000617757               0.002341917              -0.000901924              -0.000061082               0.000800991               0.000739910               0.000000000               0.000000000               0.000000000               0.000000000               0.000371885               0.002466288              -0.000558073              -0.000168829               0.000878364               0.000709535               0.000000000               0.000000000               0.000000000               0.000000000               0.000282067               0.002480412              -0.000394633              -0.000204276               0.000894888               0.000690612               0.000000000               0.000000000               0.000000000               0.000000000               0.000236586               0.002468724              -0.000303395              -0.000219870               0.000896190               0.000676319               0.000000000               0.000000000               0.000000000               0.000000000               0.000207914               0.002454669              -0.000245651              -0.000228865               0.000894503               0.000665638               0.000000000               0.000000000               0.000000000               0.000000000               0.000190311               0.002449134              -0.000200621              -0.000234775               0.000894628               0.000659853               0.000000000               0.000000000               0.000000000               0.000000000               0.000171923               0.002447081              -0.000162196              -0.000241414               0.000896157               0.000654743               0.000000000               0.000000000               0.000000000               0.000000000               0.000150670               0.002450035              -0.000130979              -0.000249752               0.000899921               0.000650168               0.000000000               0.000000000               0.000000000               0.000000000               0.000124277               0.002461099              -0.000101975              -0.000261033               0.000907369               0.000646336               0.000000000               0.000000000               0.000000000               0.000000000               0.000098475               0.002479197              -0.000073382              -0.000272971               0.000917381               0.000644410               0.000000000               0.000000000               0.000000000               0.000000000               0.000077921               0.002498833              -0.000049573              -0.000283133               0.000927314               0.000644181               0.000000000               0.000000000               0.000000000               0.000000000               0.000063945               0.002515701              -0.000033097              -0.000290483               0.000935386               0.000644903               0.000000000               0.000000000               0.000000000               0.000000000               0.000055138               0.002529006              -0.000027102              -0.000295448               0.000941476               0.000646028               0.000000000               0.000000000               0.000000000               0.000000000               0.000042633               0.002549240              -0.000026294              -0.000302667               0.000950627               0.000647960               0.000000000               0.000000000               0.000000000               0.000000000               0.000023497               0.002577255              -0.000017588              -0.000313345               0.000963525               0.000650180               0.000000000               0.000000000               0.000000000               0.000000000               0.000016666               0.002598914              -0.000012992              -0.000318614               0.000972500               0.000653887               0.000000000               0.000000000               0.000000000               0.000000000               0.000965167               0.001941354              -0.001126018               0.000119266               0.000607356               0.000726622               0.000000000               0.000000000               0.000000000               0.000000000               0.000618211               0.002073142              -0.000887143              -0.000027315               0.000700145               0.000672830               0.000000000               0.000000000               0.000000000               0.000000000               0.000350429               0.002320966              -0.000613066              -0.000158710               0.000826551               0.000667841               0.000000000               0.000000000               0.000000000               0.000000000               0.000260295               0.002389841              -0.000456881              -0.000201119               0.000863645               0.000662526               0.000000000               0.000000000               0.000000000               0.000000000               0.000216348               0.002407806              -0.000359681              -0.000219845               0.000875875               0.000656031               0.000000000               0.000000000               0.000000000               0.000000000               0.000192214               0.002414613              -0.000291315              -0.000229746               0.000881445               0.000651699               0.000000000               0.000000000               0.000000000               0.000000000               0.000178783               0.002423566              -0.000236400              -0.000235902               0.000886481               0.000650579               0.000000000               0.000000000               0.000000000               0.000000000               0.000166250               0.002433354              -0.000190490              -0.000241825               0.000891718               0.000649893               0.000000000               0.000000000               0.000000000               0.000000000               0.000146482               0.002447047              -0.000150268              -0.000250950               0.000899324               0.000648375               0.000000000               0.000000000               0.000000000               0.000000000               0.000120896               0.002470517              -0.000114672              -0.000263478               0.000911323               0.000647846               0.000000000               0.000000000               0.000000000               0.000000000               0.000098909               0.002498836              -0.000082386              -0.000275263               0.000924691               0.000649428               0.000000000               0.000000000               0.000000000               0.000000000               0.000085005               0.002524575              -0.000057391              -0.000283694               0.000936081               0.000652387               0.000000000               0.000000000               0.000000000               0.000000000               0.000076431               0.002542815              -0.000040118              -0.000289190               0.000943993               0.000654804               0.000000000               0.000000000               0.000000000               0.000000000               0.000068887               0.002565854              -0.000028847              -0.000294898               0.000953575               0.000658677               0.000000000               0.000000000               0.000000000               0.000000000               0.000055783               0.002604656              -0.000021632              -0.000304663               0.000969764               0.000665102               0.000000000               0.000000000               0.000000000               0.000000000               0.000039450               0.002654868              -0.000013317              -0.000317064               0.000990635               0.000673571               0.000000000               0.000000000               0.000000000               0.000000000               0.000028365               0.002681598              -0.000007483              -0.000324562               0.001002044               0.000677482               0.000000000               0.000000000               0.000000000               0.000000000               0.000934667               0.001531670              -0.001000171               0.000159039               0.000457538               0.000616577               0.000000000               0.000000000               0.000000000               0.000000000               0.000633830               0.001755854              -0.000864695               0.000018203               0.000579211               0.000597414               0.000000000               0.000000000               0.000000000               0.000000000               0.000370298               0.002093214              -0.000679230              -0.000122790               0.000738661               0.000615871               0.000000000               0.000000000               0.000000000               0.000000000               0.000274633               0.002226636              -0.000533850              -0.000175342               0.000800652               0.000625310               0.000000000               0.000000000               0.000000000               0.000000000               0.000227087               0.002287073              -0.000430386              -0.000200726               0.000829259               0.000628532               0.000000000               0.000000000               0.000000000               0.000000000               0.000198960               0.002322933              -0.000352842              -0.000215756               0.000846222               0.000630466               0.000000000               0.000000000               0.000000000               0.000000000               0.000183805               0.002351797              -0.000290442              -0.000225047               0.000858940               0.000633893               0.000000000               0.000000000               0.000000000               0.000000000               0.000172853               0.002377096              -0.000237509              -0.000232317               0.000869796               0.000637480               0.000000000               0.000000000               0.000000000               0.000000000               0.000156868               0.002404837              -0.000189162              -0.000241778               0.000882197               0.000640419               0.000000000               0.000000000               0.000000000               0.000000000               0.000136691               0.002438735              -0.000150106              -0.000253582               0.000897431               0.000643849               0.000000000               0.000000000               0.000000000               0.000000000               0.000117756               0.002478432              -0.000118614              -0.000265645               0.000914684               0.000649039               0.000000000               0.000000000               0.000000000               0.000000000               0.000105448               0.002516916              -0.000093248              -0.000275071               0.000930654               0.000655583               0.000000000               0.000000000               0.000000000               0.000000000               0.000098479               0.002552721              -0.000069891              -0.000282160               0.000944952               0.000662792               0.000000000               0.000000000               0.000000000               0.000000000               0.000092511               0.002591511              -0.000046195              -0.000289247               0.000960244               0.000670997               0.000000000               0.000000000               0.000000000               0.000000000               0.000081173               0.002638851              -0.000027217              -0.000299416               0.000979413               0.000679998               0.000000000               0.000000000               0.000000000               0.000000000               0.000064690               0.002695882              -0.000012333              -0.000312726               0.001002860               0.000690134               0.000000000               0.000000000               0.000000000               0.000000000               0.000047054               0.002718233              -0.000001727              -0.000322133               0.001013446               0.000691313               0.000000000               0.000000000               0.000000000               0.000000000               0.000862660               0.001144692              -0.000851749               0.000180409               0.000321423               0.000501832               0.000000000               0.000000000               0.000000000               0.000000000               0.000650118               0.001432930              -0.000818326               0.000064676               0.000456079               0.000520756               0.000000000               0.000000000               0.000000000               0.000000000               0.000422888               0.001829983              -0.000727107              -0.000070166               0.000633376               0.000563211               0.000000000               0.000000000               0.000000000               0.000000000               0.000323552               0.002025935              -0.000607262              -0.000131910               0.000719275               0.000587365               0.000000000               0.000000000               0.000000000               0.000000000               0.000269004               0.002135325              -0.000504061              -0.000166039               0.000767114               0.000601075               0.000000000               0.000000000               0.000000000               0.000000000               0.000232534               0.002205602              -0.000421434              -0.000188500               0.000798027               0.000609527               0.000000000               0.000000000               0.000000000               0.000000000               0.000211553               0.002259121              -0.000355264              -0.000203057               0.000820719               0.000617661               0.000000000               0.000000000               0.000000000               0.000000000               0.000198989               0.002305843              -0.000295541              -0.000213609               0.000839810               0.000626200               0.000000000               0.000000000               0.000000000               0.000000000               0.000186288               0.002349833              -0.000242077              -0.000223871               0.000857893               0.000634023               0.000000000               0.000000000               0.000000000               0.000000000               0.000170694               0.002394029              -0.000200781              -0.000235243               0.000876416               0.000641173               0.000000000               0.000000000               0.000000000               0.000000000               0.000156078               0.002440962              -0.000169806              -0.000246590               0.000895842               0.000649252               0.000000000               0.000000000               0.000000000               0.000000000               0.000143253               0.002491028              -0.000142190              -0.000257658               0.000916220               0.000658562               0.000000000               0.000000000               0.000000000               0.000000000               0.000130768               0.002544178              -0.000111158              -0.000268984               0.000937712               0.000668728               0.000000000               0.000000000               0.000000000               0.000000000               0.000119106               0.002597893              -0.000076695              -0.000280071               0.000959313               0.000679242               0.000000000               0.000000000               0.000000000               0.000000000               0.000108603               0.002653966              -0.000045602              -0.000291019               0.000981653               0.000690634               0.000000000               0.000000000               0.000000000               0.000000000               0.000090566               0.002708123              -0.000019988              -0.000304552               0.001004216               0.000699664               0.000000000               0.000000000               0.000000000               0.000000000               0.000069331               0.002726363              -0.000004655              -0.000314795               0.001013710               0.000698915               0.000000000               0.000000000               0.000000000               0.000000000               0.000754106               0.000804764              -0.000683325               0.000182192               0.000207521               0.000389713               0.000000000               0.000000000               0.000000000               0.000000000               0.000648341               0.001117782              -0.000734363               0.000103403               0.000338122               0.000441526               0.000000000               0.000000000               0.000000000               0.000000000               0.000489081               0.001534721              -0.000728529              -0.000008436               0.000514380               0.000505944               0.000000000               0.000000000               0.000000000               0.000000000               0.000400081               0.001778384              -0.000643362              -0.000072268               0.000616878               0.000544610               0.000000000               0.000000000               0.000000000               0.000000000               0.000339963               0.001932878              -0.000551858              -0.000114124               0.000682327               0.000568203               0.000000000               0.000000000               0.000000000               0.000000000               0.000297805               0.002042156              -0.000472028              -0.000143593               0.000728576               0.000584983               0.000000000               0.000000000               0.000000000               0.000000000               0.000267341               0.002127466              -0.000405126              -0.000165680               0.000764375               0.000598695               0.000000000               0.000000000               0.000000000               0.000000000               0.000247147               0.002198794              -0.000343400              -0.000182169               0.000793647               0.000611478               0.000000000               0.000000000               0.000000000               0.000000000               0.000233674               0.002262230              -0.000287319              -0.000195150               0.000819119               0.000623969               0.000000000               0.000000000               0.000000000               0.000000000               0.000218188               0.002321238              -0.000245511              -0.000208334               0.000843183               0.000634849               0.000000000               0.000000000               0.000000000               0.000000000               0.000203378               0.002378761              -0.000215225              -0.000221078               0.000866605               0.000645527               0.000000000               0.000000000               0.000000000               0.000000000               0.000189814               0.002441604              -0.000184504              -0.000234020               0.000891866               0.000657847               0.000000000               0.000000000               0.000000000               0.000000000               0.000175133               0.002513008              -0.000146696              -0.000248451               0.000920478               0.000672027               0.000000000               0.000000000               0.000000000               0.000000000               0.000157453               0.002586283              -0.000106743              -0.000264240               0.000950166               0.000685926               0.000000000               0.000000000               0.000000000               0.000000000               0.000139304               0.002655864              -0.000068953              -0.000279743               0.000978527               0.000698784               0.000000000               0.000000000               0.000000000               0.000000000               0.000119336               0.002715661              -0.000033059              -0.000294706               0.001003447               0.000708741               0.000000000               0.000000000               0.000000000               0.000000000               0.000095945               0.002733474              -0.000011764              -0.000305704               0.001013050               0.000707346               0.000000000               0.000000000               0.000000000               0.000000000               0.000616961               0.000525291              -0.000510927               0.000165697               0.000119862               0.000285559               0.000000000               0.000000000               0.000000000               0.000000000               0.000631817               0.000828730              -0.000618091               0.000133338               0.000231794               0.000365133               0.000000000               0.000000000               0.000000000               0.000000000               0.000561056               0.001231051              -0.000676456               0.000056513               0.000391508               0.000448022               0.000000000               0.000000000               0.000000000               0.000000000               0.000494079               0.001502443              -0.000627030              -0.000002527               0.000501651               0.000499125               0.000000000               0.000000000               0.000000000               0.000000000               0.000435705               0.001694459              -0.000555811              -0.000048418               0.000580953               0.000532535               0.000000000               0.000000000               0.000000000               0.000000000               0.000388274               0.001842267              -0.000486971              -0.000084681               0.000642310               0.000557629               0.000000000               0.000000000               0.000000000               0.000000000               0.000349470               0.001961512              -0.000424892              -0.000114138               0.000691877               0.000577739               0.000000000               0.000000000               0.000000000               0.000000000               0.000319012               0.002059680              -0.000366836              -0.000137830               0.000732496               0.000594666               0.000000000               0.000000000               0.000000000               0.000000000               0.000299273               0.002148623              -0.000313021              -0.000156350               0.000768317               0.000611967               0.000000000               0.000000000               0.000000000               0.000000000               0.000281116               0.002229150              -0.000272164              -0.000173225               0.000800784               0.000627559               0.000000000               0.000000000               0.000000000               0.000000000               0.000257798               0.002301462              -0.000242842              -0.000191008               0.000830816               0.000639807               0.000000000               0.000000000               0.000000000               0.000000000               0.000238722               0.002379063              -0.000212149              -0.000207862               0.000862300               0.000654439               0.000000000               0.000000000               0.000000000               0.000000000               0.000223346               0.002464747              -0.000172120              -0.000224338               0.000896354               0.000672015               0.000000000               0.000000000               0.000000000               0.000000000               0.000206896               0.002551900              -0.000127616              -0.000241401               0.000931092               0.000689691               0.000000000               0.000000000               0.000000000               0.000000000               0.000187130               0.002635250              -0.000087757              -0.000259232               0.000964819               0.000705587               0.000000000               0.000000000               0.000000000               0.000000000               0.000164168               0.002705245              -0.000047678              -0.000276592               0.000993936               0.000717345               0.000000000               0.000000000               0.000000000               0.000000000               0.000139298               0.002727737              -0.000021939              -0.000288730               0.001005480               0.000716750               0.000000000               0.000000000               0.000000000               0.000000000               0.000465880               0.000312575              -0.000350546               0.000135631               0.000058980               0.000194611               0.000000000               0.000000000               0.000000000               0.000000000               0.000600280               0.000584787              -0.000478429               0.000152005               0.000144258               0.000296263               0.000000000               0.000000000               0.000000000               0.000000000               0.000627165               0.000948811              -0.000568127               0.000116584               0.000277406               0.000393990               0.000000000               0.000000000               0.000000000               0.000000000               0.000592780               0.001229110              -0.000549659               0.000068653               0.000386815               0.000455468               0.000000000               0.000000000               0.000000000               0.000000000               0.000542003               0.001448728              -0.000501747               0.000022159               0.000475518               0.000497677               0.000000000               0.000000000               0.000000000               0.000000000               0.000489658               0.001628971              -0.000448663              -0.000020000               0.000549652               0.000529652               0.000000000               0.000000000               0.000000000               0.000000000               0.000442945               0.001779219              -0.000398053              -0.000056298               0.000611833               0.000555535               0.000000000               0.000000000               0.000000000               0.000000000               0.000401618               0.001905706              -0.000350066              -0.000087606               0.000664431               0.000576825               0.000000000               0.000000000               0.000000000               0.000000000               0.000372016               0.002022329              -0.000304631              -0.000113285               0.000711865               0.000598580               0.000000000               0.000000000               0.000000000               0.000000000               0.000347982               0.002130811              -0.000266012              -0.000135858               0.000755549               0.000619691               0.000000000               0.000000000               0.000000000               0.000000000               0.000319017               0.002222874              -0.000238631              -0.000158227               0.000793693               0.000635466               0.000000000               0.000000000               0.000000000               0.000000000               0.000291185               0.002310390              -0.000212637              -0.000179604               0.000829990               0.000650386               0.000000000               0.000000000               0.000000000               0.000000000               0.000273879               0.002404186              -0.000177428              -0.000197818               0.000867327               0.000669509               0.000000000               0.000000000               0.000000000               0.000000000               0.000264373               0.002500922              -0.000136879              -0.000213475               0.000904791               0.000691316               0.000000000               0.000000000               0.000000000               0.000000000               0.000256154               0.002599038              -0.000097627              -0.000228822               0.000942611               0.000713790               0.000000000               0.000000000               0.000000000               0.000000000               0.000237759               0.002686835              -0.000053655              -0.000246694               0.000977834               0.000731140               0.000000000               0.000000000               0.000000000               0.000000000               0.000215948               0.002720845              -0.000026576              -0.000259124               0.000993314               0.000734190               0.000000000               0.000000000               0.000000000               0.000000000               0.000330622               0.000170821              -0.000212194               0.000102629               0.000022730               0.000125359               0.000000000               0.000000000               0.000000000               0.000000000               0.000562475               0.000400737              -0.000323785               0.000160834               0.000079966               0.000240800               0.000000000               0.000000000               0.000000000               0.000000000               0.000676728               0.000717439              -0.000410367               0.000164092               0.000184447               0.000348538               0.000000000               0.000000000               0.000000000               0.000000000               0.000680022               0.000997344              -0.000410350               0.000130339               0.000288998               0.000419337               0.000000000               0.000000000               0.000000000               0.000000000               0.000640767               0.001232645              -0.000383148               0.000086206               0.000382142               0.000468348               0.000000000               0.000000000               0.000000000               0.000000000               0.000588228               0.001434697              -0.000349023               0.000041248               0.000464478               0.000505726               0.000000000               0.000000000               0.000000000               0.000000000               0.000533760               0.001611575              -0.000313664              -0.000001287               0.000537615               0.000536328               0.000000000               0.000000000               0.000000000               0.000000000               0.000481842               0.001763474              -0.000279702              -0.000039744               0.000601067               0.000561323               0.000000000               0.000000000               0.000000000               0.000000000               0.000439945               0.001901421              -0.000247148              -0.000072698               0.000658033               0.000585335               0.000000000               0.000000000               0.000000000               0.000000000               0.000410001               0.002030770              -0.000216657              -0.000100096               0.000710282               0.000610186               0.000000000               0.000000000               0.000000000               0.000000000               0.000379535               0.002140497              -0.000192490              -0.000125236               0.000755237               0.000630001               0.000000000               0.000000000               0.000000000               0.000000000               0.000347104               0.002238888              -0.000173785              -0.000149697               0.000796187               0.000646491               0.000000000               0.000000000               0.000000000               0.000000000               0.000328490               0.002339521              -0.000152299              -0.000169256               0.000836251               0.000666995               0.000000000               0.000000000               0.000000000               0.000000000               0.000325742               0.002445629              -0.000121872              -0.000183550               0.000876385               0.000692835               0.000000000               0.000000000               0.000000000               0.000000000               0.000325721               0.002558071              -0.000083933              -0.000197613               0.000918553               0.000720940               0.000000000               0.000000000               0.000000000               0.000000000               0.000328103               0.002667835              -0.000043272              -0.000210440               0.000959416               0.000748976               0.000000000               0.000000000               0.000000000               0.000000000               0.000326817               0.002717328              -0.000021965              -0.000217109               0.000978137               0.000761027               0.000000000               0.000000000               0.000000000               0.000000000               0.000239961               0.000091486              -0.000099793               0.000078549               0.000004312               0.000082861               0.000000000               0.000000000               0.000000000               0.000000000               0.000535097               0.000288208              -0.000163320               0.000164634               0.000041190               0.000205824               0.000000000               0.000000000               0.000000000               0.000000000               0.000707311               0.000567792              -0.000215327               0.000194266               0.000124507               0.000318772               0.000000000               0.000000000               0.000000000               0.000000000               0.000736784               0.000839689              -0.000220059               0.000171331               0.000222783               0.000394114               0.000000000               0.000000000               0.000000000               0.000000000               0.000709460               0.001082534              -0.000208582               0.000130730               0.000317265               0.000447994               0.000000000               0.000000000               0.000000000               0.000000000               0.000660074               0.001298133              -0.000192111               0.000085260               0.000404287               0.000489547               0.000000000               0.000000000               0.000000000               0.000000000               0.000602956               0.001491006              -0.000173015               0.000039732               0.000483753               0.000523485               0.000000000               0.000000000               0.000000000               0.000000000               0.000546697               0.001659783              -0.000155206              -0.000002461               0.000554076               0.000551614               0.000000000               0.000000000               0.000000000               0.000000000               0.000495279               0.001808114              -0.000139628              -0.000040285               0.000616127               0.000575842               0.000000000               0.000000000               0.000000000               0.000000000               0.000455494               0.001947713              -0.000122769              -0.000072654               0.000673449               0.000600795               0.000000000               0.000000000               0.000000000               0.000000000               0.000423599               0.002074875              -0.000105818              -0.000100509               0.000725121               0.000624612               0.000000000               0.000000000               0.000000000               0.000000000               0.000395438               0.002188427              -0.000096857              -0.000125264               0.000771223               0.000645959               0.000000000               0.000000000               0.000000000               0.000000000               0.000372845               0.002295269              -0.000092323              -0.000147092               0.000814113               0.000667021               0.000000000               0.000000000               0.000000000               0.000000000               0.000363214               0.002403161              -0.000073631              -0.000164190               0.000855775               0.000691586               0.000000000               0.000000000               0.000000000               0.000000000               0.000371342               0.002517750              -0.000046240              -0.000175465               0.000897730               0.000722265               0.000000000               0.000000000               0.000000000               0.000000000               0.000400775               0.002641321              -0.000023752              -0.000179874               0.000940389               0.000760515               0.000000000               0.000000000               0.000000000               0.000000000               0.000422769               0.002704938              -0.000013111              -0.000179578               0.000961496               0.000781918               0.000000000               0.000000000               0.000000000               0.000000000               0.000000000               0.000000000               0.000000000               0.000000000               0.000000000               0.000000000               0.000000000               0.000000000               0.000000000               0.000000000               0.000000000               0.000000000               0.000000000               0.000000000               0.000000000               0.000000000               0.000000000               0.000000000               0.000000000               0.000000000               0.000000000               0.000000000               0.000000000               0.000000000               0.000000000               0.000000000               0.000000000               0.000000000               0.000000000               0.000000000               0.000000000               0.000000000               0.000000000               0.000000000               0.000000000               0.000000000               0.000000000               0.000000000               0.000000000               0.000000000               0.000000000               0.000000000               0.000000000               0.000000000               0.000000000               0.000000000               0.000000000               0.000000000               0.000000000               0.000000000               0.000000000               0.000000000               0.000000000               0.000000000               0.000000000               0.000000000               0.000000000               0.000000000               0.000000000               0.000000000               0.000000000               0.000000000               0.000000000               0.000000000               0.000000000               0.000000000               0.000000000               0.000000000               0.000000000               0.000000000               0.000000000               0.000000000               0.000000000               0.000000000               0.000000000               0.000000000               0.000000000               0.000000000               0.000000000               0.000000000               0.000000000               0.000000000               0.000000000               0.000000000               0.000000000               0.000000000               0.000000000               0.000000000               0.000000000               0.000000000               0.000000000               0.000000000               0.000000000               0.000000000               0.000000000               0.000000000               0.000000000               0.000000000               0.000000000               0.000000000               0.000000000               0.000000000               0.000000000               0.000000000               0.000000000               0.000000000               0.000000000               0.000000000               0.000000000               0.000000000               0.000000000               0.000000000               0.000000000               0.000000000               0.000000000               0.000000000               0.000000000               0.000000000               0.000000000               0.000000000               0.000000000               0.000000000               0.000000000               0.000000000               0.000000000               0.000000000               0.000000000               0.000000000               0.000000000               0.000000000               0.000000000               0.000000000               0.000000000               0.000000000               0.000000000               0.000000000               0.000000000               0.000000000               0.000000000               0.000000000               0.000000000               0.000000000               0.000000000               0.000000000               0.000000000               0.000000000               0.000000000               0.000000000               0.000000000               0.000000000               0.000000000               0.000000000               0.000000000               0.000000000               0.000000000               0.000000000               0.000000000               0.000000000               0.000000000               0.000000000               0.000000000               0.000000000               0.000000000               0.000000000               0.000000000               0.000000000               0.000000000               0.000000000               0.000000000               0.000000000               0.000000000               0.000000000               0.000000000               0.000000000               0.000000000               0.000000000               0.000000000               0.000000000               0.000000000               0.000000000               0.000000000               0.000000000               0.000000000               0.000000000               0.000000000               0.000000000               0.000000000               0.000000000               0.000000000               0.000000000               0.000000000               0.000000000               0.000000000               0.000000000               0.000000000               0.000000000               0.000000000               0.000000000               0.000000000               0.000000000               0.000000000               0.000000000               0.000000000               0.000000000               0.000000000               0.000000000               0.000000000               0.000000000               0.000000000               0.000000000               0.000000000               0.000000000               0.000000000               0.000000000               0.000000000               0.000000000               0.000000000               0.000000000               0.000000000               0.000000000               0.000000000               0.000000000               0.000000000               0.000000000               0.000000000               0.000000000               0.000000000               0.000000000               0.000000000               0.000000000               0.000000000               0.000000000               0.000000000               0.000000000               0.000000000               0.000000000               0.000000000               0.000000000               0.000000000               0.000000000               0.000000000               0.000000000               0.000000000               0.000000000               0.000000000               0.000000000               0.000000000               0.000000000               0.000000000               0.000000000               0.000000000               0.000000000               0.000000000               0.000000000               0.000000000               0.000000000               0.000000000               0.000000000               0.000000000               0.000000000               0.000000000               0.000000000               0.000000000               0.000000000               0.000000000               0.000000000               0.000000000               0.000000000               0.000000000               0.000000000               0.000000000               0.000000000               0.000000000               0.000000000               0.000000000               0.000000000               0.000000000               0.000000000               0.000000000               0.000000000               0.000000000               0.000000000               0.000000000               0.000000000               0.000000000               0.000000000               0.000000000               0.000000000               0.000000000               0.000000000               0.000000000               0.000000000               0.000000000               0.000000000               0.000000000               0.000000000               0.000000000               0.000000000               0.000000000               0.000000000               0.000000000               0.000000000               0.000000000               0.000000000               0.000000000               0.000000000               0.000000000               0.000000000               0.000000000               0.000000000               0.000000000               0.000000000               0.000000000               0.000000000               0.000000000               0.000000000               0.000000000               0.000000000               0.000000000               0.000000000               0.000000000               0.000000000               0.000000000               0.000000000               0.000000000               0.000000000               0.000000000               0.000000000               0.000000000               0.000000000               0.000000000               0.000000000               0.000000000               0.000000000               0.000000000               0.000000000               0.000000000               0.000000000               0.000000000               0.000000000               0.000436271               0.004727798               0.000373208              -0.000427372               0.001718374               0.001291002               0.000000000               0.000000000               0.000000000               0.000000000               0.000473389               0.003952912               0.000248234              -0.000316592               0.001423155               0.001106563               0.000000000               0.000000000               0.000000000               0.000000000               0.000648065               0.003333100               0.000116647              -0.000173613               0.001168893               0.000995280               0.000000000               0.000000000               0.000000000               0.000000000               0.000673148               0.002992644               0.000052329              -0.000121650               0.001038088               0.000916438               0.000000000               0.000000000               0.000000000               0.000000000               0.000642254               0.002794517               0.000020315              -0.000108469               0.000967653               0.000859184               0.000000000               0.000000000               0.000000000               0.000000000               0.000593125               0.002676572               0.000004860              -0.000112149               0.000929565               0.000817416               0.000000000               0.000000000               0.000000000               0.000000000               0.000533191               0.002606742              -0.000002537              -0.000125896               0.000910870               0.000784975               0.000000000               0.000000000               0.000000000               0.000000000               0.000467826               0.002564347              -0.000006647              -0.000145108               0.000903143               0.000758035               0.000000000               0.000000000               0.000000000               0.000000000               0.000403332               0.002541254              -0.000007618              -0.000166407               0.000902545               0.000736138               0.000000000               0.000000000               0.000000000               0.000000000               0.000342685               0.002531734              -0.000006487              -0.000187959               0.000906556               0.000718597               0.000000000               0.000000000               0.000000000               0.000000000               0.000286079               0.002531493              -0.000004945              -0.000209157               0.000913541               0.000704385               0.000000000               0.000000000               0.000000000               0.000000000               0.000232692               0.002538078              -0.000004927              -0.000230000               0.000922684               0.000692685               0.000000000               0.000000000               0.000000000               0.000000000               0.000181104               0.002551102              -0.000005339              -0.000250973               0.000934017               0.000683043               0.000000000               0.000000000               0.000000000               0.000000000               0.000132038               0.002569167              -0.000005754              -0.000271631               0.000946924               0.000675293               0.000000000               0.000000000               0.000000000               0.000000000               0.000086299               0.002592689              -0.000009069              -0.000291723               0.000961462               0.000669739               0.000000000               0.000000000               0.000000000               0.000000000               0.000041924               0.002620221              -0.000008104              -0.000311805               0.000977333               0.000665528               0.000000000               0.000000000               0.000000000               0.000000000               0.000022826               0.002641479              -0.000004158              -0.000321624               0.000987692               0.000666068               0.000000000               0.000000000               0.000000000               0.000000000               0.000520884               0.004513721               0.000709356              -0.000368883               0.001627520               0.001258636               0.000000000               0.000000000               0.000000000               0.000000000               0.000507363               0.003796665               0.000472064              -0.000284321               0.001360316               0.001075995               0.000000000               0.000000000               0.000000000               0.000000000               0.000628481               0.003245341               0.000223855              -0.000169987               0.001138432               0.000968445               0.000000000               0.000000000               0.000000000               0.000000000               0.000631196               0.002943946               0.000105484              -0.000131294               0.001025070               0.000893776               0.000000000               0.000000000               0.000000000               0.000000000               0.000590705               0.002767569               0.000047399              -0.000124431               0.000963991               0.000839560               0.000000000               0.000000000               0.000000000               0.000000000               0.000537226               0.002663129               0.000017917              -0.000131431               0.000931511               0.000800080               0.000000000               0.000000000               0.000000000               0.000000000               0.000478772               0.002600510               0.000004274              -0.000145524               0.000915336               0.000769812               0.000000000               0.000000000               0.000000000               0.000000000               0.000418925               0.002562415              -0.000000898              -0.000163205               0.000908531               0.000745327               0.000000000               0.000000000               0.000000000               0.000000000               0.000358388               0.002539882              -0.000002553              -0.000183089               0.000907648               0.000724559               0.000000000               0.000000000               0.000000000               0.000000000               0.000303159               0.002530368              -0.000001717              -0.000202611               0.000910985               0.000708374               0.000000000               0.000000000               0.000000000               0.000000000               0.000252677               0.002529582               0.000000401              -0.000221443               0.000917000               0.000695557               0.000000000               0.000000000               0.000000000               0.000000000               0.000202627               0.002534769              -0.000000050              -0.000240860               0.000925201               0.000684341               0.000000000               0.000000000               0.000000000               0.000000000               0.000155759               0.002547715              -0.000001921              -0.000260054               0.000935914               0.000675860               0.000000000               0.000000000               0.000000000               0.000000000               0.000111919               0.002566647              -0.000003661              -0.000278861               0.000948494               0.000669633               0.000000000               0.000000000               0.000000000               0.000000000               0.000071035               0.002588562              -0.000008331              -0.000296931               0.000961822               0.000664891               0.000000000               0.000000000               0.000000000               0.000000000               0.000034125               0.002613138              -0.000008761              -0.000313845               0.000975652               0.000661808               0.000000000               0.000000000               0.000000000               0.000000000               0.000020015               0.002634218              -0.000004842              -0.000321771               0.000985321               0.000663550               0.000000000               0.000000000               0.000000000               0.000000000               0.000636579               0.004185039               0.000980192              -0.000284413               0.001489803               0.001205390               0.000000000               0.000000000               0.000000000               0.000000000               0.000550355               0.003560530               0.000653481              -0.000238683               0.001266392               0.001027710               0.000000000               0.000000000               0.000000000               0.000000000               0.000594596               0.003116092               0.000315401              -0.000166538               0.001094199               0.000927662               0.000000000               0.000000000               0.000000000               0.000000000               0.000565805               0.002870265               0.000159455              -0.000146606               0.001005614               0.000859008               0.000000000               0.000000000               0.000000000               0.000000000               0.000516254               0.002725548               0.000084227              -0.000147098               0.000957540               0.000810442               0.000000000               0.000000000               0.000000000               0.000000000               0.000462049               0.002638982               0.000047081              -0.000156604               0.000931853               0.000775249               0.000000000               0.000000000               0.000000000               0.000000000               0.000405321               0.002582887               0.000028988              -0.000170865               0.000917909               0.000747044               0.000000000               0.000000000               0.000000000               0.000000000               0.000351679               0.002548978               0.000020734              -0.000186742               0.000911898               0.000725156               0.000000000               0.000000000               0.000000000               0.000000000               0.000299635               0.002529731               0.000017475              -0.000203853               0.000911186               0.000707333               0.000000000               0.000000000               0.000000000               0.000000000               0.000250399               0.002520981               0.000017149              -0.000221222               0.000914059               0.000692837               0.000000000               0.000000000               0.000000000               0.000000000               0.000206116               0.002520355               0.000018654              -0.000237750               0.000919360               0.000681610               0.000000000               0.000000000               0.000000000               0.000000000               0.000164826               0.002527080               0.000015609              -0.000254075               0.000927043               0.000672968               0.000000000               0.000000000               0.000000000               0.000000000               0.000125545               0.002540642               0.000009229              -0.000270500               0.000937039               0.000666539               0.000000000               0.000000000               0.000000000               0.000000000               0.000087807               0.002560171               0.000005789              -0.000287093               0.000949080               0.000661987               0.000000000               0.000000000               0.000000000               0.000000000               0.000053075               0.002579208               0.000001938              -0.000302497               0.000960560               0.000658063               0.000000000               0.000000000               0.000000000               0.000000000               0.000024274               0.002595587              -0.000001258              -0.000315345               0.000970302               0.000654957               0.000000000               0.000000000               0.000000000               0.000000000               0.000014406               0.002609956              -0.000000286              -0.000320841               0.000976924               0.000656082               0.000000000               0.000000000               0.000000000               0.000000000               0.000758039               0.003767482               0.001169431              -0.000186671               0.001318038               0.001131367               0.000000000               0.000000000               0.000000000               0.000000000               0.000588312               0.003270310               0.000783669              -0.000188172               0.001152816               0.000964644               0.000000000               0.000000000               0.000000000               0.000000000               0.000545054               0.002960351               0.000390528              -0.000165648               0.001041990               0.000876341               0.000000000               0.000000000               0.000000000               0.000000000               0.000485703               0.002779287               0.000216028              -0.000165272               0.000981510               0.000816238               0.000000000               0.000000000               0.000000000               0.000000000               0.000429126               0.002669332               0.000131943              -0.000172744               0.000947350               0.000774606               0.000000000               0.000000000               0.000000000               0.000000000               0.000378776               0.002599434               0.000089852              -0.000182888               0.000927432               0.000744544               0.000000000               0.000000000               0.000000000               0.000000000               0.000329970               0.002553009               0.000068262              -0.000195387               0.000916123               0.000720737               0.000000000               0.000000000               0.000000000               0.000000000               0.000285635               0.002525649               0.000056760              -0.000208593               0.000911405               0.000702813               0.000000000               0.000000000               0.000000000               0.000000000               0.000244265               0.002510865               0.000049900              -0.000222258               0.000911033               0.000688774               0.000000000               0.000000000               0.000000000               0.000000000               0.000203744               0.002505104               0.000045553              -0.000236733               0.000913937               0.000677204               0.000000000               0.000000000               0.000000000               0.000000000               0.000166694               0.002507760               0.000041705              -0.000250959               0.000919565               0.000668605               0.000000000               0.000000000               0.000000000               0.000000000               0.000132685               0.002519285               0.000034602              -0.000265153               0.000928138               0.000662984               0.000000000               0.000000000               0.000000000               0.000000000               0.000099314               0.002534266               0.000023876              -0.000279540               0.000937927               0.000658387               0.000000000               0.000000000               0.000000000               0.000000000               0.000067351               0.002549962               0.000017250              -0.000293488               0.000947808               0.000654320               0.000000000               0.000000000               0.000000000               0.000000000               0.000039499               0.002558801               0.000015112              -0.000305037               0.000954604               0.000649567               0.000000000               0.000000000               0.000000000               0.000000000               0.000018725               0.002561307               0.000008697              -0.000313141               0.000958141               0.000645000               0.000000000               0.000000000               0.000000000               0.000000000               0.000011634               0.002565065               0.000004386              -0.000316269               0.000960436               0.000644167               0.000000000               0.000000000               0.000000000               0.000000000               0.000864817               0.003300186               0.001268137              -0.000088218               0.001129457               0.001041239               0.000000000               0.000000000               0.000000000               0.000000000               0.000614479               0.002956170               0.000862833              -0.000139092               0.001031744               0.000892652               0.000000000               0.000000000               0.000000000               0.000000000               0.000484727               0.002794040               0.000454052              -0.000167482               0.000987165               0.000819682               0.000000000               0.000000000               0.000000000               0.000000000               0.000404194               0.002680704               0.000275769              -0.000183515               0.000954731               0.000771216               0.000000000               0.000000000               0.000000000               0.000000000               0.000347803               0.002606151               0.000187854              -0.000195342               0.000933822               0.000738480               0.000000000               0.000000000               0.000000000               0.000000000               0.000304093               0.002554054               0.000142807              -0.000205221               0.000919750               0.000714529               0.000000000               0.000000000               0.000000000               0.000000000               0.000265628               0.002519394               0.000116493              -0.000215313               0.000911561               0.000696247               0.000000000               0.000000000               0.000000000               0.000000000               0.000231668               0.002500782               0.000099087              -0.000225722               0.000908826               0.000683105               0.000000000               0.000000000               0.000000000               0.000000000               0.000202473               0.002492307               0.000085834              -0.000235610               0.000909298               0.000673687               0.000000000               0.000000000               0.000000000               0.000000000               0.000171518               0.002489787               0.000073645              -0.000246903               0.000912222               0.000665318               0.000000000               0.000000000               0.000000000               0.000000000               0.000139042               0.002496071               0.000061935              -0.000259867               0.000918638               0.000658770               0.000000000               0.000000000               0.000000000               0.000000000               0.000107046               0.002508921               0.000049034              -0.000273472               0.000927456               0.000653984               0.000000000               0.000000000               0.000000000               0.000000000               0.000078032               0.002521423               0.000033939              -0.000285915               0.000935771               0.000649856               0.000000000               0.000000000               0.000000000               0.000000000               0.000055939               0.002529381               0.000025731              -0.000295195               0.000941517               0.000646322               0.000000000               0.000000000               0.000000000               0.000000000               0.000036826               0.002528689               0.000024645              -0.000302276               0.000943646               0.000641371               0.000000000               0.000000000               0.000000000               0.000000000               0.000018708               0.002525061               0.000015770              -0.000308616               0.000944551               0.000635934               0.000000000               0.000000000               0.000000000               0.000000000               0.000011539               0.002525832               0.000008781              -0.000311401               0.000945736               0.000634335               0.000000000               0.000000000               0.000000000               0.000000000               0.000934212               0.002821135               0.001282721              -0.000002314               0.000941140               0.000938826               0.000000000               0.000000000               0.000000000               0.000000000               0.000623446               0.002641149               0.000899513              -0.000096352               0.000912491               0.000816139               0.000000000               0.000000000               0.000000000               0.000000000               0.000423287               0.002626896               0.000509410              -0.000169629               0.000932166               0.000762537               0.000000000               0.000000000               0.000000000               0.000000000               0.000333595               0.002580427               0.000336510              -0.000197455               0.000925952               0.000728497               0.000000000               0.000000000               0.000000000               0.000000000               0.000282429               0.002539032               0.000247443              -0.000211468               0.000916825               0.000705357               0.000000000               0.000000000               0.000000000               0.000000000               0.000246131               0.002505295               0.000198070              -0.000220862               0.000908711               0.000687849               0.000000000               0.000000000               0.000000000               0.000000000               0.000218741               0.002485122               0.000164048              -0.000228612               0.000904570               0.000675958               0.000000000               0.000000000               0.000000000               0.000000000               0.000194643               0.002474250               0.000135843              -0.000236290               0.000903505               0.000667215               0.000000000               0.000000000               0.000000000               0.000000000               0.000173100               0.002470995               0.000113692              -0.000243961               0.000904977               0.000661016               0.000000000               0.000000000               0.000000000               0.000000000               0.000145611               0.002472283               0.000092595              -0.000254431               0.000908896               0.000654466               0.000000000               0.000000000               0.000000000               0.000000000               0.000114556               0.002482547               0.000071979              -0.000267359               0.000916627               0.000649268               0.000000000               0.000000000               0.000000000               0.000000000               0.000086024               0.002496730               0.000053267              -0.000279831               0.000925512               0.000645681               0.000000000               0.000000000               0.000000000               0.000000000               0.000063866               0.002508901               0.000035992              -0.000289662               0.000932846               0.000643184               0.000000000               0.000000000               0.000000000               0.000000000               0.000049973               0.002514649               0.000027632              -0.000295591               0.000936738               0.000641148               0.000000000               0.000000000               0.000000000               0.000000000               0.000037767               0.002517529               0.000027045              -0.000300528               0.000939344               0.000638816               0.000000000               0.000000000               0.000000000               0.000000000               0.000020476               0.002524722               0.000017833              -0.000307911               0.000944202               0.000636291               0.000000000               0.000000000               0.000000000               0.000000000               0.000014432               0.002534731               0.000011598              -0.000311429               0.000948712               0.000637283               0.000000000               0.000000000               0.000000000               0.000000000               0.000962939               0.002356154               0.001227976               0.000066581               0.000763183               0.000829764               0.000000000               0.000000000               0.000000000               0.000000000               0.000617757               0.002341917               0.000901924              -0.000061082               0.000800991               0.000739910               0.000000000               0.000000000               0.000000000               0.000000000               0.000371885               0.002466288               0.000558073              -0.000168829               0.000878364               0.000709535               0.000000000               0.000000000               0.000000000               0.000000000               0.000282067               0.002480412               0.000394633              -0.000204276               0.000894888               0.000690612               0.000000000               0.000000000               0.000000000               0.000000000               0.000236586               0.002468724               0.000303395              -0.000219870               0.000896190               0.000676319               0.000000000               0.000000000               0.000000000               0.000000000               0.000207914               0.002454669               0.000245651              -0.000228865               0.000894503               0.000665638               0.000000000               0.000000000               0.000000000               0.000000000               0.000190311               0.002449134               0.000200621              -0.000234775               0.000894628               0.000659853               0.000000000               0.000000000               0.000000000               0.000000000               0.000171923               0.002447081               0.000162196              -0.000241414               0.000896157               0.000654743               0.000000000               0.000000000               0.000000000               0.000000000               0.000150670               0.002450035               0.000130979              -0.000249752               0.000899921               0.000650168               0.000000000               0.000000000               0.000000000               0.000000000               0.000124277               0.002461099               0.000101975              -0.000261033               0.000907369               0.000646336               0.000000000               0.000000000               0.000000000               0.000000000               0.000098475               0.002479197               0.000073382              -0.000272971               0.000917381               0.000644410               0.000000000               0.000000000               0.000000000               0.000000000               0.000077921               0.002498833               0.000049573              -0.000283133               0.000927314               0.000644181               0.000000000               0.000000000               0.000000000               0.000000000               0.000063945               0.002515701               0.000033097              -0.000290483               0.000935386               0.000644903               0.000000000               0.000000000               0.000000000               0.000000000               0.000055138               0.002529006               0.000027102              -0.000295448               0.000941476               0.000646028               0.000000000               0.000000000               0.000000000               0.000000000               0.000042633               0.002549240               0.000026294              -0.000302667               0.000950627               0.000647960               0.000000000               0.000000000               0.000000000               0.000000000               0.000023497               0.002577255               0.000017588              -0.000313345               0.000963525               0.000650180               0.000000000               0.000000000               0.000000000               0.000000000               0.000016666               0.002598914               0.000012992              -0.000318614               0.000972500               0.000653887               0.000000000               0.000000000               0.000000000               0.000000000               0.000965167               0.001941354               0.001126018               0.000119266               0.000607356               0.000726622               0.000000000               0.000000000               0.000000000               0.000000000               0.000618211               0.002073142               0.000887143              -0.000027315               0.000700145               0.000672830               0.000000000               0.000000000               0.000000000               0.000000000               0.000350429               0.002320966               0.000613066              -0.000158710               0.000826551               0.000667841               0.000000000               0.000000000               0.000000000               0.000000000               0.000260295               0.002389841               0.000456881              -0.000201119               0.000863645               0.000662526               0.000000000               0.000000000               0.000000000               0.000000000               0.000216348               0.002407806               0.000359681              -0.000219845               0.000875875               0.000656031               0.000000000               0.000000000               0.000000000               0.000000000               0.000192214               0.002414613               0.000291315              -0.000229746               0.000881445               0.000651699               0.000000000               0.000000000               0.000000000               0.000000000               0.000178783               0.002423566               0.000236400              -0.000235902               0.000886481               0.000650579               0.000000000               0.000000000               0.000000000               0.000000000               0.000166250               0.002433354               0.000190490              -0.000241825               0.000891718               0.000649893               0.000000000               0.000000000               0.000000000               0.000000000               0.000146482               0.002447047               0.000150268              -0.000250950               0.000899324               0.000648375               0.000000000               0.000000000               0.000000000               0.000000000               0.000120896               0.002470517               0.000114672              -0.000263478               0.000911323               0.000647846               0.000000000               0.000000000               0.000000000               0.000000000               0.000098909               0.002498836               0.000082386              -0.000275263               0.000924691               0.000649428               0.000000000               0.000000000               0.000000000               0.000000000               0.000085005               0.002524575               0.000057391              -0.000283694               0.000936081               0.000652387               0.000000000               0.000000000               0.000000000               0.000000000               0.000076431               0.002542815               0.000040118              -0.000289190               0.000943993               0.000654804               0.000000000               0.000000000               0.000000000               0.000000000               0.000068887               0.002565854               0.000028847              -0.000294898               0.000953575               0.000658677               0.000000000               0.000000000               0.000000000               0.000000000               0.000055783               0.002604656               0.000021632              -0.000304663               0.000969764               0.000665102               0.000000000               0.000000000               0.000000000               0.000000000               0.000039450               0.002654868               0.000013317              -0.000317064               0.000990635               0.000673571               0.000000000               0.000000000               0.000000000               0.000000000               0.000028365               0.002681598               0.000007483              -0.000324562               0.001002044               0.000677482               0.000000000               0.000000000               0.000000000               0.000000000               0.000934667               0.001531670               0.001000171               0.000159039               0.000457538               0.000616577               0.000000000               0.000000000               0.000000000               0.000000000               0.000633830               0.001755854               0.000864695               0.000018203               0.000579211               0.000597414               0.000000000               0.000000000               0.000000000               0.000000000               0.000370298               0.002093214               0.000679230              -0.000122790               0.000738661               0.000615871               0.000000000               0.000000000               0.000000000               0.000000000               0.000274633               0.002226636               0.000533850              -0.000175342               0.000800652               0.000625310               0.000000000               0.000000000               0.000000000               0.000000000               0.000227087               0.002287073               0.000430386              -0.000200726               0.000829259               0.000628532               0.000000000               0.000000000               0.000000000               0.000000000               0.000198960               0.002322933               0.000352842              -0.000215756               0.000846222               0.000630466               0.000000000               0.000000000               0.000000000               0.000000000               0.000183805               0.002351797               0.000290442              -0.000225047               0.000858940               0.000633893               0.000000000               0.000000000               0.000000000               0.000000000               0.000172853               0.002377096               0.000237509              -0.000232317               0.000869796               0.000637480               0.000000000               0.000000000               0.000000000               0.000000000               0.000156868               0.002404837               0.000189162              -0.000241778               0.000882197               0.000640419               0.000000000               0.000000000               0.000000000               0.000000000               0.000136691               0.002438735               0.000150106              -0.000253582               0.000897431               0.000643849               0.000000000               0.000000000               0.000000000               0.000000000               0.000117756               0.002478432               0.000118614              -0.000265645               0.000914684               0.000649039               0.000000000               0.000000000               0.000000000               0.000000000               0.000105448               0.002516916               0.000093248              -0.000275071               0.000930654               0.000655583               0.000000000               0.000000000               0.000000000               0.000000000               0.000098479               0.002552721               0.000069891              -0.000282160               0.000944952               0.000662792               0.000000000               0.000000000               0.000000000               0.000000000               0.000092511               0.002591511               0.000046195              -0.000289247               0.000960244               0.000670997               0.000000000               0.000000000               0.000000000               0.000000000               0.000081173               0.002638851               0.000027217              -0.000299416               0.000979413               0.000679998               0.000000000               0.000000000               0.000000000               0.000000000               0.000064690               0.002695882               0.000012333              -0.000312726               0.001002860               0.000690134               0.000000000               0.000000000               0.000000000               0.000000000               0.000047054               0.002718233               0.000001727              -0.000322133               0.001013446               0.000691313               0.000000000               0.000000000               0.000000000               0.000000000               0.000862660               0.001144692               0.000851749               0.000180409               0.000321423               0.000501832               0.000000000               0.000000000               0.000000000               0.000000000               0.000650118               0.001432930               0.000818326               0.000064676               0.000456079               0.000520756               0.000000000               0.000000000               0.000000000               0.000000000               0.000422888               0.001829983               0.000727107              -0.000070166               0.000633376               0.000563211               0.000000000               0.000000000               0.000000000               0.000000000               0.000323552               0.002025935               0.000607262              -0.000131910               0.000719275               0.000587365               0.000000000               0.000000000               0.000000000               0.000000000               0.000269004               0.002135325               0.000504061              -0.000166039               0.000767114               0.000601075               0.000000000               0.000000000               0.000000000               0.000000000               0.000232534               0.002205602               0.000421434              -0.000188500               0.000798027               0.000609527               0.000000000               0.000000000               0.000000000               0.000000000               0.000211553               0.002259121               0.000355264              -0.000203057               0.000820719               0.000617661               0.000000000               0.000000000               0.000000000               0.000000000               0.000198989               0.002305843               0.000295541              -0.000213609               0.000839810               0.000626200               0.000000000               0.000000000               0.000000000               0.000000000               0.000186288               0.002349833               0.000242077              -0.000223871               0.000857893               0.000634023               0.000000000               0.000000000               0.000000000               0.000000000               0.000170694               0.002394029               0.000200781              -0.000235243               0.000876416               0.000641173               0.000000000               0.000000000               0.000000000               0.000000000               0.000156078               0.002440962               0.000169806              -0.000246590               0.000895842               0.000649252               0.000000000               0.000000000               0.000000000               0.000000000               0.000143253               0.002491028               0.000142190              -0.000257658               0.000916220               0.000658562               0.000000000               0.000000000               0.000000000               0.000000000               0.000130768               0.002544178               0.000111158              -0.000268984               0.000937712               0.000668728               0.000000000               0.000000000               0.000000000               0.000000000               0.000119106               0.002597893               0.000076695              -0.000280071               0.000959313               0.000679242               0.000000000               0.000000000               0.000000000               0.000000000               0.000108603               0.002653966               0.000045602              -0.000291019               0.000981653               0.000690634               0.000000000               0.000000000               0.000000000               0.000000000               0.000090566               0.002708123               0.000019988              -0.000304552               0.001004216               0.000699664               0.000000000               0.000000000               0.000000000               0.000000000               0.000069331               0.002726363               0.000004655              -0.000314795               0.001013710               0.000698915               0.000000000               0.000000000               0.000000000               0.000000000               0.000754106               0.000804764               0.000683325               0.000182192               0.000207521               0.000389713               0.000000000               0.000000000               0.000000000               0.000000000               0.000648341               0.001117782               0.000734363               0.000103403               0.000338122               0.000441526               0.000000000               0.000000000               0.000000000               0.000000000               0.000489081               0.001534721               0.000728529              -0.000008436               0.000514380               0.000505944               0.000000000               0.000000000               0.000000000               0.000000000               0.000400081               0.001778384               0.000643362              -0.000072268               0.000616878               0.000544610               0.000000000               0.000000000               0.000000000               0.000000000               0.000339963               0.001932878               0.000551858              -0.000114124               0.000682327               0.000568203               0.000000000               0.000000000               0.000000000               0.000000000               0.000297805               0.002042156               0.000472028              -0.000143593               0.000728576               0.000584983               0.000000000               0.000000000               0.000000000               0.000000000               0.000267341               0.002127466               0.000405126              -0.000165680               0.000764375               0.000598695               0.000000000               0.000000000               0.000000000               0.000000000               0.000247147               0.002198794               0.000343400              -0.000182169               0.000793647               0.000611478               0.000000000               0.000000000               0.000000000               0.000000000               0.000233674               0.002262230               0.000287319              -0.000195150               0.000819119               0.000623969               0.000000000               0.000000000               0.000000000               0.000000000               0.000218188               0.002321238               0.000245511              -0.000208334               0.000843183               0.000634849               0.000000000               0.000000000               0.000000000               0.000000000               0.000203378               0.002378761               0.000215225              -0.000221078               0.000866605               0.000645527               0.000000000               0.000000000               0.000000000               0.000000000               0.000189814               0.002441604               0.000184504              -0.000234020               0.000891866               0.000657847               0.000000000               0.000000000               0.000000000               0.000000000               0.000175133               0.002513008               0.000146696              -0.000248451               0.000920478               0.000672027               0.000000000               0.000000000               0.000000000               0.000000000               0.000157453               0.002586283               0.000106743              -0.000264240               0.000950166               0.000685926               0.000000000               0.000000000               0.000000000               0.000000000               0.000139304               0.002655864               0.000068953              -0.000279743               0.000978527               0.000698784               0.000000000               0.000000000               0.000000000               0.000000000               0.000119336               0.002715661               0.000033059              -0.000294706               0.001003447               0.000708741               0.000000000               0.000000000               0.000000000               0.000000000               0.000095945               0.002733474               0.000011764              -0.000305704               0.001013050               0.000707346               0.000000000               0.000000000               0.000000000               0.000000000               0.000616961               0.000525291               0.000510927               0.000165697               0.000119862               0.000285559               0.000000000               0.000000000               0.000000000               0.000000000               0.000631817               0.000828730               0.000618091               0.000133338               0.000231794               0.000365133               0.000000000               0.000000000               0.000000000               0.000000000               0.000561056               0.001231051               0.000676456               0.000056513               0.000391508               0.000448022               0.000000000               0.000000000               0.000000000               0.000000000               0.000494079               0.001502443               0.000627030              -0.000002527               0.000501651               0.000499125               0.000000000               0.000000000               0.000000000               0.000000000               0.000435705               0.001694459               0.000555811              -0.000048418               0.000580953               0.000532535               0.000000000               0.000000000               0.000000000               0.000000000               0.000388274               0.001842267               0.000486971              -0.000084681               0.000642310               0.000557629               0.000000000               0.000000000               0.000000000               0.000000000               0.000349470               0.001961512               0.000424892              -0.000114138               0.000691877               0.000577739               0.000000000               0.000000000               0.000000000               0.000000000               0.000319012               0.002059680               0.000366836              -0.000137830               0.000732496               0.000594666               0.000000000               0.000000000               0.000000000               0.000000000               0.000299273               0.002148623               0.000313021              -0.000156350               0.000768317               0.000611967               0.000000000               0.000000000               0.000000000               0.000000000               0.000281116               0.002229150               0.000272164              -0.000173225               0.000800784               0.000627559               0.000000000               0.000000000               0.000000000               0.000000000               0.000257798               0.002301462               0.000242842              -0.000191008               0.000830816               0.000639807               0.000000000               0.000000000               0.000000000               0.000000000               0.000238722               0.002379063               0.000212149              -0.000207862               0.000862300               0.000654439               0.000000000               0.000000000               0.000000000               0.000000000               0.000223346               0.002464747               0.000172120              -0.000224338               0.000896354               0.000672015               0.000000000               0.000000000               0.000000000               0.000000000               0.000206896               0.002551900               0.000127616              -0.000241401               0.000931092               0.000689691               0.000000000               0.000000000               0.000000000               0.000000000               0.000187130               0.002635250               0.000087757              -0.000259232               0.000964819               0.000705587               0.000000000               0.000000000               0.000000000               0.000000000               0.000164168               0.002705245               0.000047678              -0.000276592               0.000993936               0.000717345               0.000000000               0.000000000               0.000000000               0.000000000               0.000139298               0.002727737               0.000021939              -0.000288730               0.001005480               0.000716750               0.000000000               0.000000000               0.000000000               0.000000000               0.000465880               0.000312575               0.000350546               0.000135631               0.000058980               0.000194611               0.000000000               0.000000000               0.000000000               0.000000000               0.000600280               0.000584787               0.000478429               0.000152005               0.000144258               0.000296263               0.000000000               0.000000000               0.000000000               0.000000000               0.000627165               0.000948811               0.000568127               0.000116584               0.000277406               0.000393990               0.000000000               0.000000000               0.000000000               0.000000000               0.000592780               0.001229110               0.000549659               0.000068653               0.000386815               0.000455468               0.000000000               0.000000000               0.000000000               0.000000000               0.000542003               0.001448728               0.000501747               0.000022159               0.000475518               0.000497677               0.000000000               0.000000000               0.000000000               0.000000000               0.000489658               0.001628971               0.000448663              -0.000020000               0.000549652               0.000529652               0.000000000               0.000000000               0.000000000               0.000000000               0.000442945               0.001779219               0.000398053              -0.000056298               0.000611833               0.000555535               0.000000000               0.000000000               0.000000000               0.000000000               0.000401618               0.001905706               0.000350066              -0.000087606               0.000664431               0.000576825               0.000000000               0.000000000               0.000000000               0.000000000               0.000372016               0.002022329               0.000304631              -0.000113285               0.000711865               0.000598580               0.000000000               0.000000000               0.000000000               0.000000000               0.000347982               0.002130811               0.000266012              -0.000135858               0.000755549               0.000619691               0.000000000               0.000000000               0.000000000               0.000000000               0.000319017               0.002222874               0.000238631              -0.000158227               0.000793693               0.000635466               0.000000000               0.000000000               0.000000000               0.000000000               0.000291185               0.002310390               0.000212637              -0.000179604               0.000829990               0.000650386               0.000000000               0.000000000               0.000000000               0.000000000               0.000273879               0.002404186               0.000177428              -0.000197818               0.000867327               0.000669509               0.000000000               0.000000000               0.000000000               0.000000000               0.000264373               0.002500922               0.000136879              -0.000213475               0.000904791               0.000691316               0.000000000               0.000000000               0.000000000               0.000000000               0.000256154               0.002599038               0.000097627              -0.000228822               0.000942611               0.000713790               0.000000000               0.000000000               0.000000000               0.000000000               0.000237759               0.002686835               0.000053655              -0.000246694               0.000977834               0.000731140               0.000000000               0.000000000               0.000000000               0.000000000               0.000215948               0.002720845               0.000026576              -0.000259124               0.000993314               0.000734190               0.000000000               0.000000000               0.000000000               0.000000000               0.000330622               0.000170821               0.000212194               0.000102629               0.000022730               0.000125359               0.000000000               0.000000000               0.000000000               0.000000000               0.000562475               0.000400737               0.000323785               0.000160834               0.000079966               0.000240800               0.000000000               0.000000000               0.000000000               0.000000000               0.000676728               0.000717439               0.000410367               0.000164092               0.000184447               0.000348538               0.000000000               0.000000000               0.000000000               0.000000000               0.000680022               0.000997344               0.000410350               0.000130339               0.000288998               0.000419337               0.000000000               0.000000000               0.000000000               0.000000000               0.000640767               0.001232645               0.000383148               0.000086206               0.000382142               0.000468348               0.000000000               0.000000000               0.000000000               0.000000000               0.000588228               0.001434697               0.000349023               0.000041248               0.000464478               0.000505726               0.000000000               0.000000000               0.000000000               0.000000000               0.000533760               0.001611575               0.000313664              -0.000001287               0.000537615               0.000536328               0.000000000               0.000000000               0.000000000               0.000000000               0.000481842               0.001763474               0.000279702              -0.000039744               0.000601067               0.000561323               0.000000000               0.000000000               0.000000000               0.000000000               0.000439945               0.001901421               0.000247148              -0.000072698               0.000658033               0.000585335               0.000000000               0.000000000               0.000000000               0.000000000               0.000410001               0.002030770               0.000216657              -0.000100096               0.000710282               0.000610186               0.000000000               0.000000000               0.000000000               0.000000000               0.000379535               0.002140497               0.000192490              -0.000125236               0.000755237               0.000630001               0.000000000               0.000000000               0.000000000               0.000000000               0.000347104               0.002238888               0.000173785              -0.000149697               0.000796187               0.000646491               0.000000000               0.000000000               0.000000000               0.000000000               0.000328490               0.002339521               0.000152299              -0.000169256               0.000836251               0.000666995               0.000000000               0.000000000               0.000000000               0.000000000               0.000325742               0.002445629               0.000121872              -0.000183550               0.000876385               0.000692835               0.000000000               0.000000000               0.000000000               0.000000000               0.000325721               0.002558071               0.000083933              -0.000197613               0.000918553               0.000720940               0.000000000               0.000000000               0.000000000               0.000000000               0.000328103               0.002667835               0.000043272              -0.000210440               0.000959416               0.000748976               0.000000000               0.000000000               0.000000000               0.000000000               0.000326817               0.002717328               0.000021965              -0.000217109               0.000978137               0.000761027               0.000000000               0.000000000               0.000000000               0.000000000               0.000239961               0.000091486               0.000099793               0.000078549               0.000004312               0.000082861               0.000000000               0.000000000               0.000000000               0.000000000               0.000535097               0.000288208               0.000163320               0.000164634               0.000041190               0.000205824               0.000000000               0.000000000               0.000000000               0.000000000               0.000707311               0.000567792               0.000215327               0.000194266               0.000124507               0.000318772               0.000000000               0.000000000               0.000000000               0.000000000               0.000736784               0.000839689               0.000220059               0.000171331               0.000222783               0.000394114               0.000000000               0.000000000               0.000000000               0.000000000               0.000709460               0.001082534               0.000208582               0.000130730               0.000317265               0.000447994               0.000000000               0.000000000               0.000000000               0.000000000               0.000660074               0.001298133               0.000192111               0.000085260               0.000404287               0.000489547               0.000000000               0.000000000               0.000000000               0.000000000               0.000602956               0.001491006               0.000173015               0.000039732               0.000483753               0.000523485               0.000000000               0.000000000               0.000000000               0.000000000               0.000546697               0.001659783               0.000155206              -0.000002461               0.000554076               0.000551614               0.000000000               0.000000000               0.000000000               0.000000000               0.000495279               0.001808114               0.000139628              -0.000040285               0.000616127               0.000575842               0.000000000               0.000000000               0.000000000               0.000000000               0.000455494               0.001947713               0.000122769              -0.000072654               0.000673449               0.000600795               0.000000000               0.000000000               0.000000000               0.000000000               0.000423599               0.002074875               0.000105818              -0.000100509               0.000725121               0.000624612               0.000000000               0.000000000               0.000000000               0.000000000               0.000395438               0.002188427               0.000096857              -0.000125264               0.000771223               0.000645959               0.000000000               0.000000000               0.000000000               0.000000000               0.000372845               0.002295269               0.000092323              -0.000147092               0.000814113               0.000667021               0.000000000               0.000000000               0.000000000               0.000000000               0.000363214               0.002403161               0.000073631              -0.000164190               0.000855775               0.000691586               0.000000000               0.000000000               0.000000000               0.000000000               0.000371342               0.002517750               0.000046240              -0.000175465               0.000897730               0.000722265               0.000000000               0.000000000               0.000000000               0.000000000               0.000400775               0.002641321               0.000023752              -0.000179874               0.000940389               0.000760515               0.000000000               0.000000000               0.000000000               0.000000000               0.000422769               0.002704938               0.000013111              -0.000179578               0.000961496               0.000781918               0.000000000               0.000000000               0.000000000               0.000000000               0.000000000               0.000000000               0.000000000               0.000000000               0.000000000               0.000000000               0.000000000               0.000000000               0.000000000               0.000000000               0.000000000               0.000000000               0.000000000               0.000000000               0.000000000               0.000000000               0.000000000               0.000000000               0.000000000               0.000000000               0.000000000               0.000000000               0.000000000               0.000000000               0.000000000               0.000000000               0.000000000               0.000000000               0.000000000               0.000000000               0.000000000               0.000000000               0.000000000               0.000000000               0.000000000               0.000000000               0.000000000               0.000000000               0.000000000               0.000000000               0.000000000               0.000000000               0.000000000               0.000000000               0.000000000               0.000000000               0.000000000               0.000000000               0.000000000               0.000000000               0.000000000               0.000000000               0.000000000               0.000000000               0.000000000               0.000000000               0.000000000               0.000000000               0.000000000               0.000000000               0.000000000               0.000000000               0.000000000               0.000000000               0.000000000               0.000000000               0.000000000               0.000000000               0.000000000               0.000000000               0.000000000               0.000000000               0.000000000               0.000000000               0.000000000               0.000000000               0.000000000               0.000000000               0.000000000               0.000000000               0.000000000               0.000000000               0.000000000               0.000000000               0.000000000               0.000000000               0.000000000               0.000000000               0.000000000               0.000000000               0.000000000               0.000000000               0.000000000               0.000000000               0.000000000               0.000000000               0.000000000               0.000000000               0.000000000               0.000000000               0.000000000               0.000000000               0.000000000               0.000000000               0.000000000               0.000000000               0.000000000               0.000000000               0.000000000               0.000000000               0.000000000               0.000000000               0.000000000               0.000000000               0.000000000               0.000000000               0.000000000               0.000000000               0.000000000               0.000000000               0.000000000               0.000000000               0.000000000               0.000000000               0.000000000               0.000000000               0.000000000               0.000000000               0.000000000               0.000000000               0.000000000               0.000000000               0.000000000               0.000000000               0.000000000               0.000000000               0.000000000               0.000000000               0.000000000               0.000000000               0.000000000               0.000000000               0.000000000               0.000000000               0.000000000               0.000000000               0.000000000               0.000000000               0.000000000               0.000000000               0.000000000               0.000000000               0.000000000               0.000000000               0.000000000               0.000000000               0.000000000               0.000000000               0.000000000               0.000000000               0.000000000               0.000000000               0.000000000               0.000000000               0.000000000               0.000000000               0.000000000               0.000000000               0.000000000               0.000000000 </DataArray>
</PointData>
</Piece>
</UnstructuredGrid> </VTKFile>
