<?xml version="1.0"?>
<VTKFile type="UnstructuredGrid" version="0.1">
<UnstructuredGrid>
<Piece NumberOfPoints="      1156" NumberOfCells="      1024">
<Points>
<DataArray type="Float64"                                    Name="coordinates"                                                      NumberOfComponents=" 3" format="ascii">
              0.133000000               0.000000000               0.000000000               0.155937500               0.000000000               0.000000000               0.178875000               0.000000000               0.000000000               0.201812500               0.000000000               0.000000000               0.224750000               0.000000000               0.000000000               0.247687500               0.000000000               0.000000000               0.270625000               0.000000000               0.000000000               0.293562500               0.000000000               0.000000000               0.316500000               0.000000000               0.000000000               0.339437500               0.000000000               0.000000000               0.362375000               0.000000000               0.000000000               0.385312500               0.000000000               0.000000000               0.408250000               0.000000000               0.000000000               0.431187500               0.000000000               0.000000000               0.454125000               0.000000000               0.000000000               0.477062500               0.000000000               0.000000000               0.500000000               0.000000000               0.000000000               0.132359569               0.013036280               0.000000000               0.155337096               0.016127762               0.000000000               0.178314623               0.019219245               0.000000000               0.201292150               0.022310727               0.000000000               0.224269676               0.025402210               0.000000000               0.247247203               0.028493692               0.000000000               0.270224730               0.031585175               0.000000000               0.293202257               0.034676657               0.000000000               0.316179784               0.037768140               0.000000000               0.339157311               0.040859622               0.000000000               0.362134838               0.043951105               0.000000000               0.385112365               0.047042587               0.000000000               0.408089892               0.050134070               0.000000000               0.431067419               0.053225552               0.000000000               0.454044946               0.056317035               0.000000000               0.477022473               0.059408517               0.000000000               0.500000000               0.062500000               0.000000000               0.130444442               0.025947013               0.000000000               0.153541665               0.032137825               0.000000000               0.176638887               0.038328636               0.000000000               0.199736109               0.044519448               0.000000000               0.222833332               0.050710260               0.000000000               0.245930554               0.056901071               0.000000000               0.269027776               0.063091883               0.000000000               0.292124999               0.069282695               0.000000000               0.315222221               0.075473506               0.000000000               0.338319444               0.081664318               0.000000000               0.361416666               0.087855130               0.000000000               0.384513888               0.094045942               0.000000000               0.407611111               0.100236753               0.000000000               0.430708333               0.106427565               0.000000000               0.453805555               0.112618377               0.000000000               0.476902778               0.118809188               0.000000000               0.500000000               0.125000000               0.000000000               0.127273065               0.038607862               0.000000000               0.150568498               0.047913621               0.000000000               0.173863932               0.057219379               0.000000000               0.197159365               0.066525138               0.000000000               0.220454798               0.075830897               0.000000000               0.243750232               0.085136655               0.000000000               0.267045665               0.094442414               0.000000000               0.290341099               0.103748172               0.000000000               0.313636532               0.113053931               0.000000000               0.336931966               0.122359690               0.000000000               0.360227399               0.131665448               0.000000000               0.383522833               0.140971207               0.000000000               0.406818266               0.150276966               0.000000000               0.430113700               0.159582724               0.000000000               0.453409133               0.168888483               0.000000000               0.476704567               0.178194241               0.000000000               0.500000000               0.187500000               0.000000000               0.122875978               0.050896897               0.000000000               0.146446229               0.063340840               0.000000000               0.170016481               0.075784784               0.000000000               0.193586732               0.088228728               0.000000000               0.217156983               0.100672672               0.000000000               0.240727235               0.113116616               0.000000000               0.264297486               0.125560560               0.000000000               0.287867738               0.138004504               0.000000000               0.311437989               0.150448448               0.000000000               0.335008240               0.162892392               0.000000000               0.358578492               0.175336336               0.000000000               0.382148743               0.187780280               0.000000000               0.405718994               0.200224224               0.000000000               0.429289246               0.212668168               0.000000000               0.452859497               0.225112112               0.000000000               0.476429749               0.237556056               0.000000000               0.500000000               0.250000000               0.000000000               0.117295528               0.062695766               0.000000000               0.141214558               0.078308531               0.000000000               0.165133587               0.093921295               0.000000000               0.189052617               0.109534060               0.000000000               0.212971646               0.125146824               0.000000000               0.236890676               0.140759589               0.000000000               0.260809705               0.156372354               0.000000000               0.284728735               0.171985118               0.000000000               0.308647764               0.187597883               0.000000000               0.332566794               0.203210648               0.000000000               0.356485823               0.218823412               0.000000000               0.380404853               0.234436177               0.000000000               0.404323882               0.250048941               0.000000000               0.428242912               0.265661706               0.000000000               0.452161941               0.281274471               0.000000000               0.476080971               0.296887235               0.000000000               0.500000000               0.312500000               0.000000000               0.110585458               0.073890841               0.000000000               0.134923867               0.092710163               0.000000000               0.159262276               0.111529486               0.000000000               0.183600685               0.130348808               0.000000000               0.207939094               0.149168131               0.000000000               0.232277503               0.167987453               0.000000000               0.256615912               0.186806776               0.000000000               0.280954320               0.205626098               0.000000000               0.305292729               0.224445420               0.000000000               0.329631138               0.243264743               0.000000000               0.353969547               0.262084065               0.000000000               0.378307956               0.280903388               0.000000000               0.402646365               0.299722710               0.000000000               0.426984773               0.318542033               0.000000000               0.451323182               0.337361355               0.000000000               0.475661591               0.356180678               0.000000000               0.500000000               0.375000000               0.000000000               0.102810390               0.084374307               0.000000000               0.127634741               0.106444663               0.000000000               0.152459092               0.128515018               0.000000000               0.177283442               0.150585374               0.000000000               0.202107793               0.172655730               0.000000000               0.226932143               0.194726086               0.000000000               0.251756494               0.216796442               0.000000000               0.276580845               0.238866798               0.000000000               0.301405195               0.260937153               0.000000000               0.326229546               0.283007509               0.000000000               0.351053896               0.305077865               0.000000000               0.375878247               0.327148221               0.000000000               0.400702598               0.349218577               0.000000000               0.425526948               0.371288933               0.000000000               0.450351299               0.393359288               0.000000000               0.475175649               0.415429644               0.000000000               0.500000000               0.437500000               0.000000000               0.094045202               0.094045202               0.000000000               0.119417377               0.119417377               0.000000000               0.144789552               0.144789552               0.000000000               0.170161727               0.170161727               0.000000000               0.195533901               0.195533901               0.000000000               0.220906076               0.220906076               0.000000000               0.246278251               0.246278251               0.000000000               0.271650426               0.271650426               0.000000000               0.297022601               0.297022601               0.000000000               0.322394776               0.322394776               0.000000000               0.347766951               0.347766951               0.000000000               0.373139126               0.373139126               0.000000000               0.398511300               0.398511300               0.000000000               0.423883475               0.423883475               0.000000000               0.449255650               0.449255650               0.000000000               0.474627825               0.474627825               0.000000000               0.500000000               0.500000000               0.000000000               0.084374307               0.102810390               0.000000000               0.106444663               0.127634741               0.000000000               0.128515018               0.152459092               0.000000000               0.150585374               0.177283442               0.000000000               0.172655730               0.202107793               0.000000000               0.194726086               0.226932143               0.000000000               0.216796442               0.251756494               0.000000000               0.238866798               0.276580845               0.000000000               0.260937153               0.301405195               0.000000000               0.283007509               0.326229546               0.000000000               0.305077865               0.351053896               0.000000000               0.327148221               0.375878247               0.000000000               0.349218577               0.400702598               0.000000000               0.371288933               0.425526948               0.000000000               0.393359288               0.450351299               0.000000000               0.415429644               0.475175649               0.000000000               0.437500000               0.500000000               0.000000000               0.073890841               0.110585458               0.000000000               0.092710163               0.134923867               0.000000000               0.111529486               0.159262276               0.000000000               0.130348808               0.183600685               0.000000000               0.149168131               0.207939094               0.000000000               0.167987453               0.232277503               0.000000000               0.186806776               0.256615912               0.000000000               0.205626098               0.280954320               0.000000000               0.224445420               0.305292729               0.000000000               0.243264743               0.329631138               0.000000000               0.262084065               0.353969547               0.000000000               0.280903388               0.378307956               0.000000000               0.299722710               0.402646365               0.000000000               0.318542033               0.426984773               0.000000000               0.337361355               0.451323182               0.000000000               0.356180678               0.475661591               0.000000000               0.375000000               0.500000000               0.000000000               0.062695766               0.117295528               0.000000000               0.078308531               0.141214558               0.000000000               0.093921295               0.165133587               0.000000000               0.109534060               0.189052617               0.000000000               0.125146824               0.212971646               0.000000000               0.140759589               0.236890676               0.000000000               0.156372354               0.260809705               0.000000000               0.171985118               0.284728735               0.000000000               0.187597883               0.308647764               0.000000000               0.203210648               0.332566794               0.000000000               0.218823412               0.356485823               0.000000000               0.234436177               0.380404853               0.000000000               0.250048941               0.404323882               0.000000000               0.265661706               0.428242912               0.000000000               0.281274471               0.452161941               0.000000000               0.296887235               0.476080971               0.000000000               0.312500000               0.500000000               0.000000000               0.050896897               0.122875978               0.000000000               0.063340840               0.146446229               0.000000000               0.075784784               0.170016481               0.000000000               0.088228728               0.193586732               0.000000000               0.100672672               0.217156983               0.000000000               0.113116616               0.240727235               0.000000000               0.125560560               0.264297486               0.000000000               0.138004504               0.287867738               0.000000000               0.150448448               0.311437989               0.000000000               0.162892392               0.335008240               0.000000000               0.175336336               0.358578492               0.000000000               0.187780280               0.382148743               0.000000000               0.200224224               0.405718994               0.000000000               0.212668168               0.429289246               0.000000000               0.225112112               0.452859497               0.000000000               0.237556056               0.476429749               0.000000000               0.250000000               0.500000000               0.000000000               0.038607862               0.127273065               0.000000000               0.047913621               0.150568498               0.000000000               0.057219379               0.173863932               0.000000000               0.066525138               0.197159365               0.000000000               0.075830897               0.220454798               0.000000000               0.085136655               0.243750232               0.000000000               0.094442414               0.267045665               0.000000000               0.103748172               0.290341099               0.000000000               0.113053931               0.313636532               0.000000000               0.122359690               0.336931966               0.000000000               0.131665448               0.360227399               0.000000000               0.140971207               0.383522833               0.000000000               0.150276966               0.406818266               0.000000000               0.159582724               0.430113700               0.000000000               0.168888483               0.453409133               0.000000000               0.178194241               0.476704567               0.000000000               0.187500000               0.500000000               0.000000000               0.025947013               0.130444442               0.000000000               0.032137825               0.153541665               0.000000000               0.038328636               0.176638887               0.000000000               0.044519448               0.199736109               0.000000000               0.050710260               0.222833332               0.000000000               0.056901071               0.245930554               0.000000000               0.063091883               0.269027776               0.000000000               0.069282695               0.292124999               0.000000000               0.075473506               0.315222221               0.000000000               0.081664318               0.338319444               0.000000000               0.087855130               0.361416666               0.000000000               0.094045942               0.384513888               0.000000000               0.100236753               0.407611111               0.000000000               0.106427565               0.430708333               0.000000000               0.112618377               0.453805555               0.000000000               0.118809188               0.476902778               0.000000000               0.125000000               0.500000000               0.000000000               0.013036280               0.132359569               0.000000000               0.016127762               0.155337096               0.000000000               0.019219245               0.178314623               0.000000000               0.022310727               0.201292150               0.000000000               0.025402210               0.224269676               0.000000000               0.028493692               0.247247203               0.000000000               0.031585175               0.270224730               0.000000000               0.034676657               0.293202257               0.000000000               0.037768140               0.316179784               0.000000000               0.040859622               0.339157311               0.000000000               0.043951105               0.362134838               0.000000000               0.047042587               0.385112365               0.000000000               0.050134070               0.408089892               0.000000000               0.053225552               0.431067419               0.000000000               0.056317035               0.454044946               0.000000000               0.059408517               0.477022473               0.000000000               0.062500000               0.500000000               0.000000000               0.000000000               0.133000000               0.000000000               0.000000000               0.155937500               0.000000000               0.000000000               0.178875000               0.000000000               0.000000000               0.201812500               0.000000000               0.000000000               0.224750000               0.000000000               0.000000000               0.247687500               0.000000000               0.000000000               0.270625000               0.000000000               0.000000000               0.293562500               0.000000000               0.000000000               0.316500000               0.000000000               0.000000000               0.339437500               0.000000000               0.000000000               0.362375000               0.000000000               0.000000000               0.385312500               0.000000000               0.000000000               0.408250000               0.000000000               0.000000000               0.431187500               0.000000000               0.000000000               0.454125000               0.000000000               0.000000000               0.477062500               0.000000000               0.000000000               0.500000000               0.000000000               0.133000000               0.000000000               0.000000000               0.155937500               0.000000000               0.000000000               0.178875000               0.000000000               0.000000000               0.201812500               0.000000000               0.000000000               0.224750000               0.000000000               0.000000000               0.247687500               0.000000000               0.000000000               0.270625000               0.000000000               0.000000000               0.293562500               0.000000000               0.000000000               0.316500000               0.000000000               0.000000000               0.339437500               0.000000000               0.000000000               0.362375000               0.000000000               0.000000000               0.385312500               0.000000000               0.000000000               0.408250000               0.000000000               0.000000000               0.431187500               0.000000000               0.000000000               0.454125000               0.000000000               0.000000000               0.477062500               0.000000000               0.000000000               0.500000000               0.000000000               0.000000000               0.132359569              -0.013036280               0.000000000               0.155337096              -0.016127762               0.000000000               0.178314623              -0.019219245               0.000000000               0.201292150              -0.022310727               0.000000000               0.224269676              -0.025402210               0.000000000               0.247247203              -0.028493692               0.000000000               0.270224730              -0.031585175               0.000000000               0.293202257              -0.034676657               0.000000000               0.316179784              -0.037768140               0.000000000               0.339157311              -0.040859622               0.000000000               0.362134838              -0.043951105               0.000000000               0.385112365              -0.047042587               0.000000000               0.408089892              -0.050134070               0.000000000               0.431067419              -0.053225552               0.000000000               0.454044946              -0.056317035               0.000000000               0.477022473              -0.059408517               0.000000000               0.500000000              -0.062500000               0.000000000               0.130444442              -0.025947013               0.000000000               0.153541665              -0.032137825               0.000000000               0.176638887              -0.038328636               0.000000000               0.199736109              -0.044519448               0.000000000               0.222833332              -0.050710260               0.000000000               0.245930554              -0.056901071               0.000000000               0.269027776              -0.063091883               0.000000000               0.292124999              -0.069282695               0.000000000               0.315222221              -0.075473506               0.000000000               0.338319444              -0.081664318               0.000000000               0.361416666              -0.087855130               0.000000000               0.384513888              -0.094045942               0.000000000               0.407611111              -0.100236753               0.000000000               0.430708333              -0.106427565               0.000000000               0.453805555              -0.112618377               0.000000000               0.476902778              -0.118809188               0.000000000               0.500000000              -0.125000000               0.000000000               0.127273065              -0.038607862               0.000000000               0.150568498              -0.047913621               0.000000000               0.173863932              -0.057219379               0.000000000               0.197159365              -0.066525138               0.000000000               0.220454798              -0.075830897               0.000000000               0.243750232              -0.085136655               0.000000000               0.267045665              -0.094442414               0.000000000               0.290341099              -0.103748172               0.000000000               0.313636532              -0.113053931               0.000000000               0.336931966              -0.122359690               0.000000000               0.360227399              -0.131665448               0.000000000               0.383522833              -0.140971207               0.000000000               0.406818266              -0.150276966               0.000000000               0.430113700              -0.159582724               0.000000000               0.453409133              -0.168888483               0.000000000               0.476704567              -0.178194241               0.000000000               0.500000000              -0.187500000               0.000000000               0.122875978              -0.050896897               0.000000000               0.146446229              -0.063340840               0.000000000               0.170016481              -0.075784784               0.000000000               0.193586732              -0.088228728               0.000000000               0.217156983              -0.100672672               0.000000000               0.240727235              -0.113116616               0.000000000               0.264297486              -0.125560560               0.000000000               0.287867738              -0.138004504               0.000000000               0.311437989              -0.150448448               0.000000000               0.335008240              -0.162892392               0.000000000               0.358578492              -0.175336336               0.000000000               0.382148743              -0.187780280               0.000000000               0.405718994              -0.200224224               0.000000000               0.429289246              -0.212668168               0.000000000               0.452859497              -0.225112112               0.000000000               0.476429749              -0.237556056               0.000000000               0.500000000              -0.250000000               0.000000000               0.117295528              -0.062695766               0.000000000               0.141214558              -0.078308531               0.000000000               0.165133587              -0.093921295               0.000000000               0.189052617              -0.109534060               0.000000000               0.212971646              -0.125146824               0.000000000               0.236890676              -0.140759589               0.000000000               0.260809705              -0.156372354               0.000000000               0.284728735              -0.171985118               0.000000000               0.308647764              -0.187597883               0.000000000               0.332566794              -0.203210648               0.000000000               0.356485823              -0.218823412               0.000000000               0.380404853              -0.234436177               0.000000000               0.404323882              -0.250048941               0.000000000               0.428242912              -0.265661706               0.000000000               0.452161941              -0.281274471               0.000000000               0.476080971              -0.296887235               0.000000000               0.500000000              -0.312500000               0.000000000               0.110585458              -0.073890841               0.000000000               0.134923867              -0.092710163               0.000000000               0.159262276              -0.111529486               0.000000000               0.183600685              -0.130348808               0.000000000               0.207939094              -0.149168131               0.000000000               0.232277503              -0.167987453               0.000000000               0.256615912              -0.186806776               0.000000000               0.280954320              -0.205626098               0.000000000               0.305292729              -0.224445420               0.000000000               0.329631138              -0.243264743               0.000000000               0.353969547              -0.262084065               0.000000000               0.378307956              -0.280903388               0.000000000               0.402646365              -0.299722710               0.000000000               0.426984773              -0.318542033               0.000000000               0.451323182              -0.337361355               0.000000000               0.475661591              -0.356180678               0.000000000               0.500000000              -0.375000000               0.000000000               0.102810390              -0.084374307               0.000000000               0.127634741              -0.106444663               0.000000000               0.152459092              -0.128515018               0.000000000               0.177283442              -0.150585374               0.000000000               0.202107793              -0.172655730               0.000000000               0.226932143              -0.194726086               0.000000000               0.251756494              -0.216796442               0.000000000               0.276580845              -0.238866798               0.000000000               0.301405195              -0.260937153               0.000000000               0.326229546              -0.283007509               0.000000000               0.351053896              -0.305077865               0.000000000               0.375878247              -0.327148221               0.000000000               0.400702598              -0.349218577               0.000000000               0.425526948              -0.371288933               0.000000000               0.450351299              -0.393359288               0.000000000               0.475175649              -0.415429644               0.000000000               0.500000000              -0.437500000               0.000000000               0.094045202              -0.094045202               0.000000000               0.119417377              -0.119417377               0.000000000               0.144789552              -0.144789552               0.000000000               0.170161727              -0.170161727               0.000000000               0.195533901              -0.195533901               0.000000000               0.220906076              -0.220906076               0.000000000               0.246278251              -0.246278251               0.000000000               0.271650426              -0.271650426               0.000000000               0.297022601              -0.297022601               0.000000000               0.322394776              -0.322394776               0.000000000               0.347766951              -0.347766951               0.000000000               0.373139126              -0.373139126               0.000000000               0.398511300              -0.398511300               0.000000000               0.423883475              -0.423883475               0.000000000               0.449255650              -0.449255650               0.000000000               0.474627825              -0.474627825               0.000000000               0.500000000              -0.500000000               0.000000000               0.084374307              -0.102810390               0.000000000               0.106444663              -0.127634741               0.000000000               0.128515018              -0.152459092               0.000000000               0.150585374              -0.177283442               0.000000000               0.172655730              -0.202107793               0.000000000               0.194726086              -0.226932143               0.000000000               0.216796442              -0.251756494               0.000000000               0.238866798              -0.276580845               0.000000000               0.260937153              -0.301405195               0.000000000               0.283007509              -0.326229546               0.000000000               0.305077865              -0.351053896               0.000000000               0.327148221              -0.375878247               0.000000000               0.349218577              -0.400702598               0.000000000               0.371288933              -0.425526948               0.000000000               0.393359288              -0.450351299               0.000000000               0.415429644              -0.475175649               0.000000000               0.437500000              -0.500000000               0.000000000               0.073890841              -0.110585458               0.000000000               0.092710163              -0.134923867               0.000000000               0.111529486              -0.159262276               0.000000000               0.130348808              -0.183600685               0.000000000               0.149168131              -0.207939094               0.000000000               0.167987453              -0.232277503               0.000000000               0.186806776              -0.256615912               0.000000000               0.205626098              -0.280954320               0.000000000               0.224445420              -0.305292729               0.000000000               0.243264743              -0.329631138               0.000000000               0.262084065              -0.353969547               0.000000000               0.280903388              -0.378307956               0.000000000               0.299722710              -0.402646365               0.000000000               0.318542033              -0.426984773               0.000000000               0.337361355              -0.451323182               0.000000000               0.356180678              -0.475661591               0.000000000               0.375000000              -0.500000000               0.000000000               0.062695766              -0.117295528               0.000000000               0.078308531              -0.141214558               0.000000000               0.093921295              -0.165133587               0.000000000               0.109534060              -0.189052617               0.000000000               0.125146824              -0.212971646               0.000000000               0.140759589              -0.236890676               0.000000000               0.156372354              -0.260809705               0.000000000               0.171985118              -0.284728735               0.000000000               0.187597883              -0.308647764               0.000000000               0.203210648              -0.332566794               0.000000000               0.218823412              -0.356485823               0.000000000               0.234436177              -0.380404853               0.000000000               0.250048941              -0.404323882               0.000000000               0.265661706              -0.428242912               0.000000000               0.281274471              -0.452161941               0.000000000               0.296887235              -0.476080971               0.000000000               0.312500000              -0.500000000               0.000000000               0.050896897              -0.122875978               0.000000000               0.063340840              -0.146446229               0.000000000               0.075784784              -0.170016481               0.000000000               0.088228728              -0.193586732               0.000000000               0.100672672              -0.217156983               0.000000000               0.113116616              -0.240727235               0.000000000               0.125560560              -0.264297486               0.000000000               0.138004504              -0.287867738               0.000000000               0.150448448              -0.311437989               0.000000000               0.162892392              -0.335008240               0.000000000               0.175336336              -0.358578492               0.000000000               0.187780280              -0.382148743               0.000000000               0.200224224              -0.405718994               0.000000000               0.212668168              -0.429289246               0.000000000               0.225112112              -0.452859497               0.000000000               0.237556056              -0.476429749               0.000000000               0.250000000              -0.500000000               0.000000000               0.038607862              -0.127273065               0.000000000               0.047913621              -0.150568498               0.000000000               0.057219379              -0.173863932               0.000000000               0.066525138              -0.197159365               0.000000000               0.075830897              -0.220454798               0.000000000               0.085136655              -0.243750232               0.000000000               0.094442414              -0.267045665               0.000000000               0.103748172              -0.290341099               0.000000000               0.113053931              -0.313636532               0.000000000               0.122359690              -0.336931966               0.000000000               0.131665448              -0.360227399               0.000000000               0.140971207              -0.383522833               0.000000000               0.150276966              -0.406818266               0.000000000               0.159582724              -0.430113700               0.000000000               0.168888483              -0.453409133               0.000000000               0.178194241              -0.476704567               0.000000000               0.187500000              -0.500000000               0.000000000               0.025947013              -0.130444442               0.000000000               0.032137825              -0.153541665               0.000000000               0.038328636              -0.176638887               0.000000000               0.044519448              -0.199736109               0.000000000               0.050710260              -0.222833332               0.000000000               0.056901071              -0.245930554               0.000000000               0.063091883              -0.269027776               0.000000000               0.069282695              -0.292124999               0.000000000               0.075473506              -0.315222221               0.000000000               0.081664318              -0.338319444               0.000000000               0.087855130              -0.361416666               0.000000000               0.094045942              -0.384513888               0.000000000               0.100236753              -0.407611111               0.000000000               0.106427565              -0.430708333               0.000000000               0.112618377              -0.453805555               0.000000000               0.118809188              -0.476902778               0.000000000               0.125000000              -0.500000000               0.000000000               0.013036280              -0.132359569               0.000000000               0.016127762              -0.155337096               0.000000000               0.019219245              -0.178314623               0.000000000               0.022310727              -0.201292150               0.000000000               0.025402210              -0.224269676               0.000000000               0.028493692              -0.247247203               0.000000000               0.031585175              -0.270224730               0.000000000               0.034676657              -0.293202257               0.000000000               0.037768140              -0.316179784               0.000000000               0.040859622              -0.339157311               0.000000000               0.043951105              -0.362134838               0.000000000               0.047042587              -0.385112365               0.000000000               0.050134070              -0.408089892               0.000000000               0.053225552              -0.431067419               0.000000000               0.056317035              -0.454044946               0.000000000               0.059408517              -0.477022473               0.000000000               0.062500000              -0.500000000               0.000000000               0.000000000              -0.133000000               0.000000000               0.000000000              -0.155937500               0.000000000               0.000000000              -0.178875000               0.000000000               0.000000000              -0.201812500               0.000000000               0.000000000              -0.224750000               0.000000000               0.000000000              -0.247687500               0.000000000               0.000000000              -0.270625000               0.000000000               0.000000000              -0.293562500               0.000000000               0.000000000              -0.316500000               0.000000000               0.000000000              -0.339437500               0.000000000               0.000000000              -0.362375000               0.000000000               0.000000000              -0.385312500               0.000000000               0.000000000              -0.408250000               0.000000000               0.000000000              -0.431187500               0.000000000               0.000000000              -0.454125000               0.000000000               0.000000000              -0.477062500               0.000000000               0.000000000              -0.500000000               0.000000000              -0.133000000               0.000000000               0.000000000              -0.155937500               0.000000000               0.000000000              -0.178875000               0.000000000               0.000000000              -0.201812500               0.000000000               0.000000000              -0.224750000               0.000000000               0.000000000              -0.247687500               0.000000000               0.000000000              -0.270625000               0.000000000               0.000000000              -0.293562500               0.000000000               0.000000000              -0.316500000               0.000000000               0.000000000              -0.339437500               0.000000000               0.000000000              -0.362375000               0.000000000               0.000000000              -0.385312500               0.000000000               0.000000000              -0.408250000               0.000000000               0.000000000              -0.431187500               0.000000000               0.000000000              -0.454125000               0.000000000               0.000000000              -0.477062500               0.000000000               0.000000000              -0.500000000               0.000000000               0.000000000              -0.132359569              -0.013036280               0.000000000              -0.155337096              -0.016127762               0.000000000              -0.178314623              -0.019219245               0.000000000              -0.201292150              -0.022310727               0.000000000              -0.224269676              -0.025402210               0.000000000              -0.247247203              -0.028493692               0.000000000              -0.270224730              -0.031585175               0.000000000              -0.293202257              -0.034676657               0.000000000              -0.316179784              -0.037768140               0.000000000              -0.339157311              -0.040859622               0.000000000              -0.362134838              -0.043951105               0.000000000              -0.385112365              -0.047042587               0.000000000              -0.408089892              -0.050134070               0.000000000              -0.431067419              -0.053225552               0.000000000              -0.454044946              -0.056317035               0.000000000              -0.477022473              -0.059408517               0.000000000              -0.500000000              -0.062500000               0.000000000              -0.130444442              -0.025947013               0.000000000              -0.153541665              -0.032137825               0.000000000              -0.176638887              -0.038328636               0.000000000              -0.199736109              -0.044519448               0.000000000              -0.222833332              -0.050710260               0.000000000              -0.245930554              -0.056901071               0.000000000              -0.269027776              -0.063091883               0.000000000              -0.292124999              -0.069282695               0.000000000              -0.315222221              -0.075473506               0.000000000              -0.338319444              -0.081664318               0.000000000              -0.361416666              -0.087855130               0.000000000              -0.384513888              -0.094045942               0.000000000              -0.407611111              -0.100236753               0.000000000              -0.430708333              -0.106427565               0.000000000              -0.453805555              -0.112618377               0.000000000              -0.476902778              -0.118809188               0.000000000              -0.500000000              -0.125000000               0.000000000              -0.127273065              -0.038607862               0.000000000              -0.150568498              -0.047913621               0.000000000              -0.173863932              -0.057219379               0.000000000              -0.197159365              -0.066525138               0.000000000              -0.220454798              -0.075830897               0.000000000              -0.243750232              -0.085136655               0.000000000              -0.267045665              -0.094442414               0.000000000              -0.290341099              -0.103748172               0.000000000              -0.313636532              -0.113053931               0.000000000              -0.336931966              -0.122359690               0.000000000              -0.360227399              -0.131665448               0.000000000              -0.383522833              -0.140971207               0.000000000              -0.406818266              -0.150276966               0.000000000              -0.430113700              -0.159582724               0.000000000              -0.453409133              -0.168888483               0.000000000              -0.476704567              -0.178194241               0.000000000              -0.500000000              -0.187500000               0.000000000              -0.122875978              -0.050896897               0.000000000              -0.146446229              -0.063340840               0.000000000              -0.170016481              -0.075784784               0.000000000              -0.193586732              -0.088228728               0.000000000              -0.217156983              -0.100672672               0.000000000              -0.240727235              -0.113116616               0.000000000              -0.264297486              -0.125560560               0.000000000              -0.287867738              -0.138004504               0.000000000              -0.311437989              -0.150448448               0.000000000              -0.335008240              -0.162892392               0.000000000              -0.358578492              -0.175336336               0.000000000              -0.382148743              -0.187780280               0.000000000              -0.405718994              -0.200224224               0.000000000              -0.429289246              -0.212668168               0.000000000              -0.452859497              -0.225112112               0.000000000              -0.476429749              -0.237556056               0.000000000              -0.500000000              -0.250000000               0.000000000              -0.117295528              -0.062695766               0.000000000              -0.141214558              -0.078308531               0.000000000              -0.165133587              -0.093921295               0.000000000              -0.189052617              -0.109534060               0.000000000              -0.212971646              -0.125146824               0.000000000              -0.236890676              -0.140759589               0.000000000              -0.260809705              -0.156372354               0.000000000              -0.284728735              -0.171985118               0.000000000              -0.308647764              -0.187597883               0.000000000              -0.332566794              -0.203210648               0.000000000              -0.356485823              -0.218823412               0.000000000              -0.380404853              -0.234436177               0.000000000              -0.404323882              -0.250048941               0.000000000              -0.428242912              -0.265661706               0.000000000              -0.452161941              -0.281274471               0.000000000              -0.476080971              -0.296887235               0.000000000              -0.500000000              -0.312500000               0.000000000              -0.110585458              -0.073890841               0.000000000              -0.134923867              -0.092710163               0.000000000              -0.159262276              -0.111529486               0.000000000              -0.183600685              -0.130348808               0.000000000              -0.207939094              -0.149168131               0.000000000              -0.232277503              -0.167987453               0.000000000              -0.256615912              -0.186806776               0.000000000              -0.280954320              -0.205626098               0.000000000              -0.305292729              -0.224445420               0.000000000              -0.329631138              -0.243264743               0.000000000              -0.353969547              -0.262084065               0.000000000              -0.378307956              -0.280903388               0.000000000              -0.402646365              -0.299722710               0.000000000              -0.426984773              -0.318542033               0.000000000              -0.451323182              -0.337361355               0.000000000              -0.475661591              -0.356180678               0.000000000              -0.500000000              -0.375000000               0.000000000              -0.102810390              -0.084374307               0.000000000              -0.127634741              -0.106444663               0.000000000              -0.152459092              -0.128515018               0.000000000              -0.177283442              -0.150585374               0.000000000              -0.202107793              -0.172655730               0.000000000              -0.226932143              -0.194726086               0.000000000              -0.251756494              -0.216796442               0.000000000              -0.276580845              -0.238866798               0.000000000              -0.301405195              -0.260937153               0.000000000              -0.326229546              -0.283007509               0.000000000              -0.351053896              -0.305077865               0.000000000              -0.375878247              -0.327148221               0.000000000              -0.400702598              -0.349218577               0.000000000              -0.425526948              -0.371288933               0.000000000              -0.450351299              -0.393359288               0.000000000              -0.475175649              -0.415429644               0.000000000              -0.500000000              -0.437500000               0.000000000              -0.094045202              -0.094045202               0.000000000              -0.119417377              -0.119417377               0.000000000              -0.144789552              -0.144789552               0.000000000              -0.170161727              -0.170161727               0.000000000              -0.195533901              -0.195533901               0.000000000              -0.220906076              -0.220906076               0.000000000              -0.246278251              -0.246278251               0.000000000              -0.271650426              -0.271650426               0.000000000              -0.297022601              -0.297022601               0.000000000              -0.322394776              -0.322394776               0.000000000              -0.347766951              -0.347766951               0.000000000              -0.373139126              -0.373139126               0.000000000              -0.398511300              -0.398511300               0.000000000              -0.423883475              -0.423883475               0.000000000              -0.449255650              -0.449255650               0.000000000              -0.474627825              -0.474627825               0.000000000              -0.500000000              -0.500000000               0.000000000              -0.084374307              -0.102810390               0.000000000              -0.106444663              -0.127634741               0.000000000              -0.128515018              -0.152459092               0.000000000              -0.150585374              -0.177283442               0.000000000              -0.172655730              -0.202107793               0.000000000              -0.194726086              -0.226932143               0.000000000              -0.216796442              -0.251756494               0.000000000              -0.238866798              -0.276580845               0.000000000              -0.260937153              -0.301405195               0.000000000              -0.283007509              -0.326229546               0.000000000              -0.305077865              -0.351053896               0.000000000              -0.327148221              -0.375878247               0.000000000              -0.349218577              -0.400702598               0.000000000              -0.371288933              -0.425526948               0.000000000              -0.393359288              -0.450351299               0.000000000              -0.415429644              -0.475175649               0.000000000              -0.437500000              -0.500000000               0.000000000              -0.073890841              -0.110585458               0.000000000              -0.092710163              -0.134923867               0.000000000              -0.111529486              -0.159262276               0.000000000              -0.130348808              -0.183600685               0.000000000              -0.149168131              -0.207939094               0.000000000              -0.167987453              -0.232277503               0.000000000              -0.186806776              -0.256615912               0.000000000              -0.205626098              -0.280954320               0.000000000              -0.224445420              -0.305292729               0.000000000              -0.243264743              -0.329631138               0.000000000              -0.262084065              -0.353969547               0.000000000              -0.280903388              -0.378307956               0.000000000              -0.299722710              -0.402646365               0.000000000              -0.318542033              -0.426984773               0.000000000              -0.337361355              -0.451323182               0.000000000              -0.356180678              -0.475661591               0.000000000              -0.375000000              -0.500000000               0.000000000              -0.062695766              -0.117295528               0.000000000              -0.078308531              -0.141214558               0.000000000              -0.093921295              -0.165133587               0.000000000              -0.109534060              -0.189052617               0.000000000              -0.125146824              -0.212971646               0.000000000              -0.140759589              -0.236890676               0.000000000              -0.156372354              -0.260809705               0.000000000              -0.171985118              -0.284728735               0.000000000              -0.187597883              -0.308647764               0.000000000              -0.203210648              -0.332566794               0.000000000              -0.218823412              -0.356485823               0.000000000              -0.234436177              -0.380404853               0.000000000              -0.250048941              -0.404323882               0.000000000              -0.265661706              -0.428242912               0.000000000              -0.281274471              -0.452161941               0.000000000              -0.296887235              -0.476080971               0.000000000              -0.312500000              -0.500000000               0.000000000              -0.050896897              -0.122875978               0.000000000              -0.063340840              -0.146446229               0.000000000              -0.075784784              -0.170016481               0.000000000              -0.088228728              -0.193586732               0.000000000              -0.100672672              -0.217156983               0.000000000              -0.113116616              -0.240727235               0.000000000              -0.125560560              -0.264297486               0.000000000              -0.138004504              -0.287867738               0.000000000              -0.150448448              -0.311437989               0.000000000              -0.162892392              -0.335008240               0.000000000              -0.175336336              -0.358578492               0.000000000              -0.187780280              -0.382148743               0.000000000              -0.200224224              -0.405718994               0.000000000              -0.212668168              -0.429289246               0.000000000              -0.225112112              -0.452859497               0.000000000              -0.237556056              -0.476429749               0.000000000              -0.250000000              -0.500000000               0.000000000              -0.038607862              -0.127273065               0.000000000              -0.047913621              -0.150568498               0.000000000              -0.057219379              -0.173863932               0.000000000              -0.066525138              -0.197159365               0.000000000              -0.075830897              -0.220454798               0.000000000              -0.085136655              -0.243750232               0.000000000              -0.094442414              -0.267045665               0.000000000              -0.103748172              -0.290341099               0.000000000              -0.113053931              -0.313636532               0.000000000              -0.122359690              -0.336931966               0.000000000              -0.131665448              -0.360227399               0.000000000              -0.140971207              -0.383522833               0.000000000              -0.150276966              -0.406818266               0.000000000              -0.159582724              -0.430113700               0.000000000              -0.168888483              -0.453409133               0.000000000              -0.178194241              -0.476704567               0.000000000              -0.187500000              -0.500000000               0.000000000              -0.025947013              -0.130444442               0.000000000              -0.032137825              -0.153541665               0.000000000              -0.038328636              -0.176638887               0.000000000              -0.044519448              -0.199736109               0.000000000              -0.050710260              -0.222833332               0.000000000              -0.056901071              -0.245930554               0.000000000              -0.063091883              -0.269027776               0.000000000              -0.069282695              -0.292124999               0.000000000              -0.075473506              -0.315222221               0.000000000              -0.081664318              -0.338319444               0.000000000              -0.087855130              -0.361416666               0.000000000              -0.094045942              -0.384513888               0.000000000              -0.100236753              -0.407611111               0.000000000              -0.106427565              -0.430708333               0.000000000              -0.112618377              -0.453805555               0.000000000              -0.118809188              -0.476902778               0.000000000              -0.125000000              -0.500000000               0.000000000              -0.013036280              -0.132359569               0.000000000              -0.016127762              -0.155337096               0.000000000              -0.019219245              -0.178314623               0.000000000              -0.022310727              -0.201292150               0.000000000              -0.025402210              -0.224269676               0.000000000              -0.028493692              -0.247247203               0.000000000              -0.031585175              -0.270224730               0.000000000              -0.034676657              -0.293202257               0.000000000              -0.037768140              -0.316179784               0.000000000              -0.040859622              -0.339157311               0.000000000              -0.043951105              -0.362134838               0.000000000              -0.047042587              -0.385112365               0.000000000              -0.050134070              -0.408089892               0.000000000              -0.053225552              -0.431067419               0.000000000              -0.056317035              -0.454044946               0.000000000              -0.059408517              -0.477022473               0.000000000              -0.062500000              -0.500000000               0.000000000               0.000000000              -0.133000000               0.000000000               0.000000000              -0.155937500               0.000000000               0.000000000              -0.178875000               0.000000000               0.000000000              -0.201812500               0.000000000               0.000000000              -0.224750000               0.000000000               0.000000000              -0.247687500               0.000000000               0.000000000              -0.270625000               0.000000000               0.000000000              -0.293562500               0.000000000               0.000000000              -0.316500000               0.000000000               0.000000000              -0.339437500               0.000000000               0.000000000              -0.362375000               0.000000000               0.000000000              -0.385312500               0.000000000               0.000000000              -0.408250000               0.000000000               0.000000000              -0.431187500               0.000000000               0.000000000              -0.454125000               0.000000000               0.000000000              -0.477062500               0.000000000               0.000000000              -0.500000000               0.000000000              -0.133000000               0.000000000               0.000000000              -0.155937500               0.000000000               0.000000000              -0.178875000               0.000000000               0.000000000              -0.201812500               0.000000000               0.000000000              -0.224750000               0.000000000               0.000000000              -0.247687500               0.000000000               0.000000000              -0.270625000               0.000000000               0.000000000              -0.293562500               0.000000000               0.000000000              -0.316500000               0.000000000               0.000000000              -0.339437500               0.000000000               0.000000000              -0.362375000               0.000000000               0.000000000              -0.385312500               0.000000000               0.000000000              -0.408250000               0.000000000               0.000000000              -0.431187500               0.000000000               0.000000000              -0.454125000               0.000000000               0.000000000              -0.477062500               0.000000000               0.000000000              -0.500000000               0.000000000               0.000000000              -0.132359569               0.013036280               0.000000000              -0.155337096               0.016127762               0.000000000              -0.178314623               0.019219245               0.000000000              -0.201292150               0.022310727               0.000000000              -0.224269676               0.025402210               0.000000000              -0.247247203               0.028493692               0.000000000              -0.270224730               0.031585175               0.000000000              -0.293202257               0.034676657               0.000000000              -0.316179784               0.037768140               0.000000000              -0.339157311               0.040859622               0.000000000              -0.362134838               0.043951105               0.000000000              -0.385112365               0.047042587               0.000000000              -0.408089892               0.050134070               0.000000000              -0.431067419               0.053225552               0.000000000              -0.454044946               0.056317035               0.000000000              -0.477022473               0.059408517               0.000000000              -0.500000000               0.062500000               0.000000000              -0.130444442               0.025947013               0.000000000              -0.153541665               0.032137825               0.000000000              -0.176638887               0.038328636               0.000000000              -0.199736109               0.044519448               0.000000000              -0.222833332               0.050710260               0.000000000              -0.245930554               0.056901071               0.000000000              -0.269027776               0.063091883               0.000000000              -0.292124999               0.069282695               0.000000000              -0.315222221               0.075473506               0.000000000              -0.338319444               0.081664318               0.000000000              -0.361416666               0.087855130               0.000000000              -0.384513888               0.094045942               0.000000000              -0.407611111               0.100236753               0.000000000              -0.430708333               0.106427565               0.000000000              -0.453805555               0.112618377               0.000000000              -0.476902778               0.118809188               0.000000000              -0.500000000               0.125000000               0.000000000              -0.127273065               0.038607862               0.000000000              -0.150568498               0.047913621               0.000000000              -0.173863932               0.057219379               0.000000000              -0.197159365               0.066525138               0.000000000              -0.220454798               0.075830897               0.000000000              -0.243750232               0.085136655               0.000000000              -0.267045665               0.094442414               0.000000000              -0.290341099               0.103748172               0.000000000              -0.313636532               0.113053931               0.000000000              -0.336931966               0.122359690               0.000000000              -0.360227399               0.131665448               0.000000000              -0.383522833               0.140971207               0.000000000              -0.406818266               0.150276966               0.000000000              -0.430113700               0.159582724               0.000000000              -0.453409133               0.168888483               0.000000000              -0.476704567               0.178194241               0.000000000              -0.500000000               0.187500000               0.000000000              -0.122875978               0.050896897               0.000000000              -0.146446229               0.063340840               0.000000000              -0.170016481               0.075784784               0.000000000              -0.193586732               0.088228728               0.000000000              -0.217156983               0.100672672               0.000000000              -0.240727235               0.113116616               0.000000000              -0.264297486               0.125560560               0.000000000              -0.287867738               0.138004504               0.000000000              -0.311437989               0.150448448               0.000000000              -0.335008240               0.162892392               0.000000000              -0.358578492               0.175336336               0.000000000              -0.382148743               0.187780280               0.000000000              -0.405718994               0.200224224               0.000000000              -0.429289246               0.212668168               0.000000000              -0.452859497               0.225112112               0.000000000              -0.476429749               0.237556056               0.000000000              -0.500000000               0.250000000               0.000000000              -0.117295528               0.062695766               0.000000000              -0.141214558               0.078308531               0.000000000              -0.165133587               0.093921295               0.000000000              -0.189052617               0.109534060               0.000000000              -0.212971646               0.125146824               0.000000000              -0.236890676               0.140759589               0.000000000              -0.260809705               0.156372354               0.000000000              -0.284728735               0.171985118               0.000000000              -0.308647764               0.187597883               0.000000000              -0.332566794               0.203210648               0.000000000              -0.356485823               0.218823412               0.000000000              -0.380404853               0.234436177               0.000000000              -0.404323882               0.250048941               0.000000000              -0.428242912               0.265661706               0.000000000              -0.452161941               0.281274471               0.000000000              -0.476080971               0.296887235               0.000000000              -0.500000000               0.312500000               0.000000000              -0.110585458               0.073890841               0.000000000              -0.134923867               0.092710163               0.000000000              -0.159262276               0.111529486               0.000000000              -0.183600685               0.130348808               0.000000000              -0.207939094               0.149168131               0.000000000              -0.232277503               0.167987453               0.000000000              -0.256615912               0.186806776               0.000000000              -0.280954320               0.205626098               0.000000000              -0.305292729               0.224445420               0.000000000              -0.329631138               0.243264743               0.000000000              -0.353969547               0.262084065               0.000000000              -0.378307956               0.280903388               0.000000000              -0.402646365               0.299722710               0.000000000              -0.426984773               0.318542033               0.000000000              -0.451323182               0.337361355               0.000000000              -0.475661591               0.356180678               0.000000000              -0.500000000               0.375000000               0.000000000              -0.102810390               0.084374307               0.000000000              -0.127634741               0.106444663               0.000000000              -0.152459092               0.128515018               0.000000000              -0.177283442               0.150585374               0.000000000              -0.202107793               0.172655730               0.000000000              -0.226932143               0.194726086               0.000000000              -0.251756494               0.216796442               0.000000000              -0.276580845               0.238866798               0.000000000              -0.301405195               0.260937153               0.000000000              -0.326229546               0.283007509               0.000000000              -0.351053896               0.305077865               0.000000000              -0.375878247               0.327148221               0.000000000              -0.400702598               0.349218577               0.000000000              -0.425526948               0.371288933               0.000000000              -0.450351299               0.393359288               0.000000000              -0.475175649               0.415429644               0.000000000              -0.500000000               0.437500000               0.000000000              -0.094045202               0.094045202               0.000000000              -0.119417377               0.119417377               0.000000000              -0.144789552               0.144789552               0.000000000              -0.170161727               0.170161727               0.000000000              -0.195533901               0.195533901               0.000000000              -0.220906076               0.220906076               0.000000000              -0.246278251               0.246278251               0.000000000              -0.271650426               0.271650426               0.000000000              -0.297022601               0.297022601               0.000000000              -0.322394776               0.322394776               0.000000000              -0.347766951               0.347766951               0.000000000              -0.373139126               0.373139126               0.000000000              -0.398511300               0.398511300               0.000000000              -0.423883475               0.423883475               0.000000000              -0.449255650               0.449255650               0.000000000              -0.474627825               0.474627825               0.000000000              -0.500000000               0.500000000               0.000000000              -0.084374307               0.102810390               0.000000000              -0.106444663               0.127634741               0.000000000              -0.128515018               0.152459092               0.000000000              -0.150585374               0.177283442               0.000000000              -0.172655730               0.202107793               0.000000000              -0.194726086               0.226932143               0.000000000              -0.216796442               0.251756494               0.000000000              -0.238866798               0.276580845               0.000000000              -0.260937153               0.301405195               0.000000000              -0.283007509               0.326229546               0.000000000              -0.305077865               0.351053896               0.000000000              -0.327148221               0.375878247               0.000000000              -0.349218577               0.400702598               0.000000000              -0.371288933               0.425526948               0.000000000              -0.393359288               0.450351299               0.000000000              -0.415429644               0.475175649               0.000000000              -0.437500000               0.500000000               0.000000000              -0.073890841               0.110585458               0.000000000              -0.092710163               0.134923867               0.000000000              -0.111529486               0.159262276               0.000000000              -0.130348808               0.183600685               0.000000000              -0.149168131               0.207939094               0.000000000              -0.167987453               0.232277503               0.000000000              -0.186806776               0.256615912               0.000000000              -0.205626098               0.280954320               0.000000000              -0.224445420               0.305292729               0.000000000              -0.243264743               0.329631138               0.000000000              -0.262084065               0.353969547               0.000000000              -0.280903388               0.378307956               0.000000000              -0.299722710               0.402646365               0.000000000              -0.318542033               0.426984773               0.000000000              -0.337361355               0.451323182               0.000000000              -0.356180678               0.475661591               0.000000000              -0.375000000               0.500000000               0.000000000              -0.062695766               0.117295528               0.000000000              -0.078308531               0.141214558               0.000000000              -0.093921295               0.165133587               0.000000000              -0.109534060               0.189052617               0.000000000              -0.125146824               0.212971646               0.000000000              -0.140759589               0.236890676               0.000000000              -0.156372354               0.260809705               0.000000000              -0.171985118               0.284728735               0.000000000              -0.187597883               0.308647764               0.000000000              -0.203210648               0.332566794               0.000000000              -0.218823412               0.356485823               0.000000000              -0.234436177               0.380404853               0.000000000              -0.250048941               0.404323882               0.000000000              -0.265661706               0.428242912               0.000000000              -0.281274471               0.452161941               0.000000000              -0.296887235               0.476080971               0.000000000              -0.312500000               0.500000000               0.000000000              -0.050896897               0.122875978               0.000000000              -0.063340840               0.146446229               0.000000000              -0.075784784               0.170016481               0.000000000              -0.088228728               0.193586732               0.000000000              -0.100672672               0.217156983               0.000000000              -0.113116616               0.240727235               0.000000000              -0.125560560               0.264297486               0.000000000              -0.138004504               0.287867738               0.000000000              -0.150448448               0.311437989               0.000000000              -0.162892392               0.335008240               0.000000000              -0.175336336               0.358578492               0.000000000              -0.187780280               0.382148743               0.000000000              -0.200224224               0.405718994               0.000000000              -0.212668168               0.429289246               0.000000000              -0.225112112               0.452859497               0.000000000              -0.237556056               0.476429749               0.000000000              -0.250000000               0.500000000               0.000000000              -0.038607862               0.127273065               0.000000000              -0.047913621               0.150568498               0.000000000              -0.057219379               0.173863932               0.000000000              -0.066525138               0.197159365               0.000000000              -0.075830897               0.220454798               0.000000000              -0.085136655               0.243750232               0.000000000              -0.094442414               0.267045665               0.000000000              -0.103748172               0.290341099               0.000000000              -0.113053931               0.313636532               0.000000000              -0.122359690               0.336931966               0.000000000              -0.131665448               0.360227399               0.000000000              -0.140971207               0.383522833               0.000000000              -0.150276966               0.406818266               0.000000000              -0.159582724               0.430113700               0.000000000              -0.168888483               0.453409133               0.000000000              -0.178194241               0.476704567               0.000000000              -0.187500000               0.500000000               0.000000000              -0.025947013               0.130444442               0.000000000              -0.032137825               0.153541665               0.000000000              -0.038328636               0.176638887               0.000000000              -0.044519448               0.199736109               0.000000000              -0.050710260               0.222833332               0.000000000              -0.056901071               0.245930554               0.000000000              -0.063091883               0.269027776               0.000000000              -0.069282695               0.292124999               0.000000000              -0.075473506               0.315222221               0.000000000              -0.081664318               0.338319444               0.000000000              -0.087855130               0.361416666               0.000000000              -0.094045942               0.384513888               0.000000000              -0.100236753               0.407611111               0.000000000              -0.106427565               0.430708333               0.000000000              -0.112618377               0.453805555               0.000000000              -0.118809188               0.476902778               0.000000000              -0.125000000               0.500000000               0.000000000              -0.013036280               0.132359569               0.000000000              -0.016127762               0.155337096               0.000000000              -0.019219245               0.178314623               0.000000000              -0.022310727               0.201292150               0.000000000              -0.025402210               0.224269676               0.000000000              -0.028493692               0.247247203               0.000000000              -0.031585175               0.270224730               0.000000000              -0.034676657               0.293202257               0.000000000              -0.037768140               0.316179784               0.000000000              -0.040859622               0.339157311               0.000000000              -0.043951105               0.362134838               0.000000000              -0.047042587               0.385112365               0.000000000              -0.050134070               0.408089892               0.000000000              -0.053225552               0.431067419               0.000000000              -0.056317035               0.454044946               0.000000000              -0.059408517               0.477022473               0.000000000              -0.062500000               0.500000000               0.000000000               0.000000000               0.133000000               0.000000000               0.000000000               0.155937500               0.000000000               0.000000000               0.178875000               0.000000000               0.000000000               0.201812500               0.000000000               0.000000000               0.224750000               0.000000000               0.000000000               0.247687500               0.000000000               0.000000000               0.270625000               0.000000000               0.000000000               0.293562500               0.000000000               0.000000000               0.316500000               0.000000000               0.000000000               0.339437500               0.000000000               0.000000000               0.362375000               0.000000000               0.000000000               0.385312500               0.000000000               0.000000000               0.408250000               0.000000000               0.000000000               0.431187500               0.000000000               0.000000000               0.454125000               0.000000000               0.000000000               0.477062500               0.000000000               0.000000000               0.500000000               0.000000000 </DataArray>
</Points>
<Cells>
<DataArray type="Int32"                                    Name="connectivity"                                                      NumberOfComponents=" 1" format="ascii">
         0          1         18         17          1          2         19         18          2          3         20         19          3          4         21         20          4          5         22         21          5          6         23         22          6          7         24         23          7          8         25         24          8          9         26         25          9         10         27         26         10         11         28         27         11         12         29         28         12         13         30         29         13         14         31         30         14         15         32         31         15         16         33         32         17         18         35         34         18         19         36         35         19         20         37         36         20         21         38         37         21         22         39         38         22         23         40         39         23         24         41         40         24         25         42         41         25         26         43         42         26         27         44         43         27         28         45         44         28         29         46         45         29         30         47         46         30         31         48         47         31         32         49         48         32         33         50         49         34         35         52         51         35         36         53         52         36         37         54         53         37         38         55         54         38         39         56         55         39         40         57         56         40         41         58         57         41         42         59         58         42         43         60         59         43         44         61         60         44         45         62         61         45         46         63         62         46         47         64         63         47         48         65         64         48         49         66         65         49         50         67         66         51         52         69         68         52         53         70         69         53         54         71         70         54         55         72         71         55         56         73         72         56         57         74         73         57         58         75         74         58         59         76         75         59         60         77         76         60         61         78         77         61         62         79         78         62         63         80         79         63         64         81         80         64         65         82         81         65         66         83         82         66         67         84         83         68         69         86         85         69         70         87         86         70         71         88         87         71         72         89         88         72         73         90         89         73         74         91         90         74         75         92         91         75         76         93         92         76         77         94         93         77         78         95         94         78         79         96         95         79         80         97         96         80         81         98         97         81         82         99         98         82         83        100         99         83         84        101        100         85         86        103        102         86         87        104        103         87         88        105        104         88         89        106        105         89         90        107        106         90         91        108        107         91         92        109        108         92         93        110        109         93         94        111        110         94         95        112        111         95         96        113        112         96         97        114        113         97         98        115        114         98         99        116        115         99        100        117        116        100        101        118        117        102        103        120        119        103        104        121        120        104        105        122        121        105        106        123        122        106        107        124        123        107        108        125        124        108        109        126        125        109        110        127        126        110        111        128        127        111        112        129        128        112        113        130        129        113        114        131        130        114        115        132        131        115        116        133        132        116        117        134        133        117        118        135        134        119        120        137        136        120        121        138        137        121        122        139        138        122        123        140        139        123        124        141        140        124        125        142        141        125        126        143        142        126        127        144        143        127        128        145        144        128        129        146        145        129        130        147        146        130        131        148        147        131        132        149        148        132        133        150        149        133        134        151        150        134        135        152        151        136        137        154        153        137        138        155        154        138        139        156        155        139        140        157        156        140        141        158        157        141        142        159        158        142        143        160        159        143        144        161        160        144        145        162        161        145        146        163        162        146        147        164        163        147        148        165        164        148        149        166        165        149        150        167        166        150        151        168        167        151        152        169        168        153        154        171        170        154        155        172        171        155        156        173        172        156        157        174        173        157        158        175        174        158        159        176        175        159        160        177        176        160        161        178        177        161        162        179        178        162        163        180        179        163        164        181        180        164        165        182        181        165        166        183        182        166        167        184        183        167        168        185        184        168        169        186        185        170        171        188        187        171        172        189        188        172        173        190        189        173        174        191        190        174        175        192        191        175        176        193        192        176        177        194        193        177        178        195        194        178        179        196        195        179        180        197        196        180        181        198        197        181        182        199        198        182        183        200        199        183        184        201        200        184        185        202        201        185        186        203        202        187        188        205        204        188        189        206        205        189        190        207        206        190        191        208        207        191        192        209        208        192        193        210        209        193        194        211        210        194        195        212        211        195        196        213        212        196        197        214        213        197        198        215        214        198        199        216        215        199        200        217        216        200        201        218        217        201        202        219        218        202        203        220        219        204        205        222        221        205        206        223        222        206        207        224        223        207        208        225        224        208        209        226        225        209        210        227        226        210        211        228        227        211        212        229        228        212        213        230        229        213        214        231        230        214        215        232        231        215        216        233        232        216        217        234        233        217        218        235        234        218        219        236        235        219        220        237        236        221        222        239        238        222        223        240        239        223        224        241        240        224        225        242        241        225        226        243        242        226        227        244        243        227        228        245        244        228        229        246        245        229        230        247        246        230        231        248        247        231        232        249        248        232        233        250        249        233        234        251        250        234        235        252        251        235        236        253        252        236        237        254        253        238        239        256        255        239        240        257        256        240        241        258        257        241        242        259        258        242        243        260        259        243        244        261        260        244        245        262        261        245        246        263        262        246        247        264        263        247        248        265        264        248        249        266        265        249        250        267        266        250        251        268        267        251        252        269        268        252        253        270        269        253        254        271        270        255        256        273        272        256        257        274        273        257        258        275        274        258        259        276        275        259        260        277        276        260        261        278        277        261        262        279        278        262        263        280        279        263        264        281        280        264        265        282        281        265        266        283        282        266        267        284        283        267        268        285        284        268        269        286        285        269        270        287        286        270        271        288        287        306        307          1          0        307        308          2          1        308        309          3          2        309        310          4          3        310        311          5          4        311        312          6          5        312        313          7          6        313        314          8          7        314        315          9          8        315        316         10          9        316        317         11         10        317        318         12         11        318        319         13         12        319        320         14         13        320        321         15         14        321        322         16         15        323        324        307        306        324        325        308        307        325        326        309        308        326        327        310        309        327        328        311        310        328        329        312        311        329        330        313        312        330        331        314        313        331        332        315        314        332        333        316        315        333        334        317        316        334        335        318        317        335        336        319        318        336        337        320        319        337        338        321        320        338        339        322        321        340        341        324        323        341        342        325        324        342        343        326        325        343        344        327        326        344        345        328        327        345        346        329        328        346        347        330        329        347        348        331        330        348        349        332        331        349        350        333        332        350        351        334        333        351        352        335        334        352        353        336        335        353        354        337        336        354        355        338        337        355        356        339        338        357        358        341        340        358        359        342        341        359        360        343        342        360        361        344        343        361        362        345        344        362        363        346        345        363        364        347        346        364        365        348        347        365        366        349        348        366        367        350        349        367        368        351        350        368        369        352        351        369        370        353        352        370        371        354        353        371        372        355        354        372        373        356        355        374        375        358        357        375        376        359        358        376        377        360        359        377        378        361        360        378        379        362        361        379        380        363        362        380        381        364        363        381        382        365        364        382        383        366        365        383        384        367        366        384        385        368        367        385        386        369        368        386        387        370        369        387        388        371        370        388        389        372        371        389        390        373        372        391        392        375        374        392        393        376        375        393        394        377        376        394        395        378        377        395        396        379        378        396        397        380        379        397        398        381        380        398        399        382        381        399        400        383        382        400        401        384        383        401        402        385        384        402        403        386        385        403        404        387        386        404        405        388        387        405        406        389        388        406        407        390        389        408        409        392        391        409        410        393        392        410        411        394        393        411        412        395        394        412        413        396        395        413        414        397        396        414        415        398        397        415        416        399        398        416        417        400        399        417        418        401        400        418        419        402        401        419        420        403        402        420        421        404        403        421        422        405        404        422        423        406        405        423        424        407        406        425        426        409        408        426        427        410        409        427        428        411        410        428        429        412        411        429        430        413        412        430        431        414        413        431        432        415        414        432        433        416        415        433        434        417        416        434        435        418        417        435        436        419        418        436        437        420        419        437        438        421        420        438        439        422        421        439        440        423        422        440        441        424        423        442        443        426        425        443        444        427        426        444        445        428        427        445        446        429        428        446        447        430        429        447        448        431        430        448        449        432        431        449        450        433        432        450        451        434        433        451        452        435        434        452        453        436        435        453        454        437        436        454        455        438        437        455        456        439        438        456        457        440        439        457        458        441        440        459        460        443        442        460        461        444        443        461        462        445        444        462        463        446        445        463        464        447        446        464        465        448        447        465        466        449        448        466        467        450        449        467        468        451        450        468        469        452        451        469        470        453        452        470        471        454        453        471        472        455        454        472        473        456        455        473        474        457        456        474        475        458        457        476        477        460        459        477        478        461        460        478        479        462        461        479        480        463        462        480        481        464        463        481        482        465        464        482        483        466        465        483        484        467        466        484        485        468        467        485        486        469        468        486        487        470        469        487        488        471        470        488        489        472        471        489        490        473        472        490        491        474        473        491        492        475        474        493        494        477        476        494        495        478        477        495        496        479        478        496        497        480        479        497        498        481        480        498        499        482        481        499        500        483        482        500        501        484        483        501        502        485        484        502        503        486        485        503        504        487        486        504        505        488        487        505        506        489        488        506        507        490        489        507        508        491        490        508        509        492        491        510        511        494        493        511        512        495        494        512        513        496        495        513        514        497        496        514        515        498        497        515        516        499        498        516        517        500        499        517        518        501        500        518        519        502        501        519        520        503        502        520        521        504        503        521        522        505        504        522        523        506        505        523        524        507        506        524        525        508        507        525        526        509        508        527        528        511        510        528        529        512        511        529        530        513        512        530        531        514        513        531        532        515        514        532        533        516        515        533        534        517        516        534        535        518        517        535        536        519        518        536        537        520        519        537        538        521        520        538        539        522        521        539        540        523        522        540        541        524        523        541        542        525        524        542        543        526        525        544        545        528        527        545        546        529        528        546        547        530        529        547        548        531        530        548        549        532        531        549        550        533        532        550        551        534        533        551        552        535        534        552        553        536        535        553        554        537        536        554        555        538        537        555        556        539        538        556        557        540        539        557        558        541        540        558        559        542        541        559        560        543        542        561        562        545        544        562        563        546        545        563        564        547        546        564        565        548        547        565        566        549        548        566        567        550        549        567        568        551        550        568        569        552        551        569        570        553        552        570        571        554        553        571        572        555        554        572        573        556        555        573        574        557        556        574        575        558        557        575        576        559        558        576        577        560        559        578        579        596        595        579        580        597        596        580        581        598        597        581        582        599        598        582        583        600        599        583        584        601        600        584        585        602        601        585        586        603        602        586        587        604        603        587        588        605        604        588        589        606        605        589        590        607        606        590        591        608        607        591        592        609        608        592        593        610        609        593        594        611        610        595        596        613        612        596        597        614        613        597        598        615        614        598        599        616        615        599        600        617        616        600        601        618        617        601        602        619        618        602        603        620        619        603        604        621        620        604        605        622        621        605        606        623        622        606        607        624        623        607        608        625        624        608        609        626        625        609        610        627        626        610        611        628        627        612        613        630        629        613        614        631        630        614        615        632        631        615        616        633        632        616        617        634        633        617        618        635        634        618        619        636        635        619        620        637        636        620        621        638        637        621        622        639        638        622        623        640        639        623        624        641        640        624        625        642        641        625        626        643        642        626        627        644        643        627        628        645        644        629        630        647        646        630        631        648        647        631        632        649        648        632        633        650        649        633        634        651        650        634        635        652        651        635        636        653        652        636        637        654        653        637        638        655        654        638        639        656        655        639        640        657        656        640        641        658        657        641        642        659        658        642        643        660        659        643        644        661        660        644        645        662        661        646        647        664        663        647        648        665        664        648        649        666        665        649        650        667        666        650        651        668        667        651        652        669        668        652        653        670        669        653        654        671        670        654        655        672        671        655        656        673        672        656        657        674        673        657        658        675        674        658        659        676        675        659        660        677        676        660        661        678        677        661        662        679        678        663        664        681        680        664        665        682        681        665        666        683        682        666        667        684        683        667        668        685        684        668        669        686        685        669        670        687        686        670        671        688        687        671        672        689        688        672        673        690        689        673        674        691        690        674        675        692        691        675        676        693        692        676        677        694        693        677        678        695        694        678        679        696        695        680        681        698        697        681        682        699        698        682        683        700        699        683        684        701        700        684        685        702        701        685        686        703        702        686        687        704        703        687        688        705        704        688        689        706        705        689        690        707        706        690        691        708        707        691        692        709        708        692        693        710        709        693        694        711        710        694        695        712        711        695        696        713        712        697        698        715        714        698        699        716        715        699        700        717        716        700        701        718        717        701        702        719        718        702        703        720        719        703        704        721        720        704        705        722        721        705        706        723        722        706        707        724        723        707        708        725        724        708        709        726        725        709        710        727        726        710        711        728        727        711        712        729        728        712        713        730        729        714        715        732        731        715        716        733        732        716        717        734        733        717        718        735        734        718        719        736        735        719        720        737        736        720        721        738        737        721        722        739        738        722        723        740        739        723        724        741        740        724        725        742        741        725        726        743        742        726        727        744        743        727        728        745        744        728        729        746        745        729        730        747        746        731        732        749        748        732        733        750        749        733        734        751        750        734        735        752        751        735        736        753        752        736        737        754        753        737        738        755        754        738        739        756        755        739        740        757        756        740        741        758        757        741        742        759        758        742        743        760        759        743        744        761        760        744        745        762        761        745        746        763        762        746        747        764        763        748        749        766        765        749        750        767        766        750        751        768        767        751        752        769        768        752        753        770        769        753        754        771        770        754        755        772        771        755        756        773        772        756        757        774        773        757        758        775        774        758        759        776        775        759        760        777        776        760        761        778        777        761        762        779        778        762        763        780        779        763        764        781        780        765        766        783        782        766        767        784        783        767        768        785        784        768        769        786        785        769        770        787        786        770        771        788        787        771        772        789        788        772        773        790        789        773        774        791        790        774        775        792        791        775        776        793        792        776        777        794        793        777        778        795        794        778        779        796        795        779        780        797        796        780        781        798        797        782        783        800        799        783        784        801        800        784        785        802        801        785        786        803        802        786        787        804        803        787        788        805        804        788        789        806        805        789        790        807        806        790        791        808        807        791        792        809        808        792        793        810        809        793        794        811        810        794        795        812        811        795        796        813        812        796        797        814        813        797        798        815        814        799        800        817        816        800        801        818        817        801        802        819        818        802        803        820        819        803        804        821        820        804        805        822        821        805        806        823        822        806        807        824        823        807        808        825        824        808        809        826        825        809        810        827        826        810        811        828        827        811        812        829        828        812        813        830        829        813        814        831        830        814        815        832        831        816        817        834        833        817        818        835        834        818        819        836        835        819        820        837        836        820        821        838        837        821        822        839        838        822        823        840        839        823        824        841        840        824        825        842        841        825        826        843        842        826        827        844        843        827        828        845        844        828        829        846        845        829        830        847        846        830        831        848        847        831        832        849        848        833        834        562        561        834        835        563        562        835        836        564        563        836        837        565        564        837        838        566        565        838        839        567        566        839        840        568        567        840        841        569        568        841        842        570        569        842        843        571        570        843        844        572        571        844        845        573        572        845        846        574        573        846        847        575        574        847        848        576        575        848        849        577        576        884        885        579        578        885        886        580        579        886        887        581        580        887        888        582        581        888        889        583        582        889        890        584        583        890        891        585        584        891        892        586        585        892        893        587        586        893        894        588        587        894        895        589        588        895        896        590        589        896        897        591        590        897        898        592        591        898        899        593        592        899        900        594        593        901        902        885        884        902        903        886        885        903        904        887        886        904        905        888        887        905        906        889        888        906        907        890        889        907        908        891        890        908        909        892        891        909        910        893        892        910        911        894        893        911        912        895        894        912        913        896        895        913        914        897        896        914        915        898        897        915        916        899        898        916        917        900        899        918        919        902        901        919        920        903        902        920        921        904        903        921        922        905        904        922        923        906        905        923        924        907        906        924        925        908        907        925        926        909        908        926        927        910        909        927        928        911        910        928        929        912        911        929        930        913        912        930        931        914        913        931        932        915        914        932        933        916        915        933        934        917        916        935        936        919        918        936        937        920        919        937        938        921        920        938        939        922        921        939        940        923        922        940        941        924        923        941        942        925        924        942        943        926        925        943        944        927        926        944        945        928        927        945        946        929        928        946        947        930        929        947        948        931        930        948        949        932        931        949        950        933        932        950        951        934        933        952        953        936        935        953        954        937        936        954        955        938        937        955        956        939        938        956        957        940        939        957        958        941        940        958        959        942        941        959        960        943        942        960        961        944        943        961        962        945        944        962        963        946        945        963        964        947        946        964        965        948        947        965        966        949        948        966        967        950        949        967        968        951        950        969        970        953        952        970        971        954        953        971        972        955        954        972        973        956        955        973        974        957        956        974        975        958        957        975        976        959        958        976        977        960        959        977        978        961        960        978        979        962        961        979        980        963        962        980        981        964        963        981        982        965        964        982        983        966        965        983        984        967        966        984        985        968        967        986        987        970        969        987        988        971        970        988        989        972        971        989        990        973        972        990        991        974        973        991        992        975        974        992        993        976        975        993        994        977        976        994        995        978        977        995        996        979        978        996        997        980        979        997        998        981        980        998        999        982        981        999       1000        983        982       1000       1001        984        983       1001       1002        985        984       1003       1004        987        986       1004       1005        988        987       1005       1006        989        988       1006       1007        990        989       1007       1008        991        990       1008       1009        992        991       1009       1010        993        992       1010       1011        994        993       1011       1012        995        994       1012       1013        996        995       1013       1014        997        996       1014       1015        998        997       1015       1016        999        998       1016       1017       1000        999       1017       1018       1001       1000       1018       1019       1002       1001       1020       1021       1004       1003       1021       1022       1005       1004       1022       1023       1006       1005       1023       1024       1007       1006       1024       1025       1008       1007       1025       1026       1009       1008       1026       1027       1010       1009       1027       1028       1011       1010       1028       1029       1012       1011       1029       1030       1013       1012       1030       1031       1014       1013       1031       1032       1015       1014       1032       1033       1016       1015       1033       1034       1017       1016       1034       1035       1018       1017       1035       1036       1019       1018       1037       1038       1021       1020       1038       1039       1022       1021       1039       1040       1023       1022       1040       1041       1024       1023       1041       1042       1025       1024       1042       1043       1026       1025       1043       1044       1027       1026       1044       1045       1028       1027       1045       1046       1029       1028       1046       1047       1030       1029       1047       1048       1031       1030       1048       1049       1032       1031       1049       1050       1033       1032       1050       1051       1034       1033       1051       1052       1035       1034       1052       1053       1036       1035       1054       1055       1038       1037       1055       1056       1039       1038       1056       1057       1040       1039       1057       1058       1041       1040       1058       1059       1042       1041       1059       1060       1043       1042       1060       1061       1044       1043       1061       1062       1045       1044       1062       1063       1046       1045       1063       1064       1047       1046       1064       1065       1048       1047       1065       1066       1049       1048       1066       1067       1050       1049       1067       1068       1051       1050       1068       1069       1052       1051       1069       1070       1053       1052       1071       1072       1055       1054       1072       1073       1056       1055       1073       1074       1057       1056       1074       1075       1058       1057       1075       1076       1059       1058       1076       1077       1060       1059       1077       1078       1061       1060       1078       1079       1062       1061       1079       1080       1063       1062       1080       1081       1064       1063       1081       1082       1065       1064       1082       1083       1066       1065       1083       1084       1067       1066       1084       1085       1068       1067       1085       1086       1069       1068       1086       1087       1070       1069       1088       1089       1072       1071       1089       1090       1073       1072       1090       1091       1074       1073       1091       1092       1075       1074       1092       1093       1076       1075       1093       1094       1077       1076       1094       1095       1078       1077       1095       1096       1079       1078       1096       1097       1080       1079       1097       1098       1081       1080       1098       1099       1082       1081       1099       1100       1083       1082       1100       1101       1084       1083       1101       1102       1085       1084       1102       1103       1086       1085       1103       1104       1087       1086       1105       1106       1089       1088       1106       1107       1090       1089       1107       1108       1091       1090       1108       1109       1092       1091       1109       1110       1093       1092       1110       1111       1094       1093       1111       1112       1095       1094       1112       1113       1096       1095       1113       1114       1097       1096       1114       1115       1098       1097       1115       1116       1099       1098       1116       1117       1100       1099       1117       1118       1101       1100       1118       1119       1102       1101       1119       1120       1103       1102       1120       1121       1104       1103       1122       1123       1106       1105       1123       1124       1107       1106       1124       1125       1108       1107       1125       1126       1109       1108       1126       1127       1110       1109       1127       1128       1111       1110       1128       1129       1112       1111       1129       1130       1113       1112       1130       1131       1114       1113       1131       1132       1115       1114       1132       1133       1116       1115       1133       1134       1117       1116       1134       1135       1118       1117       1135       1136       1119       1118       1136       1137       1120       1119       1137       1138       1121       1120        272        273       1123       1122        273        274       1124       1123        274        275       1125       1124        275        276       1126       1125        276        277       1127       1126        277        278       1128       1127        278        279       1129       1128        279        280       1130       1129        280        281       1131       1130        281        282       1132       1131        282        283       1133       1132        283        284       1134       1133        284        285       1135       1134        285        286       1136       1135        286        287       1137       1136        287        288       1138       1137 </DataArray>
<DataArray type="Int32"                                    Name="offsets"                                                      NumberOfComponents=" 1" format="ascii">
         4          8         12         16         20         24         28         32         36         40         44         48         52         56         60         64         68         72         76         80         84         88         92         96        100        104        108        112        116        120        124        128        132        136        140        144        148        152        156        160        164        168        172        176        180        184        188        192        196        200        204        208        212        216        220        224        228        232        236        240        244        248        252        256        260        264        268        272        276        280        284        288        292        296        300        304        308        312        316        320        324        328        332        336        340        344        348        352        356        360        364        368        372        376        380        384        388        392        396        400        404        408        412        416        420        424        428        432        436        440        444        448        452        456        460        464        468        472        476        480        484        488        492        496        500        504        508        512        516        520        524        528        532        536        540        544        548        552        556        560        564        568        572        576        580        584        588        592        596        600        604        608        612        616        620        624        628        632        636        640        644        648        652        656        660        664        668        672        676        680        684        688        692        696        700        704        708        712        716        720        724        728        732        736        740        744        748        752        756        760        764        768        772        776        780        784        788        792        796        800        804        808        812        816        820        824        828        832        836        840        844        848        852        856        860        864        868        872        876        880        884        888        892        896        900        904        908        912        916        920        924        928        932        936        940        944        948        952        956        960        964        968        972        976        980        984        988        992        996       1000       1004       1008       1012       1016       1020       1024       1028       1032       1036       1040       1044       1048       1052       1056       1060       1064       1068       1072       1076       1080       1084       1088       1092       1096       1100       1104       1108       1112       1116       1120       1124       1128       1132       1136       1140       1144       1148       1152       1156       1160       1164       1168       1172       1176       1180       1184       1188       1192       1196       1200       1204       1208       1212       1216       1220       1224       1228       1232       1236       1240       1244       1248       1252       1256       1260       1264       1268       1272       1276       1280       1284       1288       1292       1296       1300       1304       1308       1312       1316       1320       1324       1328       1332       1336       1340       1344       1348       1352       1356       1360       1364       1368       1372       1376       1380       1384       1388       1392       1396       1400       1404       1408       1412       1416       1420       1424       1428       1432       1436       1440       1444       1448       1452       1456       1460       1464       1468       1472       1476       1480       1484       1488       1492       1496       1500       1504       1508       1512       1516       1520       1524       1528       1532       1536       1540       1544       1548       1552       1556       1560       1564       1568       1572       1576       1580       1584       1588       1592       1596       1600       1604       1608       1612       1616       1620       1624       1628       1632       1636       1640       1644       1648       1652       1656       1660       1664       1668       1672       1676       1680       1684       1688       1692       1696       1700       1704       1708       1712       1716       1720       1724       1728       1732       1736       1740       1744       1748       1752       1756       1760       1764       1768       1772       1776       1780       1784       1788       1792       1796       1800       1804       1808       1812       1816       1820       1824       1828       1832       1836       1840       1844       1848       1852       1856       1860       1864       1868       1872       1876       1880       1884       1888       1892       1896       1900       1904       1908       1912       1916       1920       1924       1928       1932       1936       1940       1944       1948       1952       1956       1960       1964       1968       1972       1976       1980       1984       1988       1992       1996       2000       2004       2008       2012       2016       2020       2024       2028       2032       2036       2040       2044       2048       2052       2056       2060       2064       2068       2072       2076       2080       2084       2088       2092       2096       2100       2104       2108       2112       2116       2120       2124       2128       2132       2136       2140       2144       2148       2152       2156       2160       2164       2168       2172       2176       2180       2184       2188       2192       2196       2200       2204       2208       2212       2216       2220       2224       2228       2232       2236       2240       2244       2248       2252       2256       2260       2264       2268       2272       2276       2280       2284       2288       2292       2296       2300       2304       2308       2312       2316       2320       2324       2328       2332       2336       2340       2344       2348       2352       2356       2360       2364       2368       2372       2376       2380       2384       2388       2392       2396       2400       2404       2408       2412       2416       2420       2424       2428       2432       2436       2440       2444       2448       2452       2456       2460       2464       2468       2472       2476       2480       2484       2488       2492       2496       2500       2504       2508       2512       2516       2520       2524       2528       2532       2536       2540       2544       2548       2552       2556       2560       2564       2568       2572       2576       2580       2584       2588       2592       2596       2600       2604       2608       2612       2616       2620       2624       2628       2632       2636       2640       2644       2648       2652       2656       2660       2664       2668       2672       2676       2680       2684       2688       2692       2696       2700       2704       2708       2712       2716       2720       2724       2728       2732       2736       2740       2744       2748       2752       2756       2760       2764       2768       2772       2776       2780       2784       2788       2792       2796       2800       2804       2808       2812       2816       2820       2824       2828       2832       2836       2840       2844       2848       2852       2856       2860       2864       2868       2872       2876       2880       2884       2888       2892       2896       2900       2904       2908       2912       2916       2920       2924       2928       2932       2936       2940       2944       2948       2952       2956       2960       2964       2968       2972       2976       2980       2984       2988       2992       2996       3000       3004       3008       3012       3016       3020       3024       3028       3032       3036       3040       3044       3048       3052       3056       3060       3064       3068       3072       3076       3080       3084       3088       3092       3096       3100       3104       3108       3112       3116       3120       3124       3128       3132       3136       3140       3144       3148       3152       3156       3160       3164       3168       3172       3176       3180       3184       3188       3192       3196       3200       3204       3208       3212       3216       3220       3224       3228       3232       3236       3240       3244       3248       3252       3256       3260       3264       3268       3272       3276       3280       3284       3288       3292       3296       3300       3304       3308       3312       3316       3320       3324       3328       3332       3336       3340       3344       3348       3352       3356       3360       3364       3368       3372       3376       3380       3384       3388       3392       3396       3400       3404       3408       3412       3416       3420       3424       3428       3432       3436       3440       3444       3448       3452       3456       3460       3464       3468       3472       3476       3480       3484       3488       3492       3496       3500       3504       3508       3512       3516       3520       3524       3528       3532       3536       3540       3544       3548       3552       3556       3560       3564       3568       3572       3576       3580       3584       3588       3592       3596       3600       3604       3608       3612       3616       3620       3624       3628       3632       3636       3640       3644       3648       3652       3656       3660       3664       3668       3672       3676       3680       3684       3688       3692       3696       3700       3704       3708       3712       3716       3720       3724       3728       3732       3736       3740       3744       3748       3752       3756       3760       3764       3768       3772       3776       3780       3784       3788       3792       3796       3800       3804       3808       3812       3816       3820       3824       3828       3832       3836       3840       3844       3848       3852       3856       3860       3864       3868       3872       3876       3880       3884       3888       3892       3896       3900       3904       3908       3912       3916       3920       3924       3928       3932       3936       3940       3944       3948       3952       3956       3960       3964       3968       3972       3976       3980       3984       3988       3992       3996       4000       4004       4008       4012       4016       4020       4024       4028       4032       4036       4040       4044       4048       4052       4056       4060       4064       4068       4072       4076       4080       4084       4088       4092       4096 </DataArray>
<DataArray type="UInt8"                                    Name="types"                                                      NumberOfComponents=" 1" format="ascii">
         9          9          9          9          9          9          9          9          9          9          9          9          9          9          9          9          9          9          9          9          9          9          9          9          9          9          9          9          9          9          9          9          9          9          9          9          9          9          9          9          9          9          9          9          9          9          9          9          9          9          9          9          9          9          9          9          9          9          9          9          9          9          9          9          9          9          9          9          9          9          9          9          9          9          9          9          9          9          9          9          9          9          9          9          9          9          9          9          9          9          9          9          9          9          9          9          9          9          9          9          9          9          9          9          9          9          9          9          9          9          9          9          9          9          9          9          9          9          9          9          9          9          9          9          9          9          9          9          9          9          9          9          9          9          9          9          9          9          9          9          9          9          9          9          9          9          9          9          9          9          9          9          9          9          9          9          9          9          9          9          9          9          9          9          9          9          9          9          9          9          9          9          9          9          9          9          9          9          9          9          9          9          9          9          9          9          9          9          9          9          9          9          9          9          9          9          9          9          9          9          9          9          9          9          9          9          9          9          9          9          9          9          9          9          9          9          9          9          9          9          9          9          9          9          9          9          9          9          9          9          9          9          9          9          9          9          9          9          9          9          9          9          9          9          9          9          9          9          9          9          9          9          9          9          9          9          9          9          9          9          9          9          9          9          9          9          9          9          9          9          9          9          9          9          9          9          9          9          9          9          9          9          9          9          9          9          9          9          9          9          9          9          9          9          9          9          9          9          9          9          9          9          9          9          9          9          9          9          9          9          9          9          9          9          9          9          9          9          9          9          9          9          9          9          9          9          9          9          9          9          9          9          9          9          9          9          9          9          9          9          9          9          9          9          9          9          9          9          9          9          9          9          9          9          9          9          9          9          9          9          9          9          9          9          9          9          9          9          9          9          9          9          9          9          9          9          9          9          9          9          9          9          9          9          9          9          9          9          9          9          9          9          9          9          9          9          9          9          9          9          9          9          9          9          9          9          9          9          9          9          9          9          9          9          9          9          9          9          9          9          9          9          9          9          9          9          9          9          9          9          9          9          9          9          9          9          9          9          9          9          9          9          9          9          9          9          9          9          9          9          9          9          9          9          9          9          9          9          9          9          9          9          9          9          9          9          9          9          9          9          9          9          9          9          9          9          9          9          9          9          9          9          9          9          9          9          9          9          9          9          9          9          9          9          9          9          9          9          9          9          9          9          9          9          9          9          9          9          9          9          9          9          9          9          9          9          9          9          9          9          9          9          9          9          9          9          9          9          9          9          9          9          9          9          9          9          9          9          9          9          9          9          9          9          9          9          9          9          9          9          9          9          9          9          9          9          9          9          9          9          9          9          9          9          9          9          9          9          9          9          9          9          9          9          9          9          9          9          9          9          9          9          9          9          9          9          9          9          9          9          9          9          9          9          9          9          9          9          9          9          9          9          9          9          9          9          9          9          9          9          9          9          9          9          9          9          9          9          9          9          9          9          9          9          9          9          9          9          9          9          9          9          9          9          9          9          9          9          9          9          9          9          9          9          9          9          9          9          9          9          9          9          9          9          9          9          9          9          9          9          9          9          9          9          9          9          9          9          9          9          9          9          9          9          9          9          9          9          9          9          9          9          9          9          9          9          9          9          9          9          9          9          9          9          9          9          9          9          9          9          9          9          9          9          9          9          9          9          9          9          9          9          9          9          9          9          9          9          9          9          9          9          9          9          9          9          9          9          9          9          9          9          9          9          9          9          9          9          9          9          9          9          9          9          9          9          9          9          9          9          9          9          9          9          9          9          9          9          9          9          9          9          9          9          9          9          9          9          9          9          9          9          9          9          9          9          9          9          9          9          9          9          9          9          9          9          9          9          9          9          9          9          9          9          9          9          9          9          9          9          9          9          9          9          9          9          9          9          9          9          9          9          9          9          9          9          9          9          9          9          9          9          9          9          9          9          9          9          9          9          9          9          9          9          9          9          9          9          9          9          9          9          9          9          9          9          9          9          9          9          9          9          9          9          9          9          9          9          9          9          9          9          9          9          9          9          9          9          9          9          9          9          9          9          9          9          9          9          9          9          9          9          9          9          9          9          9          9          9          9          9          9          9          9          9          9          9          9          9          9          9          9          9          9          9          9          9          9          9          9          9          9          9          9          9          9          9          9          9          9          9          9          9          9          9          9          9          9          9          9          9          9          9          9          9          9          9          9          9          9          9          9          9          9          9          9          9          9          9          9          9          9          9          9          9          9          9          9          9          9          9          9          9          9          9          9          9          9          9          9          9          9          9          9          9          9          9          9          9          9          9          9          9          9          9          9          9          9          9          9          9          9          9          9          9          9          9          9          9          9          9          9          9          9          9          9          9          9          9          9          9          9          9          9          9          9          9          9          9          9          9          9          9          9 </DataArray>
</Cells>
<CellData>
<DataArray type="Int32"                                    Name="material"                                                      NumberOfComponents=" 1" format="ascii">
         1          1          1          1          1          1          1          1          1          1          1          1          1          1          1          1          1          1          1          1          1          1          1          1          1          1          1          1          1          1          1          1          1          1          1          1          1          1          1          1          1          1          1          1          1          1          1          1          1          1          1          1          1          1          1          1          1          1          1          1          1          1          1          1          1          1          1          1          1          1          1          1          1          1          1          1          1          1          1          1          1          1          1          1          1          1          1          1          1          1          1          1          1          1          1          1          1          1          1          1          1          1          1          1          1          1          1          1          1          1          1          1          1          1          1          1          1          1          1          1          1          1          1          1          1          1          1          1          1          1          1          1          1          1          1          1          1          1          1          1          1          1          1          1          1          1          1          1          1          1          1          1          1          1          1          1          1          1          1          1          1          1          1          1          1          1          1          1          1          1          1          1          1          1          1          1          1          1          1          1          1          1          1          1          1          1          1          1          1          1          1          1          1          1          1          1          1          1          1          1          1          1          1          1          1          1          1          1          1          1          1          1          1          1          1          1          1          1          1          1          1          1          1          1          1          1          1          1          1          1          1          1          1          1          1          1          1          1          1          1          1          1          1          1          1          1          1          1          1          1          1          1          1          1          1          1          1          1          1          1          1          1          1          1          1          1          1          1          1          1          1          1          1          1          1          1          1          1          1          1          1          1          1          1          1          1          1          1          1          1          1          1          1          1          1          1          1          1          1          1          1          1          1          1          1          1          1          1          1          1          1          1          1          1          1          1          1          1          1          1          1          1          1          1          1          1          1          1          1          1          1          1          1          1          1          1          1          1          1          1          1          1          1          1          1          1          1          1          1          1          1          1          1          1          1          1          1          1          1          1          1          1          1          1          1          1          1          1          1          1          1          1          1          1          1          1          1          1          1          1          1          1          1          1          1          1          1          1          1          1          1          1          1          1          1          1          1          1          1          1          1          1          1          1          1          1          1          1          1          1          1          1          1          1          1          1          1          1          1          1          1          1          1          1          1          1          1          1          1          1          1          1          1          1          1          1          1          1          1          1          1          1          1          1          1          1          1          1          1          1          1          1          1          1          1          1          1          1          1          1          1          1          1          1          1          1          1          1          1          1          1          1          1          1          1          1          1          1          1          1          1          1          1          1          1          1          1          1          1          1          1          1          1          1          1          1          1          1          1          1          1          1          1          1          1          1          1          1          1          1          1          1          1          1          1          1          1          1          1          1          1          1          1          1          1          1          1          1          1          1          1          1          1          1          1          1          1          1          1          1          1          1          1          1          1          1          1          1          1          1          1          1          1          1          1          1          1          1          1          1          1          1          1          1          1          1          1          1          1          1          1          1          1          1          1          1          1          1          1          1          1          1          1          1          1          1          1          1          1          1          1          1          1          1          1          1          1          1          1          1          1          1          1          1          1          1          1          1          1          1          1          1          1          1          1          1          1          1          1          1          1          1          1          1          1          1          1          1          1          1          1          1          1          1          1          1          1          1          1          1          1          1          1          1          1          1          1          1          1          1          1          1          1          1          1          1          1          1          1          1          1          1          1          1          1          1          1          1          1          1          1          1          1          1          1          1          1          1          1          1          1          1          1          1          1          1          1          1          1          1          1          1          1          1          1          1          1          1          1          1          1          1          1          1          1          1          1          1          1          1          1          1          1          1          1          1          1          1          1          1          1          1          1          1          1          1          1          1          1          1          1          1          1          1          1          1          1          1          1          1          1          1          1          1          1          1          1          1          1          1          1          1          1          1          1          1          1          1          1          1          1          1          1          1          1          1          1          1          1          1          1          1          1          1          1          1          1          1          1          1          1          1          1          1          1          1          1          1          1          1          1          1          1          1          1          1          1          1          1          1          1          1          1          1          1          1          1          1          1          1          1          1          1          1          1          1          1          1          1          1          1          1          1          1          1          1          1          1          1          1          1          1          1          1          1          1          1          1          1          1          1          1          1          1          1          1          1          1          1          1          1          1          1          1          1          1          1          1          1          1          1          1          1          1          1          1          1          1          1          1          1          1          1          1          1          1          1          1          1          1          1          1          1          1          1          1          1          1          1          1          1          1          1          1          1          1          1          1          1          1          1          1          1          1          1          1          1          1          1          1          1          1          1          1          1          1          1          1          1          1          1          1          1          1          1          1          1          1          1          1          1          1          1          1          1          1          1          1          1          1          1          1          1          1          1          1          1          1          1          1          1          1          1          1          1          1          1          1          1          1          1          1          1          1          1          1          1          1          1          1          1          1          1          1          1          1          1          1          1          1          1          1          1          1          1          1          1          1          1          1          1          1          1          1          1          1          1          1          1          1          1          1          1          1          1          1          1          1          1          1          1          1          1          1          1          1          1          1          1          1          1          1          1          1 </DataArray>
</CellData>
<PointData>
<DataArray type="Float64"                                    Name="u"                                                      NumberOfComponents=" 3" format="ascii">
              0.000000009              -0.000000000               1.000000000               0.000000029              -0.000000000               1.000000000              -0.000000053               0.000000000               1.000000000              -0.000000012               0.000000000               1.000000000               0.000000023               0.000000000               1.000000000               0.000000004               0.000000000               1.000000000               0.000000001               0.000000000               1.000000000              -0.000000003               0.000000000               1.000000000              -0.000000027               0.000000000               1.000000000              -0.000000097              -0.000000000               1.000000000              -0.000000211              -0.000000000               1.000000000              -0.000000337              -0.000000000               1.000000000              -0.000000422              -0.000000000               1.000000000              -0.000000413               0.000000000               1.000000000              -0.000000289               0.000000000               1.000000000              -0.000000076              -0.000000000               1.000000000               0.000000159              -0.000000000               1.000000000               0.000000017              -0.000000249               1.000000000               0.000000038              -0.000000159               1.000000000               0.000000016              -0.000000209               1.000000000               0.000000006              -0.000000318               1.000000000              -0.000000020              -0.000000309               1.000000000              -0.000000027              -0.000000406               1.000000000              -0.000000031              -0.000000440               1.000000000              -0.000000050              -0.000000452               1.000000000              -0.000000073              -0.000000418               1.000000000              -0.000000103              -0.000000350               1.000000000              -0.000000131              -0.000000295               1.000000000              -0.000000135              -0.000000304               1.000000000              -0.000000099              -0.000000412               1.000000000              -0.000000023              -0.000000606               1.000000000               0.000000069              -0.000000823               1.000000000               0.000000134              -0.000000975               1.000000000               0.000000112              -0.000000997               1.000000000              -0.000000004              -0.000000359               1.000000000              -0.000000026              -0.000000233               1.000000000              -0.000000024              -0.000000252               1.000000000              -0.000000032              -0.000000320               1.000000000              -0.000000050              -0.000000272               1.000000000              -0.000000049              -0.000000248               1.000000000              -0.000000050              -0.000000167               1.000000000              -0.000000058              -0.000000035               1.000000000              -0.000000066               0.000000146               1.000000000              -0.000000034               0.000000334               1.000000000               0.000000068               0.000000485               1.000000000               0.000000238               0.000000566               1.000000000               0.000000429               0.000000601               1.000000000               0.000000554               0.000000667               1.000000000               0.000000513               0.000000871               1.000000000               0.000000216               0.000001326               1.000000000              -0.000000414               0.000002147               1.000000000               0.000000003              -0.000000333               1.000000000               0.000000019              -0.000000192               1.000000000               0.000000021              -0.000000046               1.000000000               0.000000030               0.000000024               1.000000000               0.000000043               0.000000273               1.000000000               0.000000035               0.000000571               1.000000000               0.000000042               0.000000949               1.000000000               0.000000050               0.000001426               1.000000000               0.000000069               0.000001914               1.000000000               0.000000144               0.000002377               1.000000000               0.000000259               0.000002783               1.000000000               0.000000351               0.000003191               1.000000000               0.000000326               0.000003718               1.000000000               0.000000077               0.000004506               1.000000000              -0.000000497               0.000005690               1.000000000              -0.000001478               0.000007398               1.000000000              -0.000002921               0.000009738               1.000000000              -0.000000019              -0.000000247               1.000000000               0.000000015              -0.000000112               1.000000000              -0.000000032               0.000000320               1.000000000               0.000000002               0.000000601               1.000000000               0.000000036               0.000001180               1.000000000               0.000000044               0.000001886               1.000000000               0.000000072               0.000002739               1.000000000               0.000000100               0.000003681               1.000000000               0.000000146               0.000004642               1.000000000               0.000000195               0.000005579               1.000000000               0.000000170               0.000006544               1.000000000              -0.000000043               0.000007673               1.000000000              -0.000000565               0.000009122               1.000000000              -0.000001497               0.000011055               1.000000000              -0.000002906               0.000013611               1.000000000              -0.000004816               0.000016890               1.000000000              -0.000007223               0.000020962               1.000000000              -0.000000050              -0.000000034               1.000000000              -0.000000011               0.000000087               1.000000000              -0.000000057               0.000000895               1.000000000               0.000000032               0.000001564               1.000000000               0.000000083               0.000002586               1.000000000               0.000000087               0.000003854               1.000000000               0.000000076               0.000005279               1.000000000               0.000000089               0.000006840               1.000000000               0.000000054               0.000008443               1.000000000              -0.000000085               0.000010123               1.000000000              -0.000000445               0.000012016               1.000000000              -0.000001183               0.000014288               1.000000000              -0.000002403               0.000017118               1.000000000              -0.000004168               0.000020644               1.000000000              -0.000006489               0.000024949               1.000000000              -0.000009349               0.000030074               1.000000000              -0.000012707               0.000036051               1.000000000              -0.000000036               0.000000358               1.000000000               0.000000055               0.000000529               1.000000000              -0.000000038               0.000001756               1.000000000               0.000000048               0.000002976               1.000000000               0.000000125               0.000004584               1.000000000               0.000000078               0.000006549               1.000000000               0.000000034               0.000008720               1.000000000              -0.000000032               0.000011083               1.000000000              -0.000000240               0.000013579               1.000000000              -0.000000678               0.000016333               1.000000000              -0.000001519               0.000019528               1.000000000              -0.000002885               0.000023349               1.000000000              -0.000004840               0.000027951               1.000000000              -0.000007398               0.000033403               1.000000000              -0.000010539               0.000039725               1.000000000              -0.000014224               0.000046914               1.000000000              -0.000018392               0.000054926               1.000000000              -0.000000039               0.000000852               1.000000000               0.000000063               0.000001098               1.000000000              -0.000000091               0.000002840               1.000000000               0.000000043               0.000004728               1.000000000               0.000000117               0.000007045               1.000000000               0.000000028               0.000009854               1.000000000              -0.000000054               0.000012944               1.000000000              -0.000000252               0.000016312               1.000000000              -0.000000681               0.000020010               1.000000000              -0.000001509               0.000024174               1.000000000              -0.000002858               0.000029056               1.000000000              -0.000004851               0.000034791               1.000000000              -0.000007475               0.000041494               1.000000000              -0.000010739               0.000049162               1.000000000              -0.000014581               0.000057793               1.000000000              -0.000018963               0.000067299               1.000000000              -0.000023793               0.000077579               1.000000000              -0.000000028               0.000001442               1.000000000               0.000000088               0.000001826               1.000000000              -0.000000115               0.000004136               1.000000000               0.000000048               0.000006746               1.000000000               0.000000105               0.000009932               1.000000000              -0.000000064               0.000013674               1.000000000              -0.000000213               0.000017873               1.000000000              -0.000000565               0.000022511               1.000000000              -0.000001270               0.000027671               1.000000000              -0.000002461               0.000033645               1.000000000              -0.000004312               0.000040544               1.000000000              -0.000006818               0.000048566               1.000000000              -0.000009983               0.000057704               1.000000000              -0.000013752               0.000067985               1.000000000              -0.000018071               0.000079315               1.000000000              -0.000022831               0.000091593               1.000000000              -0.000027909               0.000104568               1.000000000              -0.000000021               0.000002183               1.000000000               0.000000194               0.000002506               1.000000000              -0.000000097               0.000004733               1.000000000              -0.000000022               0.000007578               1.000000000               0.000000150               0.000010905               1.000000000              -0.000000005               0.000014738               1.000000000              -0.000000125               0.000019098               1.000000000              -0.000000348               0.000023907               1.000000000              -0.000000769               0.000029201               1.000000000              -0.000001495               0.000035061               1.000000000              -0.000002636               0.000041722               1.000000000              -0.000004274               0.000049191               1.000000000              -0.000006393               0.000057667               1.000000000              -0.000008974               0.000067090               1.000000000              -0.000012002               0.000077565               1.000000000              -0.000015428               0.000088992               1.000000000              -0.000019211               0.000101434               1.000000000              -0.000000056               0.000002952               1.000000000               0.000000266               0.000003221               1.000000000              -0.000000040               0.000005331               1.000000000              -0.000000100               0.000008295               1.000000000               0.000000089               0.000011736               1.000000000               0.000000052               0.000015691               1.000000000              -0.000000096               0.000020126               1.000000000              -0.000000227               0.000025080               1.000000000              -0.000000456               0.000030541               1.000000000              -0.000000854               0.000036433               1.000000000              -0.000001486               0.000042996               1.000000000              -0.000002422               0.000050222               1.000000000              -0.000003707               0.000058223               1.000000000              -0.000005312               0.000067055               1.000000000              -0.000007223               0.000076747               1.000000000              -0.000009447               0.000087328               1.000000000              -0.000011990               0.000098806               1.000000000              -0.000000072               0.000003760               1.000000000               0.000000315               0.000003974               1.000000000               0.000000047               0.000005943               1.000000000              -0.000000131               0.000008929               1.000000000               0.000000028               0.000012451               1.000000000               0.000000104               0.000016512               1.000000000               0.000000007               0.000021022               1.000000000              -0.000000096               0.000026040               1.000000000              -0.000000204               0.000031615               1.000000000              -0.000000395               0.000037660               1.000000000              -0.000000706               0.000044187               1.000000000              -0.000001173               0.000051361               1.000000000              -0.000001841               0.000059135               1.000000000              -0.000002727               0.000067618               1.000000000              -0.000003796               0.000076802               1.000000000              -0.000005033               0.000086754               1.000000000              -0.000006423               0.000097458               1.000000000              -0.000000047               0.000004515               1.000000000               0.000000355               0.000004774               1.000000000               0.000000136               0.000006581               1.000000000              -0.000000122               0.000009473               1.000000000              -0.000000053               0.000013060               1.000000000               0.000000073               0.000017162               1.000000000               0.000000048               0.000021760               1.000000000              -0.000000021               0.000026815               1.000000000              -0.000000091               0.000032404               1.000000000              -0.000000155               0.000038565               1.000000000              -0.000000271               0.000045147               1.000000000              -0.000000449               0.000052290               1.000000000              -0.000000709               0.000060004               1.000000000              -0.000001083               0.000068317               1.000000000              -0.000001569               0.000077241               1.000000000              -0.000002132               0.000086826               1.000000000              -0.000002736               0.000097035               1.000000000              -0.000000046               0.000005101               1.000000000               0.000000325               0.000005455               1.000000000               0.000000168               0.000007163               1.000000000              -0.000000071               0.000009934               1.000000000              -0.000000092               0.000013546               1.000000000               0.000000037               0.000017679               1.000000000               0.000000057               0.000022309               1.000000000               0.000000032               0.000027397               1.000000000              -0.000000009               0.000032965               1.000000000              -0.000000035               0.000039134               1.000000000              -0.000000054               0.000045804               1.000000000              -0.000000094               0.000052924               1.000000000              -0.000000155               0.000060609               1.000000000              -0.000000252               0.000068836               1.000000000              -0.000000404               0.000077614               1.000000000              -0.000000604               0.000086981               1.000000000              -0.000000829               0.000096921               1.000000000              -0.000000034               0.000005618               1.000000000               0.000000251               0.000006042               1.000000000               0.000000167               0.000007660               1.000000000              -0.000000019               0.000010333               1.000000000              -0.000000079               0.000013875               1.000000000              -0.000000010               0.000018039               1.000000000               0.000000037               0.000022698               1.000000000               0.000000041               0.000027803               1.000000000               0.000000036               0.000033375               1.000000000               0.000000027               0.000039487               1.000000000               0.000000030               0.000046189               1.000000000               0.000000033               0.000053307               1.000000000               0.000000044               0.000060938               1.000000000               0.000000055               0.000069100               1.000000000               0.000000052               0.000077778               1.000000000               0.000000021               0.000086985               1.000000000              -0.000000048               0.000096756               1.000000000              -0.000000016               0.000005924               1.000000000               0.000000124               0.000006427               1.000000000               0.000000116               0.000007985               1.000000000              -0.000000001               0.000010614               1.000000000              -0.000000053               0.000014105               1.000000000              -0.000000026               0.000018276               1.000000000               0.000000005               0.000022975               1.000000000               0.000000024               0.000028083               1.000000000               0.000000031               0.000033644               1.000000000               0.000000029               0.000039695               1.000000000               0.000000032               0.000046364               1.000000000               0.000000035               0.000053489               1.000000000               0.000000047               0.000061099               1.000000000               0.000000077               0.000069232               1.000000000               0.000000112               0.000077877               1.000000000               0.000000139               0.000087005               1.000000000               0.000000149               0.000096669               1.000000000              -0.000000000               0.000005986               1.000000000              -0.000000000               0.000006539               1.000000000               0.000000000               0.000008083               1.000000000              -0.000000000               0.000010658               1.000000000              -0.000000000               0.000014133               1.000000000               0.000000000               0.000018322               1.000000000               0.000000000               0.000023030               1.000000000               0.000000000               0.000028137               1.000000000               0.000000000               0.000033697               1.000000000              -0.000000000               0.000039735               1.000000000              -0.000000000               0.000046398               1.000000000               0.000000000               0.000053542               1.000000000               0.000000000               0.000061165               1.000000000               0.000000000               0.000069305               1.000000000              -0.000000000               0.000077953               1.000000000              -0.000000000               0.000087063               1.000000000              -0.000000000               0.000096692               1.000000000               0.000000009              -0.000000000               1.000000000               0.000000029              -0.000000000               1.000000000              -0.000000053               0.000000000               1.000000000              -0.000000012               0.000000000               1.000000000               0.000000023               0.000000000               1.000000000               0.000000004               0.000000000               1.000000000               0.000000001               0.000000000               1.000000000              -0.000000003               0.000000000               1.000000000              -0.000000027               0.000000000               1.000000000              -0.000000097              -0.000000000               1.000000000              -0.000000211              -0.000000000               1.000000000              -0.000000337              -0.000000000               1.000000000              -0.000000422              -0.000000000               1.000000000              -0.000000413               0.000000000               1.000000000              -0.000000289               0.000000000               1.000000000              -0.000000076              -0.000000000               1.000000000               0.000000159              -0.000000000               1.000000000               0.000000017               0.000000249               1.000000000               0.000000038               0.000000159               1.000000000               0.000000016               0.000000209               1.000000000               0.000000006               0.000000318               1.000000000              -0.000000020               0.000000309               1.000000000              -0.000000027               0.000000406               1.000000000              -0.000000031               0.000000440               1.000000000              -0.000000050               0.000000452               1.000000000              -0.000000073               0.000000418               1.000000000              -0.000000103               0.000000350               1.000000000              -0.000000131               0.000000295               1.000000000              -0.000000135               0.000000304               1.000000000              -0.000000099               0.000000412               1.000000000              -0.000000023               0.000000606               1.000000000               0.000000069               0.000000823               1.000000000               0.000000134               0.000000975               1.000000000               0.000000112               0.000000997               1.000000000              -0.000000004               0.000000359               1.000000000              -0.000000026               0.000000233               1.000000000              -0.000000024               0.000000252               1.000000000              -0.000000032               0.000000320               1.000000000              -0.000000050               0.000000272               1.000000000              -0.000000049               0.000000248               1.000000000              -0.000000050               0.000000167               1.000000000              -0.000000058               0.000000035               1.000000000              -0.000000066              -0.000000146               1.000000000              -0.000000034              -0.000000334               1.000000000               0.000000068              -0.000000485               1.000000000               0.000000238              -0.000000566               1.000000000               0.000000429              -0.000000601               1.000000000               0.000000554              -0.000000667               1.000000000               0.000000513              -0.000000871               1.000000000               0.000000216              -0.000001326               1.000000000              -0.000000414              -0.000002147               1.000000000               0.000000003               0.000000333               1.000000000               0.000000019               0.000000192               1.000000000               0.000000021               0.000000046               1.000000000               0.000000030              -0.000000024               1.000000000               0.000000043              -0.000000273               1.000000000               0.000000035              -0.000000571               1.000000000               0.000000042              -0.000000949               1.000000000               0.000000050              -0.000001426               1.000000000               0.000000069              -0.000001914               1.000000000               0.000000144              -0.000002377               1.000000000               0.000000259              -0.000002783               1.000000000               0.000000351              -0.000003191               1.000000000               0.000000326              -0.000003718               1.000000000               0.000000077              -0.000004506               1.000000000              -0.000000497              -0.000005690               1.000000000              -0.000001478              -0.000007398               1.000000000              -0.000002921              -0.000009738               1.000000000              -0.000000019               0.000000247               1.000000000               0.000000015               0.000000112               1.000000000              -0.000000032              -0.000000320               1.000000000               0.000000002              -0.000000601               1.000000000               0.000000036              -0.000001180               1.000000000               0.000000044              -0.000001886               1.000000000               0.000000072              -0.000002739               1.000000000               0.000000100              -0.000003681               1.000000000               0.000000146              -0.000004642               1.000000000               0.000000195              -0.000005579               1.000000000               0.000000170              -0.000006544               1.000000000              -0.000000043              -0.000007673               1.000000000              -0.000000565              -0.000009122               1.000000000              -0.000001497              -0.000011055               1.000000000              -0.000002906              -0.000013611               1.000000000              -0.000004816              -0.000016890               1.000000000              -0.000007223              -0.000020962               1.000000000              -0.000000050               0.000000034               1.000000000              -0.000000011              -0.000000087               1.000000000              -0.000000057              -0.000000895               1.000000000               0.000000032              -0.000001564               1.000000000               0.000000083              -0.000002586               1.000000000               0.000000087              -0.000003854               1.000000000               0.000000076              -0.000005279               1.000000000               0.000000089              -0.000006840               1.000000000               0.000000054              -0.000008443               1.000000000              -0.000000085              -0.000010123               1.000000000              -0.000000445              -0.000012016               1.000000000              -0.000001183              -0.000014288               1.000000000              -0.000002403              -0.000017118               1.000000000              -0.000004168              -0.000020644               1.000000000              -0.000006489              -0.000024949               1.000000000              -0.000009349              -0.000030074               1.000000000              -0.000012707              -0.000036051               1.000000000              -0.000000036              -0.000000358               1.000000000               0.000000055              -0.000000529               1.000000000              -0.000000038              -0.000001756               1.000000000               0.000000048              -0.000002976               1.000000000               0.000000125              -0.000004584               1.000000000               0.000000078              -0.000006549               1.000000000               0.000000034              -0.000008720               1.000000000              -0.000000032              -0.000011083               1.000000000              -0.000000240              -0.000013579               1.000000000              -0.000000678              -0.000016333               1.000000000              -0.000001519              -0.000019528               1.000000000              -0.000002885              -0.000023349               1.000000000              -0.000004840              -0.000027951               1.000000000              -0.000007398              -0.000033403               1.000000000              -0.000010539              -0.000039725               1.000000000              -0.000014224              -0.000046914               1.000000000              -0.000018392              -0.000054926               1.000000000              -0.000000039              -0.000000852               1.000000000               0.000000063              -0.000001098               1.000000000              -0.000000091              -0.000002840               1.000000000               0.000000043              -0.000004728               1.000000000               0.000000117              -0.000007045               1.000000000               0.000000028              -0.000009854               1.000000000              -0.000000054              -0.000012944               1.000000000              -0.000000252              -0.000016312               1.000000000              -0.000000681              -0.000020010               1.000000000              -0.000001509              -0.000024174               1.000000000              -0.000002858              -0.000029056               1.000000000              -0.000004851              -0.000034791               1.000000000              -0.000007475              -0.000041494               1.000000000              -0.000010739              -0.000049162               1.000000000              -0.000014581              -0.000057793               1.000000000              -0.000018963              -0.000067299               1.000000000              -0.000023793              -0.000077579               1.000000000              -0.000000028              -0.000001442               1.000000000               0.000000088              -0.000001826               1.000000000              -0.000000115              -0.000004136               1.000000000               0.000000048              -0.000006746               1.000000000               0.000000105              -0.000009932               1.000000000              -0.000000064              -0.000013674               1.000000000              -0.000000213              -0.000017873               1.000000000              -0.000000565              -0.000022511               1.000000000              -0.000001270              -0.000027671               1.000000000              -0.000002461              -0.000033645               1.000000000              -0.000004312              -0.000040544               1.000000000              -0.000006818              -0.000048566               1.000000000              -0.000009983              -0.000057704               1.000000000              -0.000013752              -0.000067985               1.000000000              -0.000018071              -0.000079315               1.000000000              -0.000022831              -0.000091593               1.000000000              -0.000027909              -0.000104568               1.000000000              -0.000000021              -0.000002183               1.000000000               0.000000194              -0.000002506               1.000000000              -0.000000097              -0.000004733               1.000000000              -0.000000022              -0.000007578               1.000000000               0.000000150              -0.000010905               1.000000000              -0.000000005              -0.000014738               1.000000000              -0.000000125              -0.000019098               1.000000000              -0.000000348              -0.000023907               1.000000000              -0.000000769              -0.000029201               1.000000000              -0.000001495              -0.000035061               1.000000000              -0.000002636              -0.000041722               1.000000000              -0.000004274              -0.000049191               1.000000000              -0.000006393              -0.000057667               1.000000000              -0.000008974              -0.000067090               1.000000000              -0.000012002              -0.000077565               1.000000000              -0.000015428              -0.000088992               1.000000000              -0.000019211              -0.000101434               1.000000000              -0.000000056              -0.000002952               1.000000000               0.000000266              -0.000003221               1.000000000              -0.000000040              -0.000005331               1.000000000              -0.000000100              -0.000008295               1.000000000               0.000000089              -0.000011736               1.000000000               0.000000052              -0.000015691               1.000000000              -0.000000096              -0.000020126               1.000000000              -0.000000227              -0.000025080               1.000000000              -0.000000456              -0.000030541               1.000000000              -0.000000854              -0.000036433               1.000000000              -0.000001486              -0.000042996               1.000000000              -0.000002422              -0.000050222               1.000000000              -0.000003707              -0.000058223               1.000000000              -0.000005312              -0.000067055               1.000000000              -0.000007223              -0.000076747               1.000000000              -0.000009447              -0.000087328               1.000000000              -0.000011990              -0.000098806               1.000000000              -0.000000072              -0.000003760               1.000000000               0.000000315              -0.000003974               1.000000000               0.000000047              -0.000005943               1.000000000              -0.000000131              -0.000008929               1.000000000               0.000000028              -0.000012451               1.000000000               0.000000104              -0.000016512               1.000000000               0.000000007              -0.000021022               1.000000000              -0.000000096              -0.000026040               1.000000000              -0.000000204              -0.000031615               1.000000000              -0.000000395              -0.000037660               1.000000000              -0.000000706              -0.000044187               1.000000000              -0.000001173              -0.000051361               1.000000000              -0.000001841              -0.000059135               1.000000000              -0.000002727              -0.000067618               1.000000000              -0.000003796              -0.000076802               1.000000000              -0.000005033              -0.000086754               1.000000000              -0.000006423              -0.000097458               1.000000000              -0.000000047              -0.000004515               1.000000000               0.000000355              -0.000004774               1.000000000               0.000000136              -0.000006581               1.000000000              -0.000000122              -0.000009473               1.000000000              -0.000000053              -0.000013060               1.000000000               0.000000073              -0.000017162               1.000000000               0.000000048              -0.000021760               1.000000000              -0.000000021              -0.000026815               1.000000000              -0.000000091              -0.000032404               1.000000000              -0.000000155              -0.000038565               1.000000000              -0.000000271              -0.000045147               1.000000000              -0.000000449              -0.000052290               1.000000000              -0.000000709              -0.000060004               1.000000000              -0.000001083              -0.000068317               1.000000000              -0.000001569              -0.000077241               1.000000000              -0.000002132              -0.000086826               1.000000000              -0.000002736              -0.000097035               1.000000000              -0.000000046              -0.000005101               1.000000000               0.000000325              -0.000005455               1.000000000               0.000000168              -0.000007163               1.000000000              -0.000000071              -0.000009934               1.000000000              -0.000000092              -0.000013546               1.000000000               0.000000037              -0.000017679               1.000000000               0.000000057              -0.000022309               1.000000000               0.000000032              -0.000027397               1.000000000              -0.000000009              -0.000032965               1.000000000              -0.000000035              -0.000039134               1.000000000              -0.000000054              -0.000045804               1.000000000              -0.000000094              -0.000052924               1.000000000              -0.000000155              -0.000060609               1.000000000              -0.000000252              -0.000068836               1.000000000              -0.000000404              -0.000077614               1.000000000              -0.000000604              -0.000086981               1.000000000              -0.000000829              -0.000096921               1.000000000              -0.000000034              -0.000005618               1.000000000               0.000000251              -0.000006042               1.000000000               0.000000167              -0.000007660               1.000000000              -0.000000019              -0.000010333               1.000000000              -0.000000079              -0.000013875               1.000000000              -0.000000010              -0.000018039               1.000000000               0.000000037              -0.000022698               1.000000000               0.000000041              -0.000027803               1.000000000               0.000000036              -0.000033375               1.000000000               0.000000027              -0.000039487               1.000000000               0.000000030              -0.000046189               1.000000000               0.000000033              -0.000053307               1.000000000               0.000000044              -0.000060938               1.000000000               0.000000055              -0.000069100               1.000000000               0.000000052              -0.000077778               1.000000000               0.000000021              -0.000086985               1.000000000              -0.000000048              -0.000096756               1.000000000              -0.000000016              -0.000005924               1.000000000               0.000000124              -0.000006427               1.000000000               0.000000116              -0.000007985               1.000000000              -0.000000001              -0.000010614               1.000000000              -0.000000053              -0.000014105               1.000000000              -0.000000026              -0.000018276               1.000000000               0.000000005              -0.000022975               1.000000000               0.000000024              -0.000028083               1.000000000               0.000000031              -0.000033644               1.000000000               0.000000029              -0.000039695               1.000000000               0.000000032              -0.000046364               1.000000000               0.000000035              -0.000053489               1.000000000               0.000000047              -0.000061099               1.000000000               0.000000077              -0.000069232               1.000000000               0.000000112              -0.000077877               1.000000000               0.000000139              -0.000087005               1.000000000               0.000000149              -0.000096669               1.000000000               0.000000000              -0.000005986               1.000000000              -0.000000000              -0.000006539               1.000000000               0.000000000              -0.000008083               1.000000000              -0.000000000              -0.000010658               1.000000000              -0.000000000              -0.000014133               1.000000000              -0.000000000              -0.000018322               1.000000000               0.000000000              -0.000023030               1.000000000              -0.000000000              -0.000028137               1.000000000              -0.000000000              -0.000033697               1.000000000              -0.000000000              -0.000039735               1.000000000              -0.000000000              -0.000046398               1.000000000               0.000000000              -0.000053542               1.000000000               0.000000000              -0.000061165               1.000000000               0.000000000              -0.000069305               1.000000000               0.000000000              -0.000077953               1.000000000              -0.000000000              -0.000087063               1.000000000               0.000000000              -0.000096692               1.000000000              -0.000000009               0.000000000               1.000000000              -0.000000029               0.000000000               1.000000000               0.000000053              -0.000000000               1.000000000               0.000000012               0.000000000               1.000000000              -0.000000023               0.000000000               1.000000000              -0.000000004               0.000000000               1.000000000              -0.000000001               0.000000000               1.000000000               0.000000003              -0.000000000               1.000000000               0.000000027              -0.000000000               1.000000000               0.000000097               0.000000000               1.000000000               0.000000211               0.000000000               1.000000000               0.000000337               0.000000000               1.000000000               0.000000422               0.000000000               1.000000000               0.000000413               0.000000000               1.000000000               0.000000289              -0.000000000               1.000000000               0.000000076              -0.000000000               1.000000000              -0.000000159              -0.000000000               1.000000000              -0.000000017               0.000000249               1.000000000              -0.000000038               0.000000159               1.000000000              -0.000000016               0.000000209               1.000000000              -0.000000006               0.000000318               1.000000000               0.000000020               0.000000309               1.000000000               0.000000027               0.000000406               1.000000000               0.000000031               0.000000440               1.000000000               0.000000050               0.000000452               1.000000000               0.000000073               0.000000418               1.000000000               0.000000103               0.000000350               1.000000000               0.000000131               0.000000295               1.000000000               0.000000135               0.000000304               1.000000000               0.000000099               0.000000412               1.000000000               0.000000023               0.000000606               1.000000000              -0.000000069               0.000000823               1.000000000              -0.000000134               0.000000975               1.000000000              -0.000000112               0.000000997               1.000000000               0.000000004               0.000000359               1.000000000               0.000000026               0.000000233               1.000000000               0.000000024               0.000000252               1.000000000               0.000000032               0.000000320               1.000000000               0.000000050               0.000000272               1.000000000               0.000000049               0.000000248               1.000000000               0.000000050               0.000000167               1.000000000               0.000000058               0.000000035               1.000000000               0.000000066              -0.000000146               1.000000000               0.000000034              -0.000000334               1.000000000              -0.000000068              -0.000000485               1.000000000              -0.000000238              -0.000000566               1.000000000              -0.000000429              -0.000000601               1.000000000              -0.000000554              -0.000000667               1.000000000              -0.000000513              -0.000000871               1.000000000              -0.000000216              -0.000001326               1.000000000               0.000000414              -0.000002147               1.000000000              -0.000000003               0.000000333               1.000000000              -0.000000019               0.000000192               1.000000000              -0.000000021               0.000000046               1.000000000              -0.000000030              -0.000000024               1.000000000              -0.000000043              -0.000000273               1.000000000              -0.000000035              -0.000000571               1.000000000              -0.000000042              -0.000000949               1.000000000              -0.000000050              -0.000001426               1.000000000              -0.000000069              -0.000001914               1.000000000              -0.000000144              -0.000002377               1.000000000              -0.000000259              -0.000002783               1.000000000              -0.000000351              -0.000003191               1.000000000              -0.000000326              -0.000003718               1.000000000              -0.000000077              -0.000004506               1.000000000               0.000000497              -0.000005690               1.000000000               0.000001478              -0.000007398               1.000000000               0.000002921              -0.000009738               1.000000000               0.000000019               0.000000247               1.000000000              -0.000000015               0.000000112               1.000000000               0.000000032              -0.000000320               1.000000000              -0.000000002              -0.000000601               1.000000000              -0.000000036              -0.000001180               1.000000000              -0.000000044              -0.000001886               1.000000000              -0.000000072              -0.000002739               1.000000000              -0.000000100              -0.000003681               1.000000000              -0.000000146              -0.000004642               1.000000000              -0.000000195              -0.000005579               1.000000000              -0.000000170              -0.000006544               1.000000000               0.000000043              -0.000007673               1.000000000               0.000000565              -0.000009122               1.000000000               0.000001497              -0.000011055               1.000000000               0.000002906              -0.000013611               1.000000000               0.000004816              -0.000016890               1.000000000               0.000007223              -0.000020962               1.000000000               0.000000050               0.000000034               1.000000000               0.000000011              -0.000000087               1.000000000               0.000000057              -0.000000895               1.000000000              -0.000000032              -0.000001564               1.000000000              -0.000000083              -0.000002586               1.000000000              -0.000000087              -0.000003854               1.000000000              -0.000000076              -0.000005279               1.000000000              -0.000000089              -0.000006840               1.000000000              -0.000000054              -0.000008443               1.000000000               0.000000085              -0.000010123               1.000000000               0.000000445              -0.000012016               1.000000000               0.000001183              -0.000014288               1.000000000               0.000002403              -0.000017118               1.000000000               0.000004168              -0.000020644               1.000000000               0.000006489              -0.000024949               1.000000000               0.000009349              -0.000030074               1.000000000               0.000012707              -0.000036051               1.000000000               0.000000036              -0.000000358               1.000000000              -0.000000055              -0.000000529               1.000000000               0.000000038              -0.000001756               1.000000000              -0.000000048              -0.000002976               1.000000000              -0.000000125              -0.000004584               1.000000000              -0.000000078              -0.000006549               1.000000000              -0.000000034              -0.000008720               1.000000000               0.000000032              -0.000011083               1.000000000               0.000000240              -0.000013579               1.000000000               0.000000678              -0.000016333               1.000000000               0.000001519              -0.000019528               1.000000000               0.000002885              -0.000023349               1.000000000               0.000004840              -0.000027951               1.000000000               0.000007398              -0.000033403               1.000000000               0.000010539              -0.000039725               1.000000000               0.000014224              -0.000046914               1.000000000               0.000018392              -0.000054926               1.000000000               0.000000039              -0.000000852               1.000000000              -0.000000063              -0.000001098               1.000000000               0.000000091              -0.000002840               1.000000000              -0.000000043              -0.000004728               1.000000000              -0.000000117              -0.000007045               1.000000000              -0.000000028              -0.000009854               1.000000000               0.000000054              -0.000012944               1.000000000               0.000000252              -0.000016312               1.000000000               0.000000681              -0.000020010               1.000000000               0.000001509              -0.000024174               1.000000000               0.000002858              -0.000029056               1.000000000               0.000004851              -0.000034791               1.000000000               0.000007475              -0.000041494               1.000000000               0.000010739              -0.000049162               1.000000000               0.000014581              -0.000057793               1.000000000               0.000018963              -0.000067299               1.000000000               0.000023793              -0.000077579               1.000000000               0.000000028              -0.000001442               1.000000000              -0.000000088              -0.000001826               1.000000000               0.000000115              -0.000004136               1.000000000              -0.000000048              -0.000006746               1.000000000              -0.000000105              -0.000009932               1.000000000               0.000000064              -0.000013674               1.000000000               0.000000213              -0.000017873               1.000000000               0.000000565              -0.000022511               1.000000000               0.000001270              -0.000027671               1.000000000               0.000002461              -0.000033645               1.000000000               0.000004312              -0.000040544               1.000000000               0.000006818              -0.000048566               1.000000000               0.000009983              -0.000057704               1.000000000               0.000013752              -0.000067985               1.000000000               0.000018071              -0.000079315               1.000000000               0.000022831              -0.000091593               1.000000000               0.000027909              -0.000104568               1.000000000               0.000000021              -0.000002183               1.000000000              -0.000000194              -0.000002506               1.000000000               0.000000097              -0.000004733               1.000000000               0.000000022              -0.000007578               1.000000000              -0.000000150              -0.000010905               1.000000000               0.000000005              -0.000014738               1.000000000               0.000000125              -0.000019098               1.000000000               0.000000348              -0.000023907               1.000000000               0.000000769              -0.000029201               1.000000000               0.000001495              -0.000035061               1.000000000               0.000002636              -0.000041722               1.000000000               0.000004274              -0.000049191               1.000000000               0.000006393              -0.000057667               1.000000000               0.000008974              -0.000067090               1.000000000               0.000012002              -0.000077565               1.000000000               0.000015428              -0.000088992               1.000000000               0.000019211              -0.000101434               1.000000000               0.000000056              -0.000002952               1.000000000              -0.000000266              -0.000003221               1.000000000               0.000000040              -0.000005331               1.000000000               0.000000100              -0.000008295               1.000000000              -0.000000089              -0.000011736               1.000000000              -0.000000052              -0.000015691               1.000000000               0.000000096              -0.000020126               1.000000000               0.000000227              -0.000025080               1.000000000               0.000000456              -0.000030541               1.000000000               0.000000854              -0.000036433               1.000000000               0.000001486              -0.000042996               1.000000000               0.000002422              -0.000050222               1.000000000               0.000003707              -0.000058223               1.000000000               0.000005312              -0.000067055               1.000000000               0.000007223              -0.000076747               1.000000000               0.000009447              -0.000087328               1.000000000               0.000011990              -0.000098806               1.000000000               0.000000072              -0.000003760               1.000000000              -0.000000315              -0.000003974               1.000000000              -0.000000047              -0.000005943               1.000000000               0.000000131              -0.000008929               1.000000000              -0.000000028              -0.000012451               1.000000000              -0.000000104              -0.000016512               1.000000000              -0.000000007              -0.000021022               1.000000000               0.000000096              -0.000026040               1.000000000               0.000000204              -0.000031615               1.000000000               0.000000395              -0.000037660               1.000000000               0.000000706              -0.000044187               1.000000000               0.000001173              -0.000051361               1.000000000               0.000001841              -0.000059135               1.000000000               0.000002727              -0.000067618               1.000000000               0.000003796              -0.000076802               1.000000000               0.000005033              -0.000086754               1.000000000               0.000006423              -0.000097458               1.000000000               0.000000047              -0.000004515               1.000000000              -0.000000355              -0.000004774               1.000000000              -0.000000136              -0.000006581               1.000000000               0.000000122              -0.000009473               1.000000000               0.000000053              -0.000013060               1.000000000              -0.000000073              -0.000017162               1.000000000              -0.000000048              -0.000021760               1.000000000               0.000000021              -0.000026815               1.000000000               0.000000091              -0.000032404               1.000000000               0.000000155              -0.000038565               1.000000000               0.000000271              -0.000045147               1.000000000               0.000000449              -0.000052290               1.000000000               0.000000709              -0.000060004               1.000000000               0.000001083              -0.000068317               1.000000000               0.000001569              -0.000077241               1.000000000               0.000002132              -0.000086826               1.000000000               0.000002736              -0.000097035               1.000000000               0.000000046              -0.000005101               1.000000000              -0.000000325              -0.000005455               1.000000000              -0.000000168              -0.000007163               1.000000000               0.000000071              -0.000009934               1.000000000               0.000000092              -0.000013546               1.000000000              -0.000000037              -0.000017679               1.000000000              -0.000000057              -0.000022309               1.000000000              -0.000000032              -0.000027397               1.000000000               0.000000009              -0.000032965               1.000000000               0.000000035              -0.000039134               1.000000000               0.000000054              -0.000045804               1.000000000               0.000000094              -0.000052924               1.000000000               0.000000155              -0.000060609               1.000000000               0.000000252              -0.000068836               1.000000000               0.000000404              -0.000077614               1.000000000               0.000000604              -0.000086981               1.000000000               0.000000829              -0.000096921               1.000000000               0.000000034              -0.000005618               1.000000000              -0.000000251              -0.000006042               1.000000000              -0.000000167              -0.000007660               1.000000000               0.000000019              -0.000010333               1.000000000               0.000000079              -0.000013875               1.000000000               0.000000010              -0.000018039               1.000000000              -0.000000037              -0.000022698               1.000000000              -0.000000041              -0.000027803               1.000000000              -0.000000036              -0.000033375               1.000000000              -0.000000027              -0.000039487               1.000000000              -0.000000030              -0.000046189               1.000000000              -0.000000033              -0.000053307               1.000000000              -0.000000044              -0.000060938               1.000000000              -0.000000055              -0.000069100               1.000000000              -0.000000052              -0.000077778               1.000000000              -0.000000021              -0.000086985               1.000000000               0.000000048              -0.000096756               1.000000000               0.000000016              -0.000005924               1.000000000              -0.000000124              -0.000006427               1.000000000              -0.000000116              -0.000007985               1.000000000               0.000000001              -0.000010614               1.000000000               0.000000053              -0.000014105               1.000000000               0.000000026              -0.000018276               1.000000000              -0.000000005              -0.000022975               1.000000000              -0.000000024              -0.000028083               1.000000000              -0.000000031              -0.000033644               1.000000000              -0.000000029              -0.000039695               1.000000000              -0.000000032              -0.000046364               1.000000000              -0.000000035              -0.000053489               1.000000000              -0.000000047              -0.000061099               1.000000000              -0.000000077              -0.000069232               1.000000000              -0.000000112              -0.000077877               1.000000000              -0.000000139              -0.000087005               1.000000000              -0.000000149              -0.000096669               1.000000000               0.000000000              -0.000005986               1.000000000              -0.000000000              -0.000006539               1.000000000               0.000000000              -0.000008083               1.000000000              -0.000000000              -0.000010658               1.000000000              -0.000000000              -0.000014133               1.000000000              -0.000000000              -0.000018322               1.000000000               0.000000000              -0.000023030               1.000000000              -0.000000000              -0.000028137               1.000000000              -0.000000000              -0.000033697               1.000000000              -0.000000000              -0.000039735               1.000000000              -0.000000000              -0.000046398               1.000000000               0.000000000              -0.000053542               1.000000000               0.000000000              -0.000061165               1.000000000               0.000000000              -0.000069305               1.000000000               0.000000000              -0.000077953               1.000000000              -0.000000000              -0.000087063               1.000000000               0.000000000              -0.000096692               1.000000000              -0.000000009               0.000000000               1.000000000              -0.000000029               0.000000000               1.000000000               0.000000053              -0.000000000               1.000000000               0.000000012               0.000000000               1.000000000              -0.000000023               0.000000000               1.000000000              -0.000000004               0.000000000               1.000000000              -0.000000001               0.000000000               1.000000000               0.000000003              -0.000000000               1.000000000               0.000000027              -0.000000000               1.000000000               0.000000097               0.000000000               1.000000000               0.000000211               0.000000000               1.000000000               0.000000337               0.000000000               1.000000000               0.000000422               0.000000000               1.000000000               0.000000413               0.000000000               1.000000000               0.000000289              -0.000000000               1.000000000               0.000000076              -0.000000000               1.000000000              -0.000000159              -0.000000000               1.000000000              -0.000000017              -0.000000249               1.000000000              -0.000000038              -0.000000159               1.000000000              -0.000000016              -0.000000209               1.000000000              -0.000000006              -0.000000318               1.000000000               0.000000020              -0.000000309               1.000000000               0.000000027              -0.000000406               1.000000000               0.000000031              -0.000000440               1.000000000               0.000000050              -0.000000452               1.000000000               0.000000073              -0.000000418               1.000000000               0.000000103              -0.000000350               1.000000000               0.000000131              -0.000000295               1.000000000               0.000000135              -0.000000304               1.000000000               0.000000099              -0.000000412               1.000000000               0.000000023              -0.000000606               1.000000000              -0.000000069              -0.000000823               1.000000000              -0.000000134              -0.000000975               1.000000000              -0.000000112              -0.000000997               1.000000000               0.000000004              -0.000000359               1.000000000               0.000000026              -0.000000233               1.000000000               0.000000024              -0.000000252               1.000000000               0.000000032              -0.000000320               1.000000000               0.000000050              -0.000000272               1.000000000               0.000000049              -0.000000248               1.000000000               0.000000050              -0.000000167               1.000000000               0.000000058              -0.000000035               1.000000000               0.000000066               0.000000146               1.000000000               0.000000034               0.000000334               1.000000000              -0.000000068               0.000000485               1.000000000              -0.000000238               0.000000566               1.000000000              -0.000000429               0.000000601               1.000000000              -0.000000554               0.000000667               1.000000000              -0.000000513               0.000000871               1.000000000              -0.000000216               0.000001326               1.000000000               0.000000414               0.000002147               1.000000000              -0.000000003              -0.000000333               1.000000000              -0.000000019              -0.000000192               1.000000000              -0.000000021              -0.000000046               1.000000000              -0.000000030               0.000000024               1.000000000              -0.000000043               0.000000273               1.000000000              -0.000000035               0.000000571               1.000000000              -0.000000042               0.000000949               1.000000000              -0.000000050               0.000001426               1.000000000              -0.000000069               0.000001914               1.000000000              -0.000000144               0.000002377               1.000000000              -0.000000259               0.000002783               1.000000000              -0.000000351               0.000003191               1.000000000              -0.000000326               0.000003718               1.000000000              -0.000000077               0.000004506               1.000000000               0.000000497               0.000005690               1.000000000               0.000001478               0.000007398               1.000000000               0.000002921               0.000009738               1.000000000               0.000000019              -0.000000247               1.000000000              -0.000000015              -0.000000112               1.000000000               0.000000032               0.000000320               1.000000000              -0.000000002               0.000000601               1.000000000              -0.000000036               0.000001180               1.000000000              -0.000000044               0.000001886               1.000000000              -0.000000072               0.000002739               1.000000000              -0.000000100               0.000003681               1.000000000              -0.000000146               0.000004642               1.000000000              -0.000000195               0.000005579               1.000000000              -0.000000170               0.000006544               1.000000000               0.000000043               0.000007673               1.000000000               0.000000565               0.000009122               1.000000000               0.000001497               0.000011055               1.000000000               0.000002906               0.000013611               1.000000000               0.000004816               0.000016890               1.000000000               0.000007223               0.000020962               1.000000000               0.000000050              -0.000000034               1.000000000               0.000000011               0.000000087               1.000000000               0.000000057               0.000000895               1.000000000              -0.000000032               0.000001564               1.000000000              -0.000000083               0.000002586               1.000000000              -0.000000087               0.000003854               1.000000000              -0.000000076               0.000005279               1.000000000              -0.000000089               0.000006840               1.000000000              -0.000000054               0.000008443               1.000000000               0.000000085               0.000010123               1.000000000               0.000000445               0.000012016               1.000000000               0.000001183               0.000014288               1.000000000               0.000002403               0.000017118               1.000000000               0.000004168               0.000020644               1.000000000               0.000006489               0.000024949               1.000000000               0.000009349               0.000030074               1.000000000               0.000012707               0.000036051               1.000000000               0.000000036               0.000000358               1.000000000              -0.000000055               0.000000529               1.000000000               0.000000038               0.000001756               1.000000000              -0.000000048               0.000002976               1.000000000              -0.000000125               0.000004584               1.000000000              -0.000000078               0.000006549               1.000000000              -0.000000034               0.000008720               1.000000000               0.000000032               0.000011083               1.000000000               0.000000240               0.000013579               1.000000000               0.000000678               0.000016333               1.000000000               0.000001519               0.000019528               1.000000000               0.000002885               0.000023349               1.000000000               0.000004840               0.000027951               1.000000000               0.000007398               0.000033403               1.000000000               0.000010539               0.000039725               1.000000000               0.000014224               0.000046914               1.000000000               0.000018392               0.000054926               1.000000000               0.000000039               0.000000852               1.000000000              -0.000000063               0.000001098               1.000000000               0.000000091               0.000002840               1.000000000              -0.000000043               0.000004728               1.000000000              -0.000000117               0.000007045               1.000000000              -0.000000028               0.000009854               1.000000000               0.000000054               0.000012944               1.000000000               0.000000252               0.000016312               1.000000000               0.000000681               0.000020010               1.000000000               0.000001509               0.000024174               1.000000000               0.000002858               0.000029056               1.000000000               0.000004851               0.000034791               1.000000000               0.000007475               0.000041494               1.000000000               0.000010739               0.000049162               1.000000000               0.000014581               0.000057793               1.000000000               0.000018963               0.000067299               1.000000000               0.000023793               0.000077579               1.000000000               0.000000028               0.000001442               1.000000000              -0.000000088               0.000001826               1.000000000               0.000000115               0.000004136               1.000000000              -0.000000048               0.000006746               1.000000000              -0.000000105               0.000009932               1.000000000               0.000000064               0.000013674               1.000000000               0.000000213               0.000017873               1.000000000               0.000000565               0.000022511               1.000000000               0.000001270               0.000027671               1.000000000               0.000002461               0.000033645               1.000000000               0.000004312               0.000040544               1.000000000               0.000006818               0.000048566               1.000000000               0.000009983               0.000057704               1.000000000               0.000013752               0.000067985               1.000000000               0.000018071               0.000079315               1.000000000               0.000022831               0.000091593               1.000000000               0.000027909               0.000104568               1.000000000               0.000000021               0.000002183               1.000000000              -0.000000194               0.000002506               1.000000000               0.000000097               0.000004733               1.000000000               0.000000022               0.000007578               1.000000000              -0.000000150               0.000010905               1.000000000               0.000000005               0.000014738               1.000000000               0.000000125               0.000019098               1.000000000               0.000000348               0.000023907               1.000000000               0.000000769               0.000029201               1.000000000               0.000001495               0.000035061               1.000000000               0.000002636               0.000041722               1.000000000               0.000004274               0.000049191               1.000000000               0.000006393               0.000057667               1.000000000               0.000008974               0.000067090               1.000000000               0.000012002               0.000077565               1.000000000               0.000015428               0.000088992               1.000000000               0.000019211               0.000101434               1.000000000               0.000000056               0.000002952               1.000000000              -0.000000266               0.000003221               1.000000000               0.000000040               0.000005331               1.000000000               0.000000100               0.000008295               1.000000000              -0.000000089               0.000011736               1.000000000              -0.000000052               0.000015691               1.000000000               0.000000096               0.000020126               1.000000000               0.000000227               0.000025080               1.000000000               0.000000456               0.000030541               1.000000000               0.000000854               0.000036433               1.000000000               0.000001486               0.000042996               1.000000000               0.000002422               0.000050222               1.000000000               0.000003707               0.000058223               1.000000000               0.000005312               0.000067055               1.000000000               0.000007223               0.000076747               1.000000000               0.000009447               0.000087328               1.000000000               0.000011990               0.000098806               1.000000000               0.000000072               0.000003760               1.000000000              -0.000000315               0.000003974               1.000000000              -0.000000047               0.000005943               1.000000000               0.000000131               0.000008929               1.000000000              -0.000000028               0.000012451               1.000000000              -0.000000104               0.000016512               1.000000000              -0.000000007               0.000021022               1.000000000               0.000000096               0.000026040               1.000000000               0.000000204               0.000031615               1.000000000               0.000000395               0.000037660               1.000000000               0.000000706               0.000044187               1.000000000               0.000001173               0.000051361               1.000000000               0.000001841               0.000059135               1.000000000               0.000002727               0.000067618               1.000000000               0.000003796               0.000076802               1.000000000               0.000005033               0.000086754               1.000000000               0.000006423               0.000097458               1.000000000               0.000000047               0.000004515               1.000000000              -0.000000355               0.000004774               1.000000000              -0.000000136               0.000006581               1.000000000               0.000000122               0.000009473               1.000000000               0.000000053               0.000013060               1.000000000              -0.000000073               0.000017162               1.000000000              -0.000000048               0.000021760               1.000000000               0.000000021               0.000026815               1.000000000               0.000000091               0.000032404               1.000000000               0.000000155               0.000038565               1.000000000               0.000000271               0.000045147               1.000000000               0.000000449               0.000052290               1.000000000               0.000000709               0.000060004               1.000000000               0.000001083               0.000068317               1.000000000               0.000001569               0.000077241               1.000000000               0.000002132               0.000086826               1.000000000               0.000002736               0.000097035               1.000000000               0.000000046               0.000005101               1.000000000              -0.000000325               0.000005455               1.000000000              -0.000000168               0.000007163               1.000000000               0.000000071               0.000009934               1.000000000               0.000000092               0.000013546               1.000000000              -0.000000037               0.000017679               1.000000000              -0.000000057               0.000022309               1.000000000              -0.000000032               0.000027397               1.000000000               0.000000009               0.000032965               1.000000000               0.000000035               0.000039134               1.000000000               0.000000054               0.000045804               1.000000000               0.000000094               0.000052924               1.000000000               0.000000155               0.000060609               1.000000000               0.000000252               0.000068836               1.000000000               0.000000404               0.000077614               1.000000000               0.000000604               0.000086981               1.000000000               0.000000829               0.000096921               1.000000000               0.000000034               0.000005618               1.000000000              -0.000000251               0.000006042               1.000000000              -0.000000167               0.000007660               1.000000000               0.000000019               0.000010333               1.000000000               0.000000079               0.000013875               1.000000000               0.000000010               0.000018039               1.000000000              -0.000000037               0.000022698               1.000000000              -0.000000041               0.000027803               1.000000000              -0.000000036               0.000033375               1.000000000              -0.000000027               0.000039487               1.000000000              -0.000000030               0.000046189               1.000000000              -0.000000033               0.000053307               1.000000000              -0.000000044               0.000060938               1.000000000              -0.000000055               0.000069100               1.000000000              -0.000000052               0.000077778               1.000000000              -0.000000021               0.000086985               1.000000000               0.000000048               0.000096756               1.000000000               0.000000016               0.000005924               1.000000000              -0.000000124               0.000006427               1.000000000              -0.000000116               0.000007985               1.000000000               0.000000001               0.000010614               1.000000000               0.000000053               0.000014105               1.000000000               0.000000026               0.000018276               1.000000000              -0.000000005               0.000022975               1.000000000              -0.000000024               0.000028083               1.000000000              -0.000000031               0.000033644               1.000000000              -0.000000029               0.000039695               1.000000000              -0.000000032               0.000046364               1.000000000              -0.000000035               0.000053489               1.000000000              -0.000000047               0.000061099               1.000000000              -0.000000077               0.000069232               1.000000000              -0.000000112               0.000077877               1.000000000              -0.000000139               0.000087005               1.000000000              -0.000000149               0.000096669               1.000000000              -0.000000000               0.000005986               1.000000000              -0.000000000               0.000006539               1.000000000               0.000000000               0.000008083               1.000000000              -0.000000000               0.000010658               1.000000000              -0.000000000               0.000014133               1.000000000               0.000000000               0.000018322               1.000000000               0.000000000               0.000023030               1.000000000               0.000000000               0.000028137               1.000000000               0.000000000               0.000033697               1.000000000              -0.000000000               0.000039735               1.000000000              -0.000000000               0.000046398               1.000000000               0.000000000               0.000053542               1.000000000               0.000000000               0.000061165               1.000000000               0.000000000               0.000069305               1.000000000              -0.000000000               0.000077953               1.000000000              -0.000000000               0.000087063               1.000000000              -0.000000000               0.000096692               1.000000000 </DataArray>
<DataArray type="Float64"                                    Name="defo"                                                      NumberOfComponents=" 3" format="ascii">
              0.000000009              -0.000000000               1.000000000               0.000000029              -0.000000000               1.000000000              -0.000000053               0.000000000               1.000000000              -0.000000012               0.000000000               1.000000000               0.000000023               0.000000000               1.000000000               0.000000004               0.000000000               1.000000000               0.000000001               0.000000000               1.000000000              -0.000000003               0.000000000               1.000000000              -0.000000027               0.000000000               1.000000000              -0.000000097              -0.000000000               1.000000000              -0.000000211              -0.000000000               1.000000000              -0.000000337              -0.000000000               1.000000000              -0.000000422              -0.000000000               1.000000000              -0.000000413               0.000000000               1.000000000              -0.000000289               0.000000000               1.000000000              -0.000000076              -0.000000000               1.000000000               0.000000159              -0.000000000               1.000000000               0.000000017              -0.000000249               1.000000000               0.000000038              -0.000000159               1.000000000               0.000000016              -0.000000209               1.000000000               0.000000006              -0.000000318               1.000000000              -0.000000020              -0.000000309               1.000000000              -0.000000027              -0.000000406               1.000000000              -0.000000031              -0.000000440               1.000000000              -0.000000050              -0.000000452               1.000000000              -0.000000073              -0.000000418               1.000000000              -0.000000103              -0.000000350               1.000000000              -0.000000131              -0.000000295               1.000000000              -0.000000135              -0.000000304               1.000000000              -0.000000099              -0.000000412               1.000000000              -0.000000023              -0.000000606               1.000000000               0.000000069              -0.000000823               1.000000000               0.000000134              -0.000000975               1.000000000               0.000000112              -0.000000997               1.000000000              -0.000000004              -0.000000359               1.000000000              -0.000000026              -0.000000233               1.000000000              -0.000000024              -0.000000252               1.000000000              -0.000000032              -0.000000320               1.000000000              -0.000000050              -0.000000272               1.000000000              -0.000000049              -0.000000248               1.000000000              -0.000000050              -0.000000167               1.000000000              -0.000000058              -0.000000035               1.000000000              -0.000000066               0.000000146               1.000000000              -0.000000034               0.000000334               1.000000000               0.000000068               0.000000485               1.000000000               0.000000238               0.000000566               1.000000000               0.000000429               0.000000601               1.000000000               0.000000554               0.000000667               1.000000000               0.000000513               0.000000871               1.000000000               0.000000216               0.000001326               1.000000000              -0.000000414               0.000002147               1.000000000               0.000000003              -0.000000333               1.000000000               0.000000019              -0.000000192               1.000000000               0.000000021              -0.000000046               1.000000000               0.000000030               0.000000024               1.000000000               0.000000043               0.000000273               1.000000000               0.000000035               0.000000571               1.000000000               0.000000042               0.000000949               1.000000000               0.000000050               0.000001426               1.000000000               0.000000069               0.000001914               1.000000000               0.000000144               0.000002377               1.000000000               0.000000259               0.000002783               1.000000000               0.000000351               0.000003191               1.000000000               0.000000326               0.000003718               1.000000000               0.000000077               0.000004506               1.000000000              -0.000000497               0.000005690               1.000000000              -0.000001478               0.000007398               1.000000000              -0.000002921               0.000009738               1.000000000              -0.000000019              -0.000000247               1.000000000               0.000000015              -0.000000112               1.000000000              -0.000000032               0.000000320               1.000000000               0.000000002               0.000000601               1.000000000               0.000000036               0.000001180               1.000000000               0.000000044               0.000001886               1.000000000               0.000000072               0.000002739               1.000000000               0.000000100               0.000003681               1.000000000               0.000000146               0.000004642               1.000000000               0.000000195               0.000005579               1.000000000               0.000000170               0.000006544               1.000000000              -0.000000043               0.000007673               1.000000000              -0.000000565               0.000009122               1.000000000              -0.000001497               0.000011055               1.000000000              -0.000002906               0.000013611               1.000000000              -0.000004816               0.000016890               1.000000000              -0.000007223               0.000020962               1.000000000              -0.000000050              -0.000000034               1.000000000              -0.000000011               0.000000087               1.000000000              -0.000000057               0.000000895               1.000000000               0.000000032               0.000001564               1.000000000               0.000000083               0.000002586               1.000000000               0.000000087               0.000003854               1.000000000               0.000000076               0.000005279               1.000000000               0.000000089               0.000006840               1.000000000               0.000000054               0.000008443               1.000000000              -0.000000085               0.000010123               1.000000000              -0.000000445               0.000012016               1.000000000              -0.000001183               0.000014288               1.000000000              -0.000002403               0.000017118               1.000000000              -0.000004168               0.000020644               1.000000000              -0.000006489               0.000024949               1.000000000              -0.000009349               0.000030074               1.000000000              -0.000012707               0.000036051               1.000000000              -0.000000036               0.000000358               1.000000000               0.000000055               0.000000529               1.000000000              -0.000000038               0.000001756               1.000000000               0.000000048               0.000002976               1.000000000               0.000000125               0.000004584               1.000000000               0.000000078               0.000006549               1.000000000               0.000000034               0.000008720               1.000000000              -0.000000032               0.000011083               1.000000000              -0.000000240               0.000013579               1.000000000              -0.000000678               0.000016333               1.000000000              -0.000001519               0.000019528               1.000000000              -0.000002885               0.000023349               1.000000000              -0.000004840               0.000027951               1.000000000              -0.000007398               0.000033403               1.000000000              -0.000010539               0.000039725               1.000000000              -0.000014224               0.000046914               1.000000000              -0.000018392               0.000054926               1.000000000              -0.000000039               0.000000852               1.000000000               0.000000063               0.000001098               1.000000000              -0.000000091               0.000002840               1.000000000               0.000000043               0.000004728               1.000000000               0.000000117               0.000007045               1.000000000               0.000000028               0.000009854               1.000000000              -0.000000054               0.000012944               1.000000000              -0.000000252               0.000016312               1.000000000              -0.000000681               0.000020010               1.000000000              -0.000001509               0.000024174               1.000000000              -0.000002858               0.000029056               1.000000000              -0.000004851               0.000034791               1.000000000              -0.000007475               0.000041494               1.000000000              -0.000010739               0.000049162               1.000000000              -0.000014581               0.000057793               1.000000000              -0.000018963               0.000067299               1.000000000              -0.000023793               0.000077579               1.000000000              -0.000000028               0.000001442               1.000000000               0.000000088               0.000001826               1.000000000              -0.000000115               0.000004136               1.000000000               0.000000048               0.000006746               1.000000000               0.000000105               0.000009932               1.000000000              -0.000000064               0.000013674               1.000000000              -0.000000213               0.000017873               1.000000000              -0.000000565               0.000022511               1.000000000              -0.000001270               0.000027671               1.000000000              -0.000002461               0.000033645               1.000000000              -0.000004312               0.000040544               1.000000000              -0.000006818               0.000048566               1.000000000              -0.000009983               0.000057704               1.000000000              -0.000013752               0.000067985               1.000000000              -0.000018071               0.000079315               1.000000000              -0.000022831               0.000091593               1.000000000              -0.000027909               0.000104568               1.000000000              -0.000000021               0.000002183               1.000000000               0.000000194               0.000002506               1.000000000              -0.000000097               0.000004733               1.000000000              -0.000000022               0.000007578               1.000000000               0.000000150               0.000010905               1.000000000              -0.000000005               0.000014738               1.000000000              -0.000000125               0.000019098               1.000000000              -0.000000348               0.000023907               1.000000000              -0.000000769               0.000029201               1.000000000              -0.000001495               0.000035061               1.000000000              -0.000002636               0.000041722               1.000000000              -0.000004274               0.000049191               1.000000000              -0.000006393               0.000057667               1.000000000              -0.000008974               0.000067090               1.000000000              -0.000012002               0.000077565               1.000000000              -0.000015428               0.000088992               1.000000000              -0.000019211               0.000101434               1.000000000              -0.000000056               0.000002952               1.000000000               0.000000266               0.000003221               1.000000000              -0.000000040               0.000005331               1.000000000              -0.000000100               0.000008295               1.000000000               0.000000089               0.000011736               1.000000000               0.000000052               0.000015691               1.000000000              -0.000000096               0.000020126               1.000000000              -0.000000227               0.000025080               1.000000000              -0.000000456               0.000030541               1.000000000              -0.000000854               0.000036433               1.000000000              -0.000001486               0.000042996               1.000000000              -0.000002422               0.000050222               1.000000000              -0.000003707               0.000058223               1.000000000              -0.000005312               0.000067055               1.000000000              -0.000007223               0.000076747               1.000000000              -0.000009447               0.000087328               1.000000000              -0.000011990               0.000098806               1.000000000              -0.000000072               0.000003760               1.000000000               0.000000315               0.000003974               1.000000000               0.000000047               0.000005943               1.000000000              -0.000000131               0.000008929               1.000000000               0.000000028               0.000012451               1.000000000               0.000000104               0.000016512               1.000000000               0.000000007               0.000021022               1.000000000              -0.000000096               0.000026040               1.000000000              -0.000000204               0.000031615               1.000000000              -0.000000395               0.000037660               1.000000000              -0.000000706               0.000044187               1.000000000              -0.000001173               0.000051361               1.000000000              -0.000001841               0.000059135               1.000000000              -0.000002727               0.000067618               1.000000000              -0.000003796               0.000076802               1.000000000              -0.000005033               0.000086754               1.000000000              -0.000006423               0.000097458               1.000000000              -0.000000047               0.000004515               1.000000000               0.000000355               0.000004774               1.000000000               0.000000136               0.000006581               1.000000000              -0.000000122               0.000009473               1.000000000              -0.000000053               0.000013060               1.000000000               0.000000073               0.000017162               1.000000000               0.000000048               0.000021760               1.000000000              -0.000000021               0.000026815               1.000000000              -0.000000091               0.000032404               1.000000000              -0.000000155               0.000038565               1.000000000              -0.000000271               0.000045147               1.000000000              -0.000000449               0.000052290               1.000000000              -0.000000709               0.000060004               1.000000000              -0.000001083               0.000068317               1.000000000              -0.000001569               0.000077241               1.000000000              -0.000002132               0.000086826               1.000000000              -0.000002736               0.000097035               1.000000000              -0.000000046               0.000005101               1.000000000               0.000000325               0.000005455               1.000000000               0.000000168               0.000007163               1.000000000              -0.000000071               0.000009934               1.000000000              -0.000000092               0.000013546               1.000000000               0.000000037               0.000017679               1.000000000               0.000000057               0.000022309               1.000000000               0.000000032               0.000027397               1.000000000              -0.000000009               0.000032965               1.000000000              -0.000000035               0.000039134               1.000000000              -0.000000054               0.000045804               1.000000000              -0.000000094               0.000052924               1.000000000              -0.000000155               0.000060609               1.000000000              -0.000000252               0.000068836               1.000000000              -0.000000404               0.000077614               1.000000000              -0.000000604               0.000086981               1.000000000              -0.000000829               0.000096921               1.000000000              -0.000000034               0.000005618               1.000000000               0.000000251               0.000006042               1.000000000               0.000000167               0.000007660               1.000000000              -0.000000019               0.000010333               1.000000000              -0.000000079               0.000013875               1.000000000              -0.000000010               0.000018039               1.000000000               0.000000037               0.000022698               1.000000000               0.000000041               0.000027803               1.000000000               0.000000036               0.000033375               1.000000000               0.000000027               0.000039487               1.000000000               0.000000030               0.000046189               1.000000000               0.000000033               0.000053307               1.000000000               0.000000044               0.000060938               1.000000000               0.000000055               0.000069100               1.000000000               0.000000052               0.000077778               1.000000000               0.000000021               0.000086985               1.000000000              -0.000000048               0.000096756               1.000000000              -0.000000016               0.000005924               1.000000000               0.000000124               0.000006427               1.000000000               0.000000116               0.000007985               1.000000000              -0.000000001               0.000010614               1.000000000              -0.000000053               0.000014105               1.000000000              -0.000000026               0.000018276               1.000000000               0.000000005               0.000022975               1.000000000               0.000000024               0.000028083               1.000000000               0.000000031               0.000033644               1.000000000               0.000000029               0.000039695               1.000000000               0.000000032               0.000046364               1.000000000               0.000000035               0.000053489               1.000000000               0.000000047               0.000061099               1.000000000               0.000000077               0.000069232               1.000000000               0.000000112               0.000077877               1.000000000               0.000000139               0.000087005               1.000000000               0.000000149               0.000096669               1.000000000              -0.000000000               0.000005986               1.000000000              -0.000000000               0.000006539               1.000000000               0.000000000               0.000008083               1.000000000              -0.000000000               0.000010658               1.000000000              -0.000000000               0.000014133               1.000000000               0.000000000               0.000018322               1.000000000               0.000000000               0.000023030               1.000000000               0.000000000               0.000028137               1.000000000               0.000000000               0.000033697               1.000000000              -0.000000000               0.000039735               1.000000000              -0.000000000               0.000046398               1.000000000               0.000000000               0.000053542               1.000000000               0.000000000               0.000061165               1.000000000               0.000000000               0.000069305               1.000000000              -0.000000000               0.000077953               1.000000000              -0.000000000               0.000087063               1.000000000              -0.000000000               0.000096692               1.000000000               0.000000009              -0.000000000               1.000000000               0.000000029              -0.000000000               1.000000000              -0.000000053               0.000000000               1.000000000              -0.000000012               0.000000000               1.000000000               0.000000023               0.000000000               1.000000000               0.000000004               0.000000000               1.000000000               0.000000001               0.000000000               1.000000000              -0.000000003               0.000000000               1.000000000              -0.000000027               0.000000000               1.000000000              -0.000000097              -0.000000000               1.000000000              -0.000000211              -0.000000000               1.000000000              -0.000000337              -0.000000000               1.000000000              -0.000000422              -0.000000000               1.000000000              -0.000000413               0.000000000               1.000000000              -0.000000289               0.000000000               1.000000000              -0.000000076              -0.000000000               1.000000000               0.000000159              -0.000000000               1.000000000               0.000000017               0.000000249               1.000000000               0.000000038               0.000000159               1.000000000               0.000000016               0.000000209               1.000000000               0.000000006               0.000000318               1.000000000              -0.000000020               0.000000309               1.000000000              -0.000000027               0.000000406               1.000000000              -0.000000031               0.000000440               1.000000000              -0.000000050               0.000000452               1.000000000              -0.000000073               0.000000418               1.000000000              -0.000000103               0.000000350               1.000000000              -0.000000131               0.000000295               1.000000000              -0.000000135               0.000000304               1.000000000              -0.000000099               0.000000412               1.000000000              -0.000000023               0.000000606               1.000000000               0.000000069               0.000000823               1.000000000               0.000000134               0.000000975               1.000000000               0.000000112               0.000000997               1.000000000              -0.000000004               0.000000359               1.000000000              -0.000000026               0.000000233               1.000000000              -0.000000024               0.000000252               1.000000000              -0.000000032               0.000000320               1.000000000              -0.000000050               0.000000272               1.000000000              -0.000000049               0.000000248               1.000000000              -0.000000050               0.000000167               1.000000000              -0.000000058               0.000000035               1.000000000              -0.000000066              -0.000000146               1.000000000              -0.000000034              -0.000000334               1.000000000               0.000000068              -0.000000485               1.000000000               0.000000238              -0.000000566               1.000000000               0.000000429              -0.000000601               1.000000000               0.000000554              -0.000000667               1.000000000               0.000000513              -0.000000871               1.000000000               0.000000216              -0.000001326               1.000000000              -0.000000414              -0.000002147               1.000000000               0.000000003               0.000000333               1.000000000               0.000000019               0.000000192               1.000000000               0.000000021               0.000000046               1.000000000               0.000000030              -0.000000024               1.000000000               0.000000043              -0.000000273               1.000000000               0.000000035              -0.000000571               1.000000000               0.000000042              -0.000000949               1.000000000               0.000000050              -0.000001426               1.000000000               0.000000069              -0.000001914               1.000000000               0.000000144              -0.000002377               1.000000000               0.000000259              -0.000002783               1.000000000               0.000000351              -0.000003191               1.000000000               0.000000326              -0.000003718               1.000000000               0.000000077              -0.000004506               1.000000000              -0.000000497              -0.000005690               1.000000000              -0.000001478              -0.000007398               1.000000000              -0.000002921              -0.000009738               1.000000000              -0.000000019               0.000000247               1.000000000               0.000000015               0.000000112               1.000000000              -0.000000032              -0.000000320               1.000000000               0.000000002              -0.000000601               1.000000000               0.000000036              -0.000001180               1.000000000               0.000000044              -0.000001886               1.000000000               0.000000072              -0.000002739               1.000000000               0.000000100              -0.000003681               1.000000000               0.000000146              -0.000004642               1.000000000               0.000000195              -0.000005579               1.000000000               0.000000170              -0.000006544               1.000000000              -0.000000043              -0.000007673               1.000000000              -0.000000565              -0.000009122               1.000000000              -0.000001497              -0.000011055               1.000000000              -0.000002906              -0.000013611               1.000000000              -0.000004816              -0.000016890               1.000000000              -0.000007223              -0.000020962               1.000000000              -0.000000050               0.000000034               1.000000000              -0.000000011              -0.000000087               1.000000000              -0.000000057              -0.000000895               1.000000000               0.000000032              -0.000001564               1.000000000               0.000000083              -0.000002586               1.000000000               0.000000087              -0.000003854               1.000000000               0.000000076              -0.000005279               1.000000000               0.000000089              -0.000006840               1.000000000               0.000000054              -0.000008443               1.000000000              -0.000000085              -0.000010123               1.000000000              -0.000000445              -0.000012016               1.000000000              -0.000001183              -0.000014288               1.000000000              -0.000002403              -0.000017118               1.000000000              -0.000004168              -0.000020644               1.000000000              -0.000006489              -0.000024949               1.000000000              -0.000009349              -0.000030074               1.000000000              -0.000012707              -0.000036051               1.000000000              -0.000000036              -0.000000358               1.000000000               0.000000055              -0.000000529               1.000000000              -0.000000038              -0.000001756               1.000000000               0.000000048              -0.000002976               1.000000000               0.000000125              -0.000004584               1.000000000               0.000000078              -0.000006549               1.000000000               0.000000034              -0.000008720               1.000000000              -0.000000032              -0.000011083               1.000000000              -0.000000240              -0.000013579               1.000000000              -0.000000678              -0.000016333               1.000000000              -0.000001519              -0.000019528               1.000000000              -0.000002885              -0.000023349               1.000000000              -0.000004840              -0.000027951               1.000000000              -0.000007398              -0.000033403               1.000000000              -0.000010539              -0.000039725               1.000000000              -0.000014224              -0.000046914               1.000000000              -0.000018392              -0.000054926               1.000000000              -0.000000039              -0.000000852               1.000000000               0.000000063              -0.000001098               1.000000000              -0.000000091              -0.000002840               1.000000000               0.000000043              -0.000004728               1.000000000               0.000000117              -0.000007045               1.000000000               0.000000028              -0.000009854               1.000000000              -0.000000054              -0.000012944               1.000000000              -0.000000252              -0.000016312               1.000000000              -0.000000681              -0.000020010               1.000000000              -0.000001509              -0.000024174               1.000000000              -0.000002858              -0.000029056               1.000000000              -0.000004851              -0.000034791               1.000000000              -0.000007475              -0.000041494               1.000000000              -0.000010739              -0.000049162               1.000000000              -0.000014581              -0.000057793               1.000000000              -0.000018963              -0.000067299               1.000000000              -0.000023793              -0.000077579               1.000000000              -0.000000028              -0.000001442               1.000000000               0.000000088              -0.000001826               1.000000000              -0.000000115              -0.000004136               1.000000000               0.000000048              -0.000006746               1.000000000               0.000000105              -0.000009932               1.000000000              -0.000000064              -0.000013674               1.000000000              -0.000000213              -0.000017873               1.000000000              -0.000000565              -0.000022511               1.000000000              -0.000001270              -0.000027671               1.000000000              -0.000002461              -0.000033645               1.000000000              -0.000004312              -0.000040544               1.000000000              -0.000006818              -0.000048566               1.000000000              -0.000009983              -0.000057704               1.000000000              -0.000013752              -0.000067985               1.000000000              -0.000018071              -0.000079315               1.000000000              -0.000022831              -0.000091593               1.000000000              -0.000027909              -0.000104568               1.000000000              -0.000000021              -0.000002183               1.000000000               0.000000194              -0.000002506               1.000000000              -0.000000097              -0.000004733               1.000000000              -0.000000022              -0.000007578               1.000000000               0.000000150              -0.000010905               1.000000000              -0.000000005              -0.000014738               1.000000000              -0.000000125              -0.000019098               1.000000000              -0.000000348              -0.000023907               1.000000000              -0.000000769              -0.000029201               1.000000000              -0.000001495              -0.000035061               1.000000000              -0.000002636              -0.000041722               1.000000000              -0.000004274              -0.000049191               1.000000000              -0.000006393              -0.000057667               1.000000000              -0.000008974              -0.000067090               1.000000000              -0.000012002              -0.000077565               1.000000000              -0.000015428              -0.000088992               1.000000000              -0.000019211              -0.000101434               1.000000000              -0.000000056              -0.000002952               1.000000000               0.000000266              -0.000003221               1.000000000              -0.000000040              -0.000005331               1.000000000              -0.000000100              -0.000008295               1.000000000               0.000000089              -0.000011736               1.000000000               0.000000052              -0.000015691               1.000000000              -0.000000096              -0.000020126               1.000000000              -0.000000227              -0.000025080               1.000000000              -0.000000456              -0.000030541               1.000000000              -0.000000854              -0.000036433               1.000000000              -0.000001486              -0.000042996               1.000000000              -0.000002422              -0.000050222               1.000000000              -0.000003707              -0.000058223               1.000000000              -0.000005312              -0.000067055               1.000000000              -0.000007223              -0.000076747               1.000000000              -0.000009447              -0.000087328               1.000000000              -0.000011990              -0.000098806               1.000000000              -0.000000072              -0.000003760               1.000000000               0.000000315              -0.000003974               1.000000000               0.000000047              -0.000005943               1.000000000              -0.000000131              -0.000008929               1.000000000               0.000000028              -0.000012451               1.000000000               0.000000104              -0.000016512               1.000000000               0.000000007              -0.000021022               1.000000000              -0.000000096              -0.000026040               1.000000000              -0.000000204              -0.000031615               1.000000000              -0.000000395              -0.000037660               1.000000000              -0.000000706              -0.000044187               1.000000000              -0.000001173              -0.000051361               1.000000000              -0.000001841              -0.000059135               1.000000000              -0.000002727              -0.000067618               1.000000000              -0.000003796              -0.000076802               1.000000000              -0.000005033              -0.000086754               1.000000000              -0.000006423              -0.000097458               1.000000000              -0.000000047              -0.000004515               1.000000000               0.000000355              -0.000004774               1.000000000               0.000000136              -0.000006581               1.000000000              -0.000000122              -0.000009473               1.000000000              -0.000000053              -0.000013060               1.000000000               0.000000073              -0.000017162               1.000000000               0.000000048              -0.000021760               1.000000000              -0.000000021              -0.000026815               1.000000000              -0.000000091              -0.000032404               1.000000000              -0.000000155              -0.000038565               1.000000000              -0.000000271              -0.000045147               1.000000000              -0.000000449              -0.000052290               1.000000000              -0.000000709              -0.000060004               1.000000000              -0.000001083              -0.000068317               1.000000000              -0.000001569              -0.000077241               1.000000000              -0.000002132              -0.000086826               1.000000000              -0.000002736              -0.000097035               1.000000000              -0.000000046              -0.000005101               1.000000000               0.000000325              -0.000005455               1.000000000               0.000000168              -0.000007163               1.000000000              -0.000000071              -0.000009934               1.000000000              -0.000000092              -0.000013546               1.000000000               0.000000037              -0.000017679               1.000000000               0.000000057              -0.000022309               1.000000000               0.000000032              -0.000027397               1.000000000              -0.000000009              -0.000032965               1.000000000              -0.000000035              -0.000039134               1.000000000              -0.000000054              -0.000045804               1.000000000              -0.000000094              -0.000052924               1.000000000              -0.000000155              -0.000060609               1.000000000              -0.000000252              -0.000068836               1.000000000              -0.000000404              -0.000077614               1.000000000              -0.000000604              -0.000086981               1.000000000              -0.000000829              -0.000096921               1.000000000              -0.000000034              -0.000005618               1.000000000               0.000000251              -0.000006042               1.000000000               0.000000167              -0.000007660               1.000000000              -0.000000019              -0.000010333               1.000000000              -0.000000079              -0.000013875               1.000000000              -0.000000010              -0.000018039               1.000000000               0.000000037              -0.000022698               1.000000000               0.000000041              -0.000027803               1.000000000               0.000000036              -0.000033375               1.000000000               0.000000027              -0.000039487               1.000000000               0.000000030              -0.000046189               1.000000000               0.000000033              -0.000053307               1.000000000               0.000000044              -0.000060938               1.000000000               0.000000055              -0.000069100               1.000000000               0.000000052              -0.000077778               1.000000000               0.000000021              -0.000086985               1.000000000              -0.000000048              -0.000096756               1.000000000              -0.000000016              -0.000005924               1.000000000               0.000000124              -0.000006427               1.000000000               0.000000116              -0.000007985               1.000000000              -0.000000001              -0.000010614               1.000000000              -0.000000053              -0.000014105               1.000000000              -0.000000026              -0.000018276               1.000000000               0.000000005              -0.000022975               1.000000000               0.000000024              -0.000028083               1.000000000               0.000000031              -0.000033644               1.000000000               0.000000029              -0.000039695               1.000000000               0.000000032              -0.000046364               1.000000000               0.000000035              -0.000053489               1.000000000               0.000000047              -0.000061099               1.000000000               0.000000077              -0.000069232               1.000000000               0.000000112              -0.000077877               1.000000000               0.000000139              -0.000087005               1.000000000               0.000000149              -0.000096669               1.000000000               0.000000000              -0.000005986               1.000000000              -0.000000000              -0.000006539               1.000000000               0.000000000              -0.000008083               1.000000000              -0.000000000              -0.000010658               1.000000000              -0.000000000              -0.000014133               1.000000000              -0.000000000              -0.000018322               1.000000000               0.000000000              -0.000023030               1.000000000              -0.000000000              -0.000028137               1.000000000              -0.000000000              -0.000033697               1.000000000              -0.000000000              -0.000039735               1.000000000              -0.000000000              -0.000046398               1.000000000               0.000000000              -0.000053542               1.000000000               0.000000000              -0.000061165               1.000000000               0.000000000              -0.000069305               1.000000000               0.000000000              -0.000077953               1.000000000              -0.000000000              -0.000087063               1.000000000               0.000000000              -0.000096692               1.000000000              -0.000000009               0.000000000               1.000000000              -0.000000029               0.000000000               1.000000000               0.000000053              -0.000000000               1.000000000               0.000000012               0.000000000               1.000000000              -0.000000023               0.000000000               1.000000000              -0.000000004               0.000000000               1.000000000              -0.000000001               0.000000000               1.000000000               0.000000003              -0.000000000               1.000000000               0.000000027              -0.000000000               1.000000000               0.000000097               0.000000000               1.000000000               0.000000211               0.000000000               1.000000000               0.000000337               0.000000000               1.000000000               0.000000422               0.000000000               1.000000000               0.000000413               0.000000000               1.000000000               0.000000289              -0.000000000               1.000000000               0.000000076              -0.000000000               1.000000000              -0.000000159              -0.000000000               1.000000000              -0.000000017               0.000000249               1.000000000              -0.000000038               0.000000159               1.000000000              -0.000000016               0.000000209               1.000000000              -0.000000006               0.000000318               1.000000000               0.000000020               0.000000309               1.000000000               0.000000027               0.000000406               1.000000000               0.000000031               0.000000440               1.000000000               0.000000050               0.000000452               1.000000000               0.000000073               0.000000418               1.000000000               0.000000103               0.000000350               1.000000000               0.000000131               0.000000295               1.000000000               0.000000135               0.000000304               1.000000000               0.000000099               0.000000412               1.000000000               0.000000023               0.000000606               1.000000000              -0.000000069               0.000000823               1.000000000              -0.000000134               0.000000975               1.000000000              -0.000000112               0.000000997               1.000000000               0.000000004               0.000000359               1.000000000               0.000000026               0.000000233               1.000000000               0.000000024               0.000000252               1.000000000               0.000000032               0.000000320               1.000000000               0.000000050               0.000000272               1.000000000               0.000000049               0.000000248               1.000000000               0.000000050               0.000000167               1.000000000               0.000000058               0.000000035               1.000000000               0.000000066              -0.000000146               1.000000000               0.000000034              -0.000000334               1.000000000              -0.000000068              -0.000000485               1.000000000              -0.000000238              -0.000000566               1.000000000              -0.000000429              -0.000000601               1.000000000              -0.000000554              -0.000000667               1.000000000              -0.000000513              -0.000000871               1.000000000              -0.000000216              -0.000001326               1.000000000               0.000000414              -0.000002147               1.000000000              -0.000000003               0.000000333               1.000000000              -0.000000019               0.000000192               1.000000000              -0.000000021               0.000000046               1.000000000              -0.000000030              -0.000000024               1.000000000              -0.000000043              -0.000000273               1.000000000              -0.000000035              -0.000000571               1.000000000              -0.000000042              -0.000000949               1.000000000              -0.000000050              -0.000001426               1.000000000              -0.000000069              -0.000001914               1.000000000              -0.000000144              -0.000002377               1.000000000              -0.000000259              -0.000002783               1.000000000              -0.000000351              -0.000003191               1.000000000              -0.000000326              -0.000003718               1.000000000              -0.000000077              -0.000004506               1.000000000               0.000000497              -0.000005690               1.000000000               0.000001478              -0.000007398               1.000000000               0.000002921              -0.000009738               1.000000000               0.000000019               0.000000247               1.000000000              -0.000000015               0.000000112               1.000000000               0.000000032              -0.000000320               1.000000000              -0.000000002              -0.000000601               1.000000000              -0.000000036              -0.000001180               1.000000000              -0.000000044              -0.000001886               1.000000000              -0.000000072              -0.000002739               1.000000000              -0.000000100              -0.000003681               1.000000000              -0.000000146              -0.000004642               1.000000000              -0.000000195              -0.000005579               1.000000000              -0.000000170              -0.000006544               1.000000000               0.000000043              -0.000007673               1.000000000               0.000000565              -0.000009122               1.000000000               0.000001497              -0.000011055               1.000000000               0.000002906              -0.000013611               1.000000000               0.000004816              -0.000016890               1.000000000               0.000007223              -0.000020962               1.000000000               0.000000050               0.000000034               1.000000000               0.000000011              -0.000000087               1.000000000               0.000000057              -0.000000895               1.000000000              -0.000000032              -0.000001564               1.000000000              -0.000000083              -0.000002586               1.000000000              -0.000000087              -0.000003854               1.000000000              -0.000000076              -0.000005279               1.000000000              -0.000000089              -0.000006840               1.000000000              -0.000000054              -0.000008443               1.000000000               0.000000085              -0.000010123               1.000000000               0.000000445              -0.000012016               1.000000000               0.000001183              -0.000014288               1.000000000               0.000002403              -0.000017118               1.000000000               0.000004168              -0.000020644               1.000000000               0.000006489              -0.000024949               1.000000000               0.000009349              -0.000030074               1.000000000               0.000012707              -0.000036051               1.000000000               0.000000036              -0.000000358               1.000000000              -0.000000055              -0.000000529               1.000000000               0.000000038              -0.000001756               1.000000000              -0.000000048              -0.000002976               1.000000000              -0.000000125              -0.000004584               1.000000000              -0.000000078              -0.000006549               1.000000000              -0.000000034              -0.000008720               1.000000000               0.000000032              -0.000011083               1.000000000               0.000000240              -0.000013579               1.000000000               0.000000678              -0.000016333               1.000000000               0.000001519              -0.000019528               1.000000000               0.000002885              -0.000023349               1.000000000               0.000004840              -0.000027951               1.000000000               0.000007398              -0.000033403               1.000000000               0.000010539              -0.000039725               1.000000000               0.000014224              -0.000046914               1.000000000               0.000018392              -0.000054926               1.000000000               0.000000039              -0.000000852               1.000000000              -0.000000063              -0.000001098               1.000000000               0.000000091              -0.000002840               1.000000000              -0.000000043              -0.000004728               1.000000000              -0.000000117              -0.000007045               1.000000000              -0.000000028              -0.000009854               1.000000000               0.000000054              -0.000012944               1.000000000               0.000000252              -0.000016312               1.000000000               0.000000681              -0.000020010               1.000000000               0.000001509              -0.000024174               1.000000000               0.000002858              -0.000029056               1.000000000               0.000004851              -0.000034791               1.000000000               0.000007475              -0.000041494               1.000000000               0.000010739              -0.000049162               1.000000000               0.000014581              -0.000057793               1.000000000               0.000018963              -0.000067299               1.000000000               0.000023793              -0.000077579               1.000000000               0.000000028              -0.000001442               1.000000000              -0.000000088              -0.000001826               1.000000000               0.000000115              -0.000004136               1.000000000              -0.000000048              -0.000006746               1.000000000              -0.000000105              -0.000009932               1.000000000               0.000000064              -0.000013674               1.000000000               0.000000213              -0.000017873               1.000000000               0.000000565              -0.000022511               1.000000000               0.000001270              -0.000027671               1.000000000               0.000002461              -0.000033645               1.000000000               0.000004312              -0.000040544               1.000000000               0.000006818              -0.000048566               1.000000000               0.000009983              -0.000057704               1.000000000               0.000013752              -0.000067985               1.000000000               0.000018071              -0.000079315               1.000000000               0.000022831              -0.000091593               1.000000000               0.000027909              -0.000104568               1.000000000               0.000000021              -0.000002183               1.000000000              -0.000000194              -0.000002506               1.000000000               0.000000097              -0.000004733               1.000000000               0.000000022              -0.000007578               1.000000000              -0.000000150              -0.000010905               1.000000000               0.000000005              -0.000014738               1.000000000               0.000000125              -0.000019098               1.000000000               0.000000348              -0.000023907               1.000000000               0.000000769              -0.000029201               1.000000000               0.000001495              -0.000035061               1.000000000               0.000002636              -0.000041722               1.000000000               0.000004274              -0.000049191               1.000000000               0.000006393              -0.000057667               1.000000000               0.000008974              -0.000067090               1.000000000               0.000012002              -0.000077565               1.000000000               0.000015428              -0.000088992               1.000000000               0.000019211              -0.000101434               1.000000000               0.000000056              -0.000002952               1.000000000              -0.000000266              -0.000003221               1.000000000               0.000000040              -0.000005331               1.000000000               0.000000100              -0.000008295               1.000000000              -0.000000089              -0.000011736               1.000000000              -0.000000052              -0.000015691               1.000000000               0.000000096              -0.000020126               1.000000000               0.000000227              -0.000025080               1.000000000               0.000000456              -0.000030541               1.000000000               0.000000854              -0.000036433               1.000000000               0.000001486              -0.000042996               1.000000000               0.000002422              -0.000050222               1.000000000               0.000003707              -0.000058223               1.000000000               0.000005312              -0.000067055               1.000000000               0.000007223              -0.000076747               1.000000000               0.000009447              -0.000087328               1.000000000               0.000011990              -0.000098806               1.000000000               0.000000072              -0.000003760               1.000000000              -0.000000315              -0.000003974               1.000000000              -0.000000047              -0.000005943               1.000000000               0.000000131              -0.000008929               1.000000000              -0.000000028              -0.000012451               1.000000000              -0.000000104              -0.000016512               1.000000000              -0.000000007              -0.000021022               1.000000000               0.000000096              -0.000026040               1.000000000               0.000000204              -0.000031615               1.000000000               0.000000395              -0.000037660               1.000000000               0.000000706              -0.000044187               1.000000000               0.000001173              -0.000051361               1.000000000               0.000001841              -0.000059135               1.000000000               0.000002727              -0.000067618               1.000000000               0.000003796              -0.000076802               1.000000000               0.000005033              -0.000086754               1.000000000               0.000006423              -0.000097458               1.000000000               0.000000047              -0.000004515               1.000000000              -0.000000355              -0.000004774               1.000000000              -0.000000136              -0.000006581               1.000000000               0.000000122              -0.000009473               1.000000000               0.000000053              -0.000013060               1.000000000              -0.000000073              -0.000017162               1.000000000              -0.000000048              -0.000021760               1.000000000               0.000000021              -0.000026815               1.000000000               0.000000091              -0.000032404               1.000000000               0.000000155              -0.000038565               1.000000000               0.000000271              -0.000045147               1.000000000               0.000000449              -0.000052290               1.000000000               0.000000709              -0.000060004               1.000000000               0.000001083              -0.000068317               1.000000000               0.000001569              -0.000077241               1.000000000               0.000002132              -0.000086826               1.000000000               0.000002736              -0.000097035               1.000000000               0.000000046              -0.000005101               1.000000000              -0.000000325              -0.000005455               1.000000000              -0.000000168              -0.000007163               1.000000000               0.000000071              -0.000009934               1.000000000               0.000000092              -0.000013546               1.000000000              -0.000000037              -0.000017679               1.000000000              -0.000000057              -0.000022309               1.000000000              -0.000000032              -0.000027397               1.000000000               0.000000009              -0.000032965               1.000000000               0.000000035              -0.000039134               1.000000000               0.000000054              -0.000045804               1.000000000               0.000000094              -0.000052924               1.000000000               0.000000155              -0.000060609               1.000000000               0.000000252              -0.000068836               1.000000000               0.000000404              -0.000077614               1.000000000               0.000000604              -0.000086981               1.000000000               0.000000829              -0.000096921               1.000000000               0.000000034              -0.000005618               1.000000000              -0.000000251              -0.000006042               1.000000000              -0.000000167              -0.000007660               1.000000000               0.000000019              -0.000010333               1.000000000               0.000000079              -0.000013875               1.000000000               0.000000010              -0.000018039               1.000000000              -0.000000037              -0.000022698               1.000000000              -0.000000041              -0.000027803               1.000000000              -0.000000036              -0.000033375               1.000000000              -0.000000027              -0.000039487               1.000000000              -0.000000030              -0.000046189               1.000000000              -0.000000033              -0.000053307               1.000000000              -0.000000044              -0.000060938               1.000000000              -0.000000055              -0.000069100               1.000000000              -0.000000052              -0.000077778               1.000000000              -0.000000021              -0.000086985               1.000000000               0.000000048              -0.000096756               1.000000000               0.000000016              -0.000005924               1.000000000              -0.000000124              -0.000006427               1.000000000              -0.000000116              -0.000007985               1.000000000               0.000000001              -0.000010614               1.000000000               0.000000053              -0.000014105               1.000000000               0.000000026              -0.000018276               1.000000000              -0.000000005              -0.000022975               1.000000000              -0.000000024              -0.000028083               1.000000000              -0.000000031              -0.000033644               1.000000000              -0.000000029              -0.000039695               1.000000000              -0.000000032              -0.000046364               1.000000000              -0.000000035              -0.000053489               1.000000000              -0.000000047              -0.000061099               1.000000000              -0.000000077              -0.000069232               1.000000000              -0.000000112              -0.000077877               1.000000000              -0.000000139              -0.000087005               1.000000000              -0.000000149              -0.000096669               1.000000000               0.000000000              -0.000005986               1.000000000              -0.000000000              -0.000006539               1.000000000               0.000000000              -0.000008083               1.000000000              -0.000000000              -0.000010658               1.000000000              -0.000000000              -0.000014133               1.000000000              -0.000000000              -0.000018322               1.000000000               0.000000000              -0.000023030               1.000000000              -0.000000000              -0.000028137               1.000000000              -0.000000000              -0.000033697               1.000000000              -0.000000000              -0.000039735               1.000000000              -0.000000000              -0.000046398               1.000000000               0.000000000              -0.000053542               1.000000000               0.000000000              -0.000061165               1.000000000               0.000000000              -0.000069305               1.000000000               0.000000000              -0.000077953               1.000000000              -0.000000000              -0.000087063               1.000000000               0.000000000              -0.000096692               1.000000000              -0.000000009               0.000000000               1.000000000              -0.000000029               0.000000000               1.000000000               0.000000053              -0.000000000               1.000000000               0.000000012               0.000000000               1.000000000              -0.000000023               0.000000000               1.000000000              -0.000000004               0.000000000               1.000000000              -0.000000001               0.000000000               1.000000000               0.000000003              -0.000000000               1.000000000               0.000000027              -0.000000000               1.000000000               0.000000097               0.000000000               1.000000000               0.000000211               0.000000000               1.000000000               0.000000337               0.000000000               1.000000000               0.000000422               0.000000000               1.000000000               0.000000413               0.000000000               1.000000000               0.000000289              -0.000000000               1.000000000               0.000000076              -0.000000000               1.000000000              -0.000000159              -0.000000000               1.000000000              -0.000000017              -0.000000249               1.000000000              -0.000000038              -0.000000159               1.000000000              -0.000000016              -0.000000209               1.000000000              -0.000000006              -0.000000318               1.000000000               0.000000020              -0.000000309               1.000000000               0.000000027              -0.000000406               1.000000000               0.000000031              -0.000000440               1.000000000               0.000000050              -0.000000452               1.000000000               0.000000073              -0.000000418               1.000000000               0.000000103              -0.000000350               1.000000000               0.000000131              -0.000000295               1.000000000               0.000000135              -0.000000304               1.000000000               0.000000099              -0.000000412               1.000000000               0.000000023              -0.000000606               1.000000000              -0.000000069              -0.000000823               1.000000000              -0.000000134              -0.000000975               1.000000000              -0.000000112              -0.000000997               1.000000000               0.000000004              -0.000000359               1.000000000               0.000000026              -0.000000233               1.000000000               0.000000024              -0.000000252               1.000000000               0.000000032              -0.000000320               1.000000000               0.000000050              -0.000000272               1.000000000               0.000000049              -0.000000248               1.000000000               0.000000050              -0.000000167               1.000000000               0.000000058              -0.000000035               1.000000000               0.000000066               0.000000146               1.000000000               0.000000034               0.000000334               1.000000000              -0.000000068               0.000000485               1.000000000              -0.000000238               0.000000566               1.000000000              -0.000000429               0.000000601               1.000000000              -0.000000554               0.000000667               1.000000000              -0.000000513               0.000000871               1.000000000              -0.000000216               0.000001326               1.000000000               0.000000414               0.000002147               1.000000000              -0.000000003              -0.000000333               1.000000000              -0.000000019              -0.000000192               1.000000000              -0.000000021              -0.000000046               1.000000000              -0.000000030               0.000000024               1.000000000              -0.000000043               0.000000273               1.000000000              -0.000000035               0.000000571               1.000000000              -0.000000042               0.000000949               1.000000000              -0.000000050               0.000001426               1.000000000              -0.000000069               0.000001914               1.000000000              -0.000000144               0.000002377               1.000000000              -0.000000259               0.000002783               1.000000000              -0.000000351               0.000003191               1.000000000              -0.000000326               0.000003718               1.000000000              -0.000000077               0.000004506               1.000000000               0.000000497               0.000005690               1.000000000               0.000001478               0.000007398               1.000000000               0.000002921               0.000009738               1.000000000               0.000000019              -0.000000247               1.000000000              -0.000000015              -0.000000112               1.000000000               0.000000032               0.000000320               1.000000000              -0.000000002               0.000000601               1.000000000              -0.000000036               0.000001180               1.000000000              -0.000000044               0.000001886               1.000000000              -0.000000072               0.000002739               1.000000000              -0.000000100               0.000003681               1.000000000              -0.000000146               0.000004642               1.000000000              -0.000000195               0.000005579               1.000000000              -0.000000170               0.000006544               1.000000000               0.000000043               0.000007673               1.000000000               0.000000565               0.000009122               1.000000000               0.000001497               0.000011055               1.000000000               0.000002906               0.000013611               1.000000000               0.000004816               0.000016890               1.000000000               0.000007223               0.000020962               1.000000000               0.000000050              -0.000000034               1.000000000               0.000000011               0.000000087               1.000000000               0.000000057               0.000000895               1.000000000              -0.000000032               0.000001564               1.000000000              -0.000000083               0.000002586               1.000000000              -0.000000087               0.000003854               1.000000000              -0.000000076               0.000005279               1.000000000              -0.000000089               0.000006840               1.000000000              -0.000000054               0.000008443               1.000000000               0.000000085               0.000010123               1.000000000               0.000000445               0.000012016               1.000000000               0.000001183               0.000014288               1.000000000               0.000002403               0.000017118               1.000000000               0.000004168               0.000020644               1.000000000               0.000006489               0.000024949               1.000000000               0.000009349               0.000030074               1.000000000               0.000012707               0.000036051               1.000000000               0.000000036               0.000000358               1.000000000              -0.000000055               0.000000529               1.000000000               0.000000038               0.000001756               1.000000000              -0.000000048               0.000002976               1.000000000              -0.000000125               0.000004584               1.000000000              -0.000000078               0.000006549               1.000000000              -0.000000034               0.000008720               1.000000000               0.000000032               0.000011083               1.000000000               0.000000240               0.000013579               1.000000000               0.000000678               0.000016333               1.000000000               0.000001519               0.000019528               1.000000000               0.000002885               0.000023349               1.000000000               0.000004840               0.000027951               1.000000000               0.000007398               0.000033403               1.000000000               0.000010539               0.000039725               1.000000000               0.000014224               0.000046914               1.000000000               0.000018392               0.000054926               1.000000000               0.000000039               0.000000852               1.000000000              -0.000000063               0.000001098               1.000000000               0.000000091               0.000002840               1.000000000              -0.000000043               0.000004728               1.000000000              -0.000000117               0.000007045               1.000000000              -0.000000028               0.000009854               1.000000000               0.000000054               0.000012944               1.000000000               0.000000252               0.000016312               1.000000000               0.000000681               0.000020010               1.000000000               0.000001509               0.000024174               1.000000000               0.000002858               0.000029056               1.000000000               0.000004851               0.000034791               1.000000000               0.000007475               0.000041494               1.000000000               0.000010739               0.000049162               1.000000000               0.000014581               0.000057793               1.000000000               0.000018963               0.000067299               1.000000000               0.000023793               0.000077579               1.000000000               0.000000028               0.000001442               1.000000000              -0.000000088               0.000001826               1.000000000               0.000000115               0.000004136               1.000000000              -0.000000048               0.000006746               1.000000000              -0.000000105               0.000009932               1.000000000               0.000000064               0.000013674               1.000000000               0.000000213               0.000017873               1.000000000               0.000000565               0.000022511               1.000000000               0.000001270               0.000027671               1.000000000               0.000002461               0.000033645               1.000000000               0.000004312               0.000040544               1.000000000               0.000006818               0.000048566               1.000000000               0.000009983               0.000057704               1.000000000               0.000013752               0.000067985               1.000000000               0.000018071               0.000079315               1.000000000               0.000022831               0.000091593               1.000000000               0.000027909               0.000104568               1.000000000               0.000000021               0.000002183               1.000000000              -0.000000194               0.000002506               1.000000000               0.000000097               0.000004733               1.000000000               0.000000022               0.000007578               1.000000000              -0.000000150               0.000010905               1.000000000               0.000000005               0.000014738               1.000000000               0.000000125               0.000019098               1.000000000               0.000000348               0.000023907               1.000000000               0.000000769               0.000029201               1.000000000               0.000001495               0.000035061               1.000000000               0.000002636               0.000041722               1.000000000               0.000004274               0.000049191               1.000000000               0.000006393               0.000057667               1.000000000               0.000008974               0.000067090               1.000000000               0.000012002               0.000077565               1.000000000               0.000015428               0.000088992               1.000000000               0.000019211               0.000101434               1.000000000               0.000000056               0.000002952               1.000000000              -0.000000266               0.000003221               1.000000000               0.000000040               0.000005331               1.000000000               0.000000100               0.000008295               1.000000000              -0.000000089               0.000011736               1.000000000              -0.000000052               0.000015691               1.000000000               0.000000096               0.000020126               1.000000000               0.000000227               0.000025080               1.000000000               0.000000456               0.000030541               1.000000000               0.000000854               0.000036433               1.000000000               0.000001486               0.000042996               1.000000000               0.000002422               0.000050222               1.000000000               0.000003707               0.000058223               1.000000000               0.000005312               0.000067055               1.000000000               0.000007223               0.000076747               1.000000000               0.000009447               0.000087328               1.000000000               0.000011990               0.000098806               1.000000000               0.000000072               0.000003760               1.000000000              -0.000000315               0.000003974               1.000000000              -0.000000047               0.000005943               1.000000000               0.000000131               0.000008929               1.000000000              -0.000000028               0.000012451               1.000000000              -0.000000104               0.000016512               1.000000000              -0.000000007               0.000021022               1.000000000               0.000000096               0.000026040               1.000000000               0.000000204               0.000031615               1.000000000               0.000000395               0.000037660               1.000000000               0.000000706               0.000044187               1.000000000               0.000001173               0.000051361               1.000000000               0.000001841               0.000059135               1.000000000               0.000002727               0.000067618               1.000000000               0.000003796               0.000076802               1.000000000               0.000005033               0.000086754               1.000000000               0.000006423               0.000097458               1.000000000               0.000000047               0.000004515               1.000000000              -0.000000355               0.000004774               1.000000000              -0.000000136               0.000006581               1.000000000               0.000000122               0.000009473               1.000000000               0.000000053               0.000013060               1.000000000              -0.000000073               0.000017162               1.000000000              -0.000000048               0.000021760               1.000000000               0.000000021               0.000026815               1.000000000               0.000000091               0.000032404               1.000000000               0.000000155               0.000038565               1.000000000               0.000000271               0.000045147               1.000000000               0.000000449               0.000052290               1.000000000               0.000000709               0.000060004               1.000000000               0.000001083               0.000068317               1.000000000               0.000001569               0.000077241               1.000000000               0.000002132               0.000086826               1.000000000               0.000002736               0.000097035               1.000000000               0.000000046               0.000005101               1.000000000              -0.000000325               0.000005455               1.000000000              -0.000000168               0.000007163               1.000000000               0.000000071               0.000009934               1.000000000               0.000000092               0.000013546               1.000000000              -0.000000037               0.000017679               1.000000000              -0.000000057               0.000022309               1.000000000              -0.000000032               0.000027397               1.000000000               0.000000009               0.000032965               1.000000000               0.000000035               0.000039134               1.000000000               0.000000054               0.000045804               1.000000000               0.000000094               0.000052924               1.000000000               0.000000155               0.000060609               1.000000000               0.000000252               0.000068836               1.000000000               0.000000404               0.000077614               1.000000000               0.000000604               0.000086981               1.000000000               0.000000829               0.000096921               1.000000000               0.000000034               0.000005618               1.000000000              -0.000000251               0.000006042               1.000000000              -0.000000167               0.000007660               1.000000000               0.000000019               0.000010333               1.000000000               0.000000079               0.000013875               1.000000000               0.000000010               0.000018039               1.000000000              -0.000000037               0.000022698               1.000000000              -0.000000041               0.000027803               1.000000000              -0.000000036               0.000033375               1.000000000              -0.000000027               0.000039487               1.000000000              -0.000000030               0.000046189               1.000000000              -0.000000033               0.000053307               1.000000000              -0.000000044               0.000060938               1.000000000              -0.000000055               0.000069100               1.000000000              -0.000000052               0.000077778               1.000000000              -0.000000021               0.000086985               1.000000000               0.000000048               0.000096756               1.000000000               0.000000016               0.000005924               1.000000000              -0.000000124               0.000006427               1.000000000              -0.000000116               0.000007985               1.000000000               0.000000001               0.000010614               1.000000000               0.000000053               0.000014105               1.000000000               0.000000026               0.000018276               1.000000000              -0.000000005               0.000022975               1.000000000              -0.000000024               0.000028083               1.000000000              -0.000000031               0.000033644               1.000000000              -0.000000029               0.000039695               1.000000000              -0.000000032               0.000046364               1.000000000              -0.000000035               0.000053489               1.000000000              -0.000000047               0.000061099               1.000000000              -0.000000077               0.000069232               1.000000000              -0.000000112               0.000077877               1.000000000              -0.000000139               0.000087005               1.000000000              -0.000000149               0.000096669               1.000000000              -0.000000000               0.000005986               1.000000000              -0.000000000               0.000006539               1.000000000               0.000000000               0.000008083               1.000000000              -0.000000000               0.000010658               1.000000000              -0.000000000               0.000014133               1.000000000               0.000000000               0.000018322               1.000000000               0.000000000               0.000023030               1.000000000               0.000000000               0.000028137               1.000000000               0.000000000               0.000033697               1.000000000              -0.000000000               0.000039735               1.000000000              -0.000000000               0.000046398               1.000000000               0.000000000               0.000053542               1.000000000               0.000000000               0.000061165               1.000000000               0.000000000               0.000069305               1.000000000              -0.000000000               0.000077953               1.000000000              -0.000000000               0.000087063               1.000000000              -0.000000000               0.000096692               1.000000000 </DataArray>
<DataArray type="Float64"                                    Name="stress"                                                      NumberOfComponents="10" format="ascii">
             -0.000012911              -0.000045577               0.000000000               0.000000856              -0.000015478              -0.000014622               0.000000000               0.000000000               0.000000000               0.000000000              -0.000014487              -0.000034848               0.000000000              -0.000001076              -0.000011257              -0.000012334               0.000000000               0.000000000               0.000000000               0.000000000              -0.000013939              -0.000035046               0.000000000              -0.000000847              -0.000011400              -0.000012246               0.000000000               0.000000000               0.000000000               0.000000000              -0.000010967              -0.000039316               0.000000000               0.000000802              -0.000013373              -0.000012571               0.000000000               0.000000000               0.000000000               0.000000000              -0.000012786              -0.000038560               0.000000000               0.000000025              -0.000012862              -0.000012836               0.000000000               0.000000000               0.000000000               0.000000000              -0.000014918              -0.000041984              -0.000000000              -0.000000346              -0.000013879              -0.000014225               0.000000000               0.000000000               0.000000000               0.000000000              -0.000014475              -0.000041635              -0.000000000              -0.000000224              -0.000013804              -0.000014028               0.000000000               0.000000000               0.000000000               0.000000000              -0.000014769              -0.000039068              -0.000000000              -0.000000655              -0.000012804              -0.000013459               0.000000000               0.000000000               0.000000000               0.000000000              -0.000016081              -0.000034425              -0.000000000              -0.000001727              -0.000010899              -0.000012626               0.000000000               0.000000000               0.000000000               0.000000000              -0.000017966              -0.000028934               0.000000000              -0.000003120              -0.000008605              -0.000011725               0.000000000               0.000000000               0.000000000               0.000000000              -0.000018359              -0.000024660               0.000000000              -0.000003802              -0.000006952              -0.000010755               0.000000000               0.000000000               0.000000000               0.000000000              -0.000015781              -0.000023429               0.000000000              -0.000002989              -0.000006813              -0.000009803               0.000000000               0.000000000               0.000000000               0.000000000              -0.000010116              -0.000026045               0.000000000              -0.000000538              -0.000008502              -0.000009040               0.000000000               0.000000000               0.000000000               0.000000000              -0.000002864              -0.000031508              -0.000000000               0.000002865              -0.000011458              -0.000008593               0.000000000               0.000000000               0.000000000               0.000000000               0.000002931              -0.000037471              -0.000000000               0.000005783              -0.000014418              -0.000008635               0.000000000               0.000000000               0.000000000               0.000000000               0.000003982              -0.000041461              -0.000000000               0.000006676              -0.000016046              -0.000009370               0.000000000               0.000000000               0.000000000               0.000000000               0.000003386              -0.000041816              -0.000000000               0.000006497              -0.000016104              -0.000009607               0.000000000               0.000000000               0.000000000               0.000000000              -0.000008472              -0.000031628               0.000003882               0.000000776              -0.000010802              -0.000010025               0.000000000               0.000000000               0.000000000               0.000000000              -0.000008196              -0.000023558               0.000000640              -0.000000129              -0.000007810              -0.000007938               0.000000000               0.000000000               0.000000000               0.000000000              -0.000008393              -0.000021132              -0.000001813              -0.000000506              -0.000006876              -0.000007381               0.000000000               0.000000000               0.000000000               0.000000000              -0.000007481              -0.000020560              -0.000001291              -0.000000236              -0.000006775              -0.000007010               0.000000000               0.000000000               0.000000000               0.000000000              -0.000006397              -0.000016625              -0.000001898              -0.000000321              -0.000005435              -0.000005756               0.000000000               0.000000000               0.000000000               0.000000000              -0.000004542              -0.000012723              -0.000002331              -0.000000113              -0.000004204              -0.000004316               0.000000000               0.000000000               0.000000000               0.000000000              -0.000003362              -0.000007735              -0.000000876              -0.000000294              -0.000002480              -0.000002774               0.000000000               0.000000000               0.000000000               0.000000000              -0.000002409              -0.000001686               0.000000215              -0.000000693              -0.000000331              -0.000001024               0.000000000               0.000000000               0.000000000               0.000000000              -0.000001019               0.000005046               0.000001647              -0.000001013               0.000002019               0.000001007               0.000000000               0.000000000               0.000000000               0.000000000               0.000000476               0.000011018               0.000002879              -0.000001199               0.000004072               0.000002873               0.000000000               0.000000000               0.000000000               0.000000000               0.000002883               0.000015394               0.000003530              -0.000000843               0.000005412               0.000004569               0.000000000               0.000000000               0.000000000               0.000000000               0.000006353               0.000017936               0.000003423               0.000000140               0.000005932               0.000006072               0.000000000               0.000000000               0.000000000               0.000000000               0.000009966               0.000019404               0.000002745               0.000001312               0.000006031               0.000007342               0.000000000               0.000000000               0.000000000               0.000000000               0.000012403               0.000021405               0.000002007               0.000001975               0.000006476               0.000008452               0.000000000               0.000000000               0.000000000               0.000000000               0.000012113               0.000025690               0.000001582               0.000001331               0.000008120               0.000009451               0.000000000               0.000000000               0.000000000               0.000000000               0.000007659               0.000033766               0.000001282              -0.000001349               0.000011705               0.000010356               0.000000000               0.000000000               0.000000000               0.000000000               0.000006196               0.000042797              -0.000000484              -0.000003026               0.000015274               0.000012248               0.000000000               0.000000000               0.000000000               0.000000000              -0.000002261              -0.000004394               0.000004876              -0.000000299              -0.000001365              -0.000001664               0.000000000               0.000000000               0.000000000               0.000000000              -0.000000490               0.000000291               0.000001892              -0.000000220               0.000000170              -0.000000050               0.000000000               0.000000000               0.000000000               0.000000000               0.000003151               0.000011766              -0.000002367              -0.000000289               0.000004018               0.000003729               0.000000000               0.000000000               0.000000000               0.000000000               0.000005759               0.000022845              -0.000001257              -0.000000696               0.000007847               0.000007151               0.000000000               0.000000000               0.000000000               0.000000000               0.000009867               0.000035461               0.000000085              -0.000000733               0.000012065               0.000011332               0.000000000               0.000000000               0.000000000               0.000000000               0.000016036               0.000051425              -0.000000496              -0.000000415               0.000017280               0.000016865               0.000000000               0.000000000               0.000000000               0.000000000               0.000020696               0.000066499               0.000000639              -0.000000551               0.000022350               0.000021799               0.000000000               0.000000000               0.000000000               0.000000000               0.000024908               0.000080813               0.000001624              -0.000000761               0.000027191               0.000026430               0.000000000               0.000000000               0.000000000               0.000000000               0.000030610               0.000092666               0.000002171              -0.000000104               0.000030923               0.000030819               0.000000000               0.000000000               0.000000000               0.000000000               0.000038051               0.000101764               0.000001914               0.000001549               0.000033405               0.000034953               0.000000000               0.000000000               0.000000000               0.000000000               0.000045411               0.000109002               0.000000642               0.000003404               0.000035199               0.000038603               0.000000000               0.000000000               0.000000000               0.000000000               0.000050667               0.000117038              -0.000001326               0.000004370               0.000037555               0.000041926               0.000000000               0.000000000               0.000000000               0.000000000               0.000051390               0.000128597              -0.000003184               0.000003196               0.000041800               0.000044996               0.000000000               0.000000000               0.000000000               0.000000000               0.000046080               0.000145370              -0.000004186              -0.000000891               0.000048753               0.000047862               0.000000000               0.000000000               0.000000000               0.000000000               0.000034825               0.000167928              -0.000003906              -0.000007931               0.000058619               0.000050688               0.000000000               0.000000000               0.000000000               0.000000000               0.000018483               0.000196302              -0.000002181              -0.000017606               0.000071302               0.000053696               0.000000000               0.000000000               0.000000000               0.000000000               0.000013741               0.000220642              -0.000003713              -0.000022427               0.000081022               0.000058595               0.000000000               0.000000000               0.000000000               0.000000000               0.000006749               0.000016326               0.000003989               0.000000490               0.000005279               0.000005769               0.000000000               0.000000000               0.000000000               0.000000000               0.000006784               0.000021246               0.000004354              -0.000000112               0.000007119               0.000007008               0.000000000               0.000000000               0.000000000               0.000000000               0.000015202               0.000044537              -0.000000670               0.000000134               0.000014801               0.000014934               0.000000000               0.000000000               0.000000000               0.000000000               0.000022341               0.000065243              -0.000000323               0.000000223               0.000021673               0.000021896               0.000000000               0.000000000               0.000000000               0.000000000               0.000028573               0.000088816               0.000002068              -0.000000387               0.000029734               0.000029347               0.000000000               0.000000000               0.000000000               0.000000000               0.000036887               0.000114516               0.000001664              -0.000000482               0.000038332               0.000037850               0.000000000               0.000000000               0.000000000               0.000000000               0.000045706               0.000139923               0.000002276              -0.000000351               0.000046757               0.000046407               0.000000000               0.000000000               0.000000000               0.000000000               0.000053185               0.000161944               0.000001973              -0.000000299               0.000054080               0.000053782               0.000000000               0.000000000               0.000000000               0.000000000               0.000062038               0.000180291               0.000000027               0.000000728               0.000059854               0.000060582               0.000000000               0.000000000               0.000000000               0.000000000               0.000071558               0.000195993              -0.000003386               0.000002335               0.000064552               0.000066887               0.000000000               0.000000000               0.000000000               0.000000000               0.000078219               0.000211486              -0.000007792               0.000002897               0.000069529               0.000072426               0.000000000               0.000000000               0.000000000               0.000000000               0.000080046               0.000230336              -0.000011877               0.000001225               0.000076370               0.000077595               0.000000000               0.000000000               0.000000000               0.000000000               0.000075509               0.000254540              -0.000014593              -0.000003502               0.000086013               0.000082511               0.000000000               0.000000000               0.000000000               0.000000000               0.000064087               0.000284606              -0.000015155              -0.000011543               0.000098715               0.000087172               0.000000000               0.000000000               0.000000000               0.000000000               0.000046575               0.000320087              -0.000013017              -0.000022545               0.000114210               0.000091665               0.000000000               0.000000000               0.000000000               0.000000000               0.000024276               0.000359845              -0.000007759              -0.000035877               0.000131906               0.000096029               0.000000000               0.000000000               0.000000000               0.000000000               0.000018073               0.000391141              -0.000007725              -0.000042115               0.000144418               0.000102302               0.000000000               0.000000000               0.000000000               0.000000000               0.000016815               0.000035143              -0.000001365               0.000001913               0.000011077               0.000012989               0.000000000               0.000000000               0.000000000               0.000000000               0.000015651               0.000043623               0.000003706               0.000000416               0.000014402               0.000014818               0.000000000               0.000000000               0.000000000               0.000000000               0.000028389               0.000078921               0.000000565               0.000000781               0.000026046               0.000026827               0.000000000               0.000000000               0.000000000               0.000000000               0.000040775               0.000111095               0.000000029               0.000001404               0.000036563               0.000037967               0.000000000               0.000000000               0.000000000               0.000000000               0.000049095               0.000144638               0.000003270               0.000000331               0.000048102               0.000048433               0.000000000               0.000000000               0.000000000               0.000000000               0.000059717               0.000179002               0.000002931               0.000000018               0.000059661               0.000059679               0.000000000               0.000000000               0.000000000               0.000000000               0.000071877               0.000211439               0.000002057               0.000000524               0.000070304               0.000070828               0.000000000               0.000000000               0.000000000               0.000000000               0.000082043               0.000239292              -0.000000509               0.000000855               0.000079479               0.000080333               0.000000000               0.000000000               0.000000000               0.000000000               0.000091821               0.000264244              -0.000005552               0.000001402               0.000087613               0.000089015               0.000000000               0.000000000               0.000000000               0.000000000               0.000099445               0.000289226              -0.000012133               0.000001139               0.000096028               0.000097167               0.000000000               0.000000000               0.000000000               0.000000000               0.000101382               0.000317499              -0.000018582              -0.000001669               0.000106388               0.000104719               0.000000000               0.000000000               0.000000000               0.000000000               0.000096326               0.000350669              -0.000023467              -0.000007711               0.000119459               0.000111748               0.000000000               0.000000000               0.000000000               0.000000000               0.000084620               0.000388858              -0.000025728              -0.000016875               0.000135243               0.000118368               0.000000000               0.000000000               0.000000000               0.000000000               0.000067414               0.000430911              -0.000024648              -0.000028584               0.000153163               0.000124580               0.000000000               0.000000000               0.000000000               0.000000000               0.000046478               0.000475008              -0.000019966              -0.000041947               0.000172317               0.000130370               0.000000000               0.000000000               0.000000000               0.000000000               0.000023478               0.000519204              -0.000011518              -0.000056096               0.000191765               0.000135669               0.000000000               0.000000000               0.000000000               0.000000000               0.000017939               0.000551299              -0.000009962              -0.000062185               0.000204493               0.000142308               0.000000000               0.000000000               0.000000000               0.000000000               0.000024881               0.000063590              -0.000007488               0.000001381               0.000020736               0.000022117               0.000000000               0.000000000               0.000000000               0.000000000               0.000024768               0.000080158               0.000003261              -0.000000732               0.000026963               0.000026231               0.000000000               0.000000000               0.000000000               0.000000000               0.000043335               0.000127031               0.000003972               0.000000372               0.000042219               0.000042591               0.000000000               0.000000000               0.000000000               0.000000000               0.000061990               0.000171853               0.000000778               0.000001765               0.000056695               0.000058460               0.000000000               0.000000000               0.000000000               0.000000000               0.000071525               0.000214531               0.000003367               0.000000005               0.000071508               0.000071513               0.000000000               0.000000000               0.000000000               0.000000000               0.000083836               0.000256030               0.000001580              -0.000000565               0.000085531               0.000084966               0.000000000               0.000000000               0.000000000               0.000000000               0.000098974               0.000294379              -0.000001492               0.000000318               0.000098019               0.000098337               0.000000000               0.000000000               0.000000000               0.000000000               0.000111111               0.000329004              -0.000006753               0.000000541               0.000109487               0.000110028               0.000000000               0.000000000               0.000000000               0.000000000               0.000119363               0.000362098              -0.000014750              -0.000000501               0.000120865               0.000120364               0.000000000               0.000000000               0.000000000               0.000000000               0.000123423               0.000398786              -0.000022958              -0.000003565               0.000134115               0.000130551               0.000000000               0.000000000               0.000000000               0.000000000               0.000119495               0.000440575              -0.000029808              -0.000010261               0.000150277               0.000140016               0.000000000               0.000000000               0.000000000               0.000000000               0.000107663               0.000487288              -0.000033837              -0.000020538               0.000169274               0.000148736               0.000000000               0.000000000               0.000000000               0.000000000               0.000090192               0.000537676              -0.000034142              -0.000033387               0.000190353               0.000156965               0.000000000               0.000000000               0.000000000               0.000000000               0.000069043               0.000588936              -0.000030673              -0.000047726               0.000212218               0.000164493               0.000000000               0.000000000               0.000000000               0.000000000               0.000046062               0.000638384              -0.000023647              -0.000062525               0.000233634               0.000171110               0.000000000               0.000000000               0.000000000               0.000000000               0.000022783               0.000684169              -0.000013160              -0.000076977               0.000253713               0.000176736               0.000000000               0.000000000               0.000000000               0.000000000               0.000017215               0.000715206              -0.000010501              -0.000082945               0.000266048               0.000183103               0.000000000               0.000000000               0.000000000               0.000000000               0.000034628               0.000090493              -0.000013481               0.000001674               0.000029606               0.000031280               0.000000000               0.000000000               0.000000000               0.000000000               0.000036134               0.000118174               0.000000393              -0.000001222               0.000039798               0.000038577               0.000000000               0.000000000               0.000000000               0.000000000               0.000060708               0.000179085               0.000004464               0.000000380               0.000059568               0.000059948               0.000000000               0.000000000               0.000000000               0.000000000               0.000085331               0.000234444               0.000000132               0.000002693               0.000077249               0.000079943               0.000000000               0.000000000               0.000000000               0.000000000               0.000095625               0.000285262               0.000001106               0.000000202               0.000095019               0.000095221               0.000000000               0.000000000               0.000000000               0.000000000               0.000108955               0.000334040              -0.000001790              -0.000000897               0.000111645               0.000110748               0.000000000               0.000000000               0.000000000               0.000000000               0.000125594               0.000380088              -0.000006664              -0.000000413               0.000126833               0.000126419               0.000000000               0.000000000               0.000000000               0.000000000               0.000136900               0.000423046              -0.000014136              -0.000001543               0.000141528               0.000139985               0.000000000               0.000000000               0.000000000               0.000000000               0.000142212               0.000467644              -0.000023571              -0.000005126               0.000157589               0.000152462               0.000000000               0.000000000               0.000000000               0.000000000               0.000141187               0.000517376              -0.000031717              -0.000011727               0.000176366               0.000164639               0.000000000               0.000000000               0.000000000               0.000000000               0.000131033               0.000572255              -0.000037154              -0.000022395               0.000198215               0.000175820               0.000000000               0.000000000               0.000000000               0.000000000               0.000114374               0.000630722              -0.000038743              -0.000035950               0.000222222               0.000186272               0.000000000               0.000000000               0.000000000               0.000000000               0.000093513               0.000690013              -0.000036348              -0.000051184               0.000247064               0.000195879               0.000000000               0.000000000               0.000000000               0.000000000               0.000070224               0.000746926              -0.000030755              -0.000067032               0.000271317               0.000204285               0.000000000               0.000000000               0.000000000               0.000000000               0.000046107               0.000799665              -0.000022472              -0.000082668               0.000294108               0.000211441               0.000000000               0.000000000               0.000000000               0.000000000               0.000022663               0.000846506              -0.000012096              -0.000097315               0.000314604               0.000217290               0.000000000               0.000000000               0.000000000               0.000000000               0.000016606               0.000876867              -0.000009664              -0.000103381               0.000326747               0.000223366               0.000000000               0.000000000               0.000000000               0.000000000               0.000042273               0.000110186              -0.000019541               0.000002079               0.000036035               0.000038114               0.000000000               0.000000000               0.000000000               0.000000000               0.000047380               0.000151602              -0.000003721              -0.000001183               0.000050928               0.000049745               0.000000000               0.000000000               0.000000000               0.000000000               0.000078343               0.000228437               0.000004727               0.000000824               0.000075870               0.000076694               0.000000000               0.000000000               0.000000000               0.000000000               0.000105747               0.000290416               0.000001148               0.000003353               0.000095687               0.000099040               0.000000000               0.000000000               0.000000000               0.000000000               0.000116547               0.000349067              -0.000000129               0.000000072               0.000116331               0.000116402               0.000000000               0.000000000               0.000000000               0.000000000               0.000132169               0.000405149              -0.000003742              -0.000001080               0.000135408               0.000134328               0.000000000               0.000000000               0.000000000               0.000000000               0.000149451               0.000460020              -0.000010390              -0.000001458               0.000153825               0.000152366               0.000000000               0.000000000               0.000000000               0.000000000               0.000158742               0.000513870              -0.000019281              -0.000004705               0.000172857               0.000168151               0.000000000               0.000000000               0.000000000               0.000000000               0.000160457               0.000571384              -0.000028592              -0.000011252               0.000194210               0.000182958               0.000000000               0.000000000               0.000000000               0.000000000               0.000154101               0.000635449              -0.000035607              -0.000021643               0.000219029               0.000197385               0.000000000               0.000000000               0.000000000               0.000000000               0.000139339               0.000702987              -0.000038649              -0.000035621               0.000246200               0.000210579               0.000000000               0.000000000               0.000000000               0.000000000               0.000119183               0.000772133              -0.000037562              -0.000051823               0.000274650               0.000222827               0.000000000               0.000000000               0.000000000               0.000000000               0.000096065               0.000839468              -0.000032947              -0.000068909               0.000302790               0.000233881               0.000000000               0.000000000               0.000000000               0.000000000               0.000071367               0.000903385              -0.000025955              -0.000086160               0.000329845               0.000243685               0.000000000               0.000000000               0.000000000               0.000000000               0.000046789               0.000962498              -0.000017564              -0.000102766               0.000355085               0.000252319               0.000000000               0.000000000               0.000000000               0.000000000               0.000023253               0.001015223              -0.000008956              -0.000118183               0.000377799               0.000259616               0.000000000               0.000000000               0.000000000               0.000000000               0.000015752               0.001048368              -0.000007556              -0.000125139               0.000391165               0.000266027               0.000000000               0.000000000               0.000000000               0.000000000               0.000045474               0.000127324              -0.000023899               0.000001137               0.000042062               0.000043199               0.000000000               0.000000000               0.000000000               0.000000000               0.000052384               0.000181441              -0.000007297              -0.000003036               0.000061492               0.000058456               0.000000000               0.000000000               0.000000000               0.000000000               0.000087973               0.000268494               0.000005578              -0.000000572               0.000089688               0.000089116               0.000000000               0.000000000               0.000000000               0.000000000               0.000119982               0.000336758               0.000003585               0.000002899               0.000111285               0.000114184               0.000000000               0.000000000               0.000000000               0.000000000               0.000131452               0.000401847              -0.000000039              -0.000000936               0.000134260               0.000133323               0.000000000               0.000000000               0.000000000               0.000000000               0.000148205               0.000463483              -0.000004147              -0.000002359               0.000155279               0.000152921               0.000000000               0.000000000               0.000000000               0.000000000               0.000165960               0.000525482              -0.000010061              -0.000003450               0.000176309               0.000172859               0.000000000               0.000000000               0.000000000               0.000000000               0.000173931               0.000586970              -0.000018992              -0.000008147               0.000198370               0.000190223               0.000000000               0.000000000               0.000000000               0.000000000               0.000174907               0.000654395              -0.000026987              -0.000016209               0.000223532               0.000207323               0.000000000               0.000000000               0.000000000               0.000000000               0.000167390               0.000728055              -0.000032478              -0.000028236               0.000252094               0.000223859               0.000000000               0.000000000               0.000000000               0.000000000               0.000153047               0.000805137              -0.000034570              -0.000043250               0.000282793               0.000239543               0.000000000               0.000000000               0.000000000               0.000000000               0.000134681               0.000882445              -0.000032195              -0.000059800               0.000314079               0.000254279               0.000000000               0.000000000               0.000000000               0.000000000               0.000113689               0.000957892              -0.000026792              -0.000077103               0.000344995               0.000267892               0.000000000               0.000000000               0.000000000               0.000000000               0.000091101               0.001029716              -0.000019106              -0.000094552               0.000374752               0.000280201               0.000000000               0.000000000               0.000000000               0.000000000               0.000069210               0.001097730              -0.000010809              -0.000111262               0.000402994               0.000291732               0.000000000               0.000000000               0.000000000               0.000000000               0.000049385               0.001160082              -0.000003301              -0.000126490               0.000428854               0.000302363               0.000000000               0.000000000               0.000000000               0.000000000               0.000038554               0.001193485              -0.000000702              -0.000134727               0.000442734               0.000308006               0.000000000               0.000000000               0.000000000               0.000000000               0.000051509               0.000133032              -0.000027896               0.000002687               0.000043448               0.000046135               0.000000000               0.000000000               0.000000000               0.000000000               0.000055444               0.000194629              -0.000013305              -0.000003537               0.000066055               0.000062518               0.000000000               0.000000000               0.000000000               0.000000000               0.000090922               0.000293258               0.000002153              -0.000002562               0.000098606               0.000096044               0.000000000               0.000000000               0.000000000               0.000000000               0.000130606               0.000368853               0.000004423               0.000002871               0.000121993               0.000124863               0.000000000               0.000000000               0.000000000               0.000000000               0.000145842               0.000434576              -0.000000350               0.000000369               0.000144734               0.000145103               0.000000000               0.000000000               0.000000000               0.000000000               0.000159831               0.000499223              -0.000005567              -0.000002466               0.000167228               0.000164762               0.000000000               0.000000000               0.000000000               0.000000000               0.000179282               0.000564495              -0.000009637              -0.000003331               0.000189273               0.000185942               0.000000000               0.000000000               0.000000000               0.000000000               0.000191444               0.000628782              -0.000016548              -0.000006806               0.000211861               0.000205054               0.000000000               0.000000000               0.000000000               0.000000000               0.000196055               0.000694766              -0.000023953              -0.000013325               0.000236028               0.000222703               0.000000000               0.000000000               0.000000000               0.000000000               0.000194218               0.000765898              -0.000029141              -0.000022905               0.000262932               0.000240026               0.000000000               0.000000000               0.000000000               0.000000000               0.000185494               0.000840875              -0.000032186              -0.000035549               0.000292139               0.000256589               0.000000000               0.000000000               0.000000000               0.000000000               0.000172038               0.000916771              -0.000031620              -0.000050082               0.000322281               0.000272199               0.000000000               0.000000000               0.000000000               0.000000000               0.000156125               0.000993548              -0.000027479              -0.000065646               0.000353061               0.000287415               0.000000000               0.000000000               0.000000000               0.000000000               0.000138250               0.001069109              -0.000020828              -0.000081795               0.000383631               0.000301836               0.000000000               0.000000000               0.000000000               0.000000000               0.000119850               0.001143720              -0.000012809              -0.000098021               0.000413910               0.000315889               0.000000000               0.000000000               0.000000000               0.000000000               0.000103568               0.001218345              -0.000004963              -0.000113455               0.000443929               0.000330474               0.000000000               0.000000000               0.000000000               0.000000000               0.000089802               0.001252949               0.000001215              -0.000122943               0.000458626               0.000335684               0.000000000               0.000000000               0.000000000               0.000000000               0.000056804               0.000130015              -0.000030683               0.000005050               0.000041655               0.000046704               0.000000000               0.000000000               0.000000000               0.000000000               0.000059522               0.000196808              -0.000018925              -0.000002280               0.000066362               0.000064082               0.000000000               0.000000000               0.000000000               0.000000000               0.000090967               0.000307274              -0.000003009              -0.000004297               0.000103856               0.000099559               0.000000000               0.000000000               0.000000000               0.000000000               0.000134568               0.000387993               0.000004725               0.000001964               0.000128675               0.000130639               0.000000000               0.000000000               0.000000000               0.000000000               0.000156892               0.000454411               0.000002844               0.000002033               0.000150791               0.000152824               0.000000000               0.000000000               0.000000000               0.000000000               0.000167818               0.000517705              -0.000003040              -0.000001781               0.000173160               0.000171379               0.000000000               0.000000000               0.000000000               0.000000000               0.000186199               0.000582242              -0.000006314              -0.000002956               0.000195064               0.000192108               0.000000000               0.000000000               0.000000000               0.000000000               0.000203779               0.000649449              -0.000009847              -0.000004764               0.000218069               0.000213305               0.000000000               0.000000000               0.000000000               0.000000000               0.000213994               0.000713000              -0.000015762              -0.000008877               0.000240623               0.000231746               0.000000000               0.000000000               0.000000000               0.000000000               0.000219413               0.000780224              -0.000021377              -0.000015248               0.000265155               0.000249906               0.000000000               0.000000000               0.000000000               0.000000000               0.000219944               0.000851917              -0.000024975              -0.000024011               0.000291973               0.000267962               0.000000000               0.000000000               0.000000000               0.000000000               0.000214980               0.000924748              -0.000027099              -0.000034976               0.000319905               0.000284929               0.000000000               0.000000000               0.000000000               0.000000000               0.000207000               0.000999109              -0.000025912              -0.000047263               0.000348788               0.000301524               0.000000000               0.000000000               0.000000000               0.000000000               0.000197138               0.001074076              -0.000021801              -0.000060332               0.000378132               0.000317800               0.000000000               0.000000000               0.000000000               0.000000000               0.000185088               0.001148055              -0.000015248              -0.000074099               0.000407381               0.000333282               0.000000000               0.000000000               0.000000000               0.000000000               0.000171967               0.001222148              -0.000007655              -0.000088281               0.000436806               0.000348525               0.000000000               0.000000000               0.000000000               0.000000000               0.000156746               0.001252304              -0.000000123              -0.000097758               0.000450017               0.000352259               0.000000000               0.000000000               0.000000000               0.000000000               0.000052213               0.000119207              -0.000031012               0.000004679               0.000038176               0.000042855               0.000000000               0.000000000               0.000000000               0.000000000               0.000060261               0.000193735              -0.000023949              -0.000001619               0.000065118               0.000063498               0.000000000               0.000000000               0.000000000               0.000000000               0.000090831               0.000314866              -0.000009903              -0.000005297               0.000106720               0.000101423               0.000000000               0.000000000               0.000000000               0.000000000               0.000134364               0.000402462               0.000002499               0.000000079               0.000134126               0.000134205               0.000000000               0.000000000               0.000000000               0.000000000               0.000164505               0.000473455               0.000005163               0.000002507               0.000156981               0.000159488               0.000000000               0.000000000               0.000000000               0.000000000               0.000177883               0.000536241               0.000000109              -0.000000324               0.000178853               0.000178529               0.000000000               0.000000000               0.000000000               0.000000000               0.000192841               0.000598486              -0.000003921              -0.000002495               0.000200325               0.000197830               0.000000000               0.000000000               0.000000000               0.000000000               0.000212595               0.000666039              -0.000005340              -0.000003532               0.000223188               0.000219656               0.000000000               0.000000000               0.000000000               0.000000000               0.000229182               0.000732380              -0.000008289              -0.000005604               0.000245992               0.000240388               0.000000000               0.000000000               0.000000000               0.000000000               0.000240164               0.000796020              -0.000013127              -0.000009441               0.000268484               0.000259043               0.000000000               0.000000000               0.000000000               0.000000000               0.000248222               0.000863941              -0.000016604              -0.000014910               0.000292947               0.000278038               0.000000000               0.000000000               0.000000000               0.000000000               0.000252553               0.000934835              -0.000019209              -0.000022147               0.000318991               0.000296844               0.000000000               0.000000000               0.000000000               0.000000000               0.000252782               0.001005928              -0.000020383              -0.000030948               0.000345622               0.000314674               0.000000000               0.000000000               0.000000000               0.000000000               0.000251078               0.001078461              -0.000019074              -0.000040653               0.000373034               0.000332381               0.000000000               0.000000000               0.000000000               0.000000000               0.000247758               0.001151379              -0.000015102              -0.000051013               0.000400793               0.000349781               0.000000000               0.000000000               0.000000000               0.000000000               0.000241982               0.001223776              -0.000008797              -0.000062229               0.000428664               0.000366435               0.000000000               0.000000000               0.000000000               0.000000000               0.000230706               0.001253395              -0.000002349              -0.000070159               0.000441180               0.000371021               0.000000000               0.000000000               0.000000000               0.000000000               0.000046676               0.000103654              -0.000026396               0.000004547               0.000033036               0.000037582               0.000000000               0.000000000               0.000000000               0.000000000               0.000061704               0.000183714              -0.000025494               0.000000175               0.000061179               0.000061354               0.000000000               0.000000000               0.000000000               0.000000000               0.000092565               0.000311970              -0.000016137              -0.000004284               0.000105417               0.000101133               0.000000000               0.000000000               0.000000000               0.000000000               0.000132648               0.000409852              -0.000001481              -0.000001488               0.000137112               0.000135624               0.000000000               0.000000000               0.000000000               0.000000000               0.000168273               0.000488107               0.000005205               0.000002089               0.000162004               0.000164093               0.000000000               0.000000000               0.000000000               0.000000000               0.000187319               0.000552594               0.000002594               0.000001170               0.000183806               0.000184976               0.000000000               0.000000000               0.000000000               0.000000000               0.000202216               0.000613610              -0.000001726              -0.000000870               0.000204825               0.000203955               0.000000000               0.000000000               0.000000000               0.000000000               0.000220470               0.000677453              -0.000003023              -0.000002005               0.000226484               0.000224479               0.000000000               0.000000000               0.000000000               0.000000000               0.000241058               0.000746766              -0.000003360              -0.000002949               0.000249903               0.000246954               0.000000000               0.000000000               0.000000000               0.000000000               0.000257650               0.000811609              -0.000005536              -0.000004832               0.000272144               0.000267312               0.000000000               0.000000000               0.000000000               0.000000000               0.000270795               0.000875475              -0.000008468              -0.000007886               0.000294451               0.000286564               0.000000000               0.000000000               0.000000000               0.000000000               0.000282593               0.000944052              -0.000010158              -0.000012034               0.000318692               0.000306658               0.000000000               0.000000000               0.000000000               0.000000000               0.000291528               0.001013635              -0.000011584              -0.000017381               0.000343669               0.000326287               0.000000000               0.000000000               0.000000000               0.000000000               0.000297872               0.001083194              -0.000011928              -0.000023697               0.000368960               0.000345263               0.000000000               0.000000000               0.000000000               0.000000000               0.000303515               0.001154459              -0.000010368              -0.000030489               0.000394979               0.000364490               0.000000000               0.000000000               0.000000000               0.000000000               0.000308148               0.001225122              -0.000006451              -0.000037585               0.000420898               0.000383313               0.000000000               0.000000000               0.000000000               0.000000000               0.000305541               0.001256055              -0.000002503              -0.000042429               0.000432824               0.000390395               0.000000000               0.000000000               0.000000000               0.000000000               0.000043214               0.000091828              -0.000021243               0.000004727               0.000029034               0.000033760               0.000000000               0.000000000               0.000000000               0.000000000               0.000064827               0.000172282              -0.000023704               0.000002775               0.000056502               0.000059277               0.000000000               0.000000000               0.000000000               0.000000000               0.000095961               0.000303147              -0.000018554              -0.000001908               0.000101684               0.000099776               0.000000000               0.000000000               0.000000000               0.000000000               0.000131144               0.000411232              -0.000005260              -0.000002225               0.000137818               0.000135592               0.000000000               0.000000000               0.000000000               0.000000000               0.000166984               0.000496812               0.000004182               0.000000518               0.000165430               0.000165947               0.000000000               0.000000000               0.000000000               0.000000000               0.000191613               0.000564329               0.000004000               0.000001314               0.000187670               0.000188984               0.000000000               0.000000000               0.000000000               0.000000000               0.000208843               0.000625408               0.000000431               0.000000140               0.000208420               0.000208560               0.000000000               0.000000000               0.000000000               0.000000000               0.000226091               0.000685907              -0.000001129              -0.000000954               0.000228952               0.000227997               0.000000000               0.000000000               0.000000000               0.000000000               0.000246920               0.000754470              -0.000000978              -0.000001714               0.000252059               0.000250345               0.000000000               0.000000000               0.000000000               0.000000000               0.000268326               0.000824090              -0.000000838              -0.000002389               0.000275490               0.000273101               0.000000000               0.000000000               0.000000000               0.000000000               0.000286064               0.000886806              -0.000002436              -0.000003577               0.000296791               0.000293215               0.000000000               0.000000000               0.000000000               0.000000000               0.000302982               0.000951629              -0.000003456              -0.000005335               0.000318985               0.000313650               0.000000000               0.000000000               0.000000000               0.000000000               0.000319450               0.001020478              -0.000003983              -0.000007766               0.000342745               0.000334979               0.000000000               0.000000000               0.000000000               0.000000000               0.000333519               0.001087874              -0.000004419              -0.000010915               0.000366259               0.000355345               0.000000000               0.000000000               0.000000000               0.000000000               0.000346836               0.001156744              -0.000004161              -0.000014529               0.000390421               0.000375891               0.000000000               0.000000000               0.000000000               0.000000000               0.000360315               0.001226365              -0.000002647              -0.000018177               0.000414843               0.000396666               0.000000000               0.000000000               0.000000000               0.000000000               0.000365197               0.001259225              -0.000001081              -0.000020454               0.000426556               0.000406101               0.000000000               0.000000000               0.000000000               0.000000000               0.000037143               0.000081509              -0.000016039               0.000003740               0.000025923               0.000029663               0.000000000               0.000000000               0.000000000               0.000000000               0.000066290               0.000160469              -0.000019124               0.000004800               0.000051889               0.000056689               0.000000000               0.000000000               0.000000000               0.000000000               0.000099470               0.000292367              -0.000016481               0.000000755               0.000097203               0.000097958               0.000000000               0.000000000               0.000000000               0.000000000               0.000131948               0.000407494              -0.000007369              -0.000001456               0.000136315               0.000134859               0.000000000               0.000000000               0.000000000               0.000000000               0.000165486               0.000500341               0.000001620              -0.000000485               0.000166940               0.000166455               0.000000000               0.000000000               0.000000000               0.000000000               0.000193686               0.000573630               0.000003242               0.000000928               0.000190899               0.000191827               0.000000000               0.000000000               0.000000000               0.000000000               0.000213773               0.000635132               0.000000856               0.000000773               0.000211451               0.000212224               0.000000000               0.000000000               0.000000000               0.000000000               0.000231519               0.000693818              -0.000000498               0.000000092               0.000231240               0.000231332               0.000000000               0.000000000               0.000000000               0.000000000               0.000251627               0.000758797              -0.000000509              -0.000000489               0.000253093               0.000252603               0.000000000               0.000000000               0.000000000               0.000000000               0.000274846               0.000830819               0.000000428              -0.000000785               0.000277199               0.000276413               0.000000000               0.000000000               0.000000000               0.000000000               0.000295959               0.000896024               0.000000299              -0.000001018               0.000299011               0.000297993               0.000000000               0.000000000               0.000000000               0.000000000               0.000315389               0.000957536              -0.000000145              -0.000001421               0.000319649               0.000318228               0.000000000               0.000000000               0.000000000               0.000000000               0.000336038               0.001024932               0.000000006              -0.000002102               0.000342342               0.000340239               0.000000000               0.000000000               0.000000000               0.000000000               0.000355477               0.001091965               0.000000009              -0.000003192               0.000365048               0.000361857               0.000000000               0.000000000               0.000000000               0.000000000               0.000373738               0.001158453              -0.000000140              -0.000004655               0.000387699               0.000383044               0.000000000               0.000000000               0.000000000               0.000000000               0.000392226               0.001226928              -0.000000040              -0.000006281               0.000411066               0.000404785               0.000000000               0.000000000               0.000000000               0.000000000               0.000400792               0.001261028               0.000000279              -0.000007332               0.000422782               0.000415451               0.000000000               0.000000000               0.000000000               0.000000000               0.000032063               0.000073971              -0.000006881               0.000002777               0.000023731               0.000026508               0.000000000               0.000000000               0.000000000               0.000000000               0.000066295               0.000150400              -0.000009384               0.000006061               0.000048113               0.000054173               0.000000000               0.000000000               0.000000000               0.000000000               0.000104384               0.000283631              -0.000008918               0.000003690               0.000093313               0.000097003               0.000000000               0.000000000               0.000000000               0.000000000               0.000133906               0.000402793              -0.000004462              -0.000000134               0.000134308               0.000134174               0.000000000               0.000000000               0.000000000               0.000000000               0.000163880               0.000500796               0.000000760              -0.000001144               0.000167312               0.000166167               0.000000000               0.000000000               0.000000000               0.000000000               0.000192569               0.000579235               0.000002154              -0.000000191               0.000193140               0.000192949               0.000000000               0.000000000               0.000000000               0.000000000               0.000214951               0.000640872               0.000001067               0.000000498               0.000213456               0.000213954               0.000000000               0.000000000               0.000000000               0.000000000               0.000234086               0.000697692               0.000000303               0.000000571               0.000232371               0.000232942               0.000000000               0.000000000               0.000000000               0.000000000               0.000254433               0.000759599               0.000000107               0.000000463               0.000253043               0.000253506               0.000000000               0.000000000               0.000000000               0.000000000               0.000278230               0.000831868               0.000000640               0.000000353               0.000277169               0.000277522               0.000000000               0.000000000               0.000000000               0.000000000               0.000301289               0.000901145               0.000000836               0.000000340               0.000300265               0.000300605               0.000000000               0.000000000               0.000000000               0.000000000               0.000321932               0.000962840               0.000000514               0.000000370               0.000320820               0.000321190               0.000000000               0.000000000               0.000000000               0.000000000               0.000344200               0.001029040               0.000000587               0.000000445               0.000342862               0.000343306               0.000000000               0.000000000               0.000000000               0.000000000               0.000366879               0.001096647               0.000000663               0.000000499               0.000365379               0.000365878               0.000000000               0.000000000               0.000000000               0.000000000               0.000388374               0.001161761               0.000000427               0.000000420               0.000387110               0.000387530               0.000000000               0.000000000               0.000000000               0.000000000               0.000409733               0.001228216               0.000000203               0.000000123               0.000409360               0.000409483               0.000000000               0.000000000               0.000000000               0.000000000               0.000420173               0.001262170               0.000000244              -0.000000206               0.000420788               0.000420582               0.000000000               0.000000000               0.000000000               0.000000000               0.000030345               0.000073033               0.000000000               0.000002250               0.000023594               0.000025844               0.000000000               0.000000000               0.000000000               0.000000000               0.000065536               0.000147270              -0.000000000               0.000006167               0.000047034               0.000053201               0.000000000               0.000000000               0.000000000               0.000000000               0.000106710               0.000279663              -0.000000000               0.000005058               0.000091534               0.000096592               0.000000000               0.000000000               0.000000000               0.000000000               0.000134398               0.000399935              -0.000000000               0.000000407               0.000133174               0.000133582               0.000000000               0.000000000               0.000000000               0.000000000               0.000162752               0.000500892              -0.000000000              -0.000001579               0.000167489               0.000165910               0.000000000               0.000000000               0.000000000               0.000000000               0.000191320               0.000581045               0.000000000              -0.000000885               0.000193975               0.000193089               0.000000000               0.000000000               0.000000000               0.000000000               0.000214319               0.000642144               0.000000000               0.000000102               0.000214012               0.000214114               0.000000000               0.000000000               0.000000000               0.000000000               0.000234580               0.000698601               0.000000000               0.000000642               0.000232651               0.000233293               0.000000000               0.000000000               0.000000000               0.000000000               0.000255356               0.000759845              -0.000000000               0.000000778               0.000253020               0.000253798               0.000000000               0.000000000               0.000000000               0.000000000               0.000279341               0.000832198               0.000000000               0.000000728               0.000277154               0.000277882               0.000000000               0.000000000               0.000000000               0.000000000               0.000303083               0.000903471               0.000000000               0.000000722               0.000300913               0.000301635               0.000000000               0.000000000               0.000000000               0.000000000               0.000324002               0.000965868               0.000000000               0.000000767               0.000321697               0.000322464               0.000000000               0.000000000               0.000000000               0.000000000               0.000346486               0.001031524               0.000000000               0.000000992               0.000343507               0.000344499               0.000000000               0.000000000               0.000000000               0.000000000               0.000370263               0.001099140               0.000000000               0.000001456               0.000365891               0.000367347               0.000000000               0.000000000               0.000000000               0.000000000               0.000393087               0.001163580               0.000000000               0.000001960               0.000387203               0.000389163               0.000000000               0.000000000               0.000000000               0.000000000               0.000415748               0.001228912              -0.000000000               0.000002291               0.000408869               0.000411161               0.000000000               0.000000000               0.000000000               0.000000000               0.000427194               0.001262624              -0.000000000               0.000002370               0.000420080               0.000422450               0.000000000               0.000000000               0.000000000               0.000000000               0.000000000               0.000000000               0.000000000               0.000000000               0.000000000               0.000000000               0.000000000               0.000000000               0.000000000               0.000000000               0.000000000               0.000000000               0.000000000               0.000000000               0.000000000               0.000000000               0.000000000               0.000000000               0.000000000               0.000000000               0.000000000               0.000000000               0.000000000               0.000000000               0.000000000               0.000000000               0.000000000               0.000000000               0.000000000               0.000000000               0.000000000               0.000000000               0.000000000               0.000000000               0.000000000               0.000000000               0.000000000               0.000000000               0.000000000               0.000000000               0.000000000               0.000000000               0.000000000               0.000000000               0.000000000               0.000000000               0.000000000               0.000000000               0.000000000               0.000000000               0.000000000               0.000000000               0.000000000               0.000000000               0.000000000               0.000000000               0.000000000               0.000000000               0.000000000               0.000000000               0.000000000               0.000000000               0.000000000               0.000000000               0.000000000               0.000000000               0.000000000               0.000000000               0.000000000               0.000000000               0.000000000               0.000000000               0.000000000               0.000000000               0.000000000               0.000000000               0.000000000               0.000000000               0.000000000               0.000000000               0.000000000               0.000000000               0.000000000               0.000000000               0.000000000               0.000000000               0.000000000               0.000000000               0.000000000               0.000000000               0.000000000               0.000000000               0.000000000               0.000000000               0.000000000               0.000000000               0.000000000               0.000000000               0.000000000               0.000000000               0.000000000               0.000000000               0.000000000               0.000000000               0.000000000               0.000000000               0.000000000               0.000000000               0.000000000               0.000000000               0.000000000               0.000000000               0.000000000               0.000000000               0.000000000               0.000000000               0.000000000               0.000000000               0.000000000               0.000000000               0.000000000               0.000000000               0.000000000               0.000000000               0.000000000               0.000000000               0.000000000               0.000000000               0.000000000               0.000000000               0.000000000               0.000000000               0.000000000               0.000000000               0.000000000               0.000000000               0.000000000               0.000000000               0.000000000               0.000000000               0.000000000               0.000000000               0.000000000               0.000000000               0.000000000               0.000000000               0.000000000               0.000000000               0.000000000               0.000000000               0.000000000               0.000000000               0.000000000               0.000000000               0.000000000               0.000000000               0.000000000               0.000000000               0.000000000               0.000000000               0.000000000               0.000000000               0.000000000               0.000000000               0.000000000               0.000000000               0.000000000               0.000000000               0.000000000               0.000000000              -0.000008472              -0.000031628              -0.000003882               0.000000776              -0.000010802              -0.000010025               0.000000000               0.000000000               0.000000000               0.000000000              -0.000008196              -0.000023558              -0.000000640              -0.000000129              -0.000007810              -0.000007938               0.000000000               0.000000000               0.000000000               0.000000000              -0.000008393              -0.000021132               0.000001813              -0.000000506              -0.000006876              -0.000007381               0.000000000               0.000000000               0.000000000               0.000000000              -0.000007481              -0.000020560               0.000001291              -0.000000236              -0.000006775              -0.000007010               0.000000000               0.000000000               0.000000000               0.000000000              -0.000006397              -0.000016625               0.000001898              -0.000000321              -0.000005435              -0.000005756               0.000000000               0.000000000               0.000000000               0.000000000              -0.000004542              -0.000012723               0.000002331              -0.000000113              -0.000004204              -0.000004316               0.000000000               0.000000000               0.000000000               0.000000000              -0.000003362              -0.000007735               0.000000876              -0.000000294              -0.000002480              -0.000002774               0.000000000               0.000000000               0.000000000               0.000000000              -0.000002409              -0.000001686              -0.000000215              -0.000000693              -0.000000331              -0.000001024               0.000000000               0.000000000               0.000000000               0.000000000              -0.000001019               0.000005046              -0.000001647              -0.000001013               0.000002019               0.000001007               0.000000000               0.000000000               0.000000000               0.000000000               0.000000476               0.000011018              -0.000002879              -0.000001199               0.000004072               0.000002873               0.000000000               0.000000000               0.000000000               0.000000000               0.000002883               0.000015394              -0.000003530              -0.000000843               0.000005412               0.000004569               0.000000000               0.000000000               0.000000000               0.000000000               0.000006353               0.000017936              -0.000003423               0.000000140               0.000005932               0.000006072               0.000000000               0.000000000               0.000000000               0.000000000               0.000009966               0.000019404              -0.000002745               0.000001312               0.000006031               0.000007342               0.000000000               0.000000000               0.000000000               0.000000000               0.000012403               0.000021405              -0.000002007               0.000001975               0.000006476               0.000008452               0.000000000               0.000000000               0.000000000               0.000000000               0.000012113               0.000025690              -0.000001582               0.000001331               0.000008120               0.000009451               0.000000000               0.000000000               0.000000000               0.000000000               0.000007659               0.000033766              -0.000001282              -0.000001349               0.000011705               0.000010356               0.000000000               0.000000000               0.000000000               0.000000000               0.000006196               0.000042797               0.000000484              -0.000003026               0.000015274               0.000012248               0.000000000               0.000000000               0.000000000               0.000000000              -0.000002261              -0.000004394              -0.000004876              -0.000000299              -0.000001365              -0.000001664               0.000000000               0.000000000               0.000000000               0.000000000              -0.000000490               0.000000291              -0.000001892              -0.000000220               0.000000170              -0.000000050               0.000000000               0.000000000               0.000000000               0.000000000               0.000003151               0.000011766               0.000002367              -0.000000289               0.000004018               0.000003729               0.000000000               0.000000000               0.000000000               0.000000000               0.000005759               0.000022845               0.000001257              -0.000000696               0.000007847               0.000007151               0.000000000               0.000000000               0.000000000               0.000000000               0.000009867               0.000035461              -0.000000085              -0.000000733               0.000012065               0.000011332               0.000000000               0.000000000               0.000000000               0.000000000               0.000016036               0.000051425               0.000000496              -0.000000415               0.000017280               0.000016865               0.000000000               0.000000000               0.000000000               0.000000000               0.000020696               0.000066499              -0.000000639              -0.000000551               0.000022350               0.000021799               0.000000000               0.000000000               0.000000000               0.000000000               0.000024908               0.000080813              -0.000001624              -0.000000761               0.000027191               0.000026430               0.000000000               0.000000000               0.000000000               0.000000000               0.000030610               0.000092666              -0.000002171              -0.000000104               0.000030923               0.000030819               0.000000000               0.000000000               0.000000000               0.000000000               0.000038051               0.000101764              -0.000001914               0.000001549               0.000033405               0.000034953               0.000000000               0.000000000               0.000000000               0.000000000               0.000045411               0.000109002              -0.000000642               0.000003404               0.000035199               0.000038603               0.000000000               0.000000000               0.000000000               0.000000000               0.000050667               0.000117038               0.000001326               0.000004370               0.000037555               0.000041926               0.000000000               0.000000000               0.000000000               0.000000000               0.000051390               0.000128597               0.000003184               0.000003196               0.000041800               0.000044996               0.000000000               0.000000000               0.000000000               0.000000000               0.000046080               0.000145370               0.000004186              -0.000000891               0.000048753               0.000047862               0.000000000               0.000000000               0.000000000               0.000000000               0.000034825               0.000167928               0.000003906              -0.000007931               0.000058619               0.000050688               0.000000000               0.000000000               0.000000000               0.000000000               0.000018483               0.000196302               0.000002181              -0.000017606               0.000071302               0.000053696               0.000000000               0.000000000               0.000000000               0.000000000               0.000013741               0.000220642               0.000003713              -0.000022427               0.000081022               0.000058595               0.000000000               0.000000000               0.000000000               0.000000000               0.000006749               0.000016326              -0.000003989               0.000000490               0.000005279               0.000005769               0.000000000               0.000000000               0.000000000               0.000000000               0.000006784               0.000021246              -0.000004354              -0.000000112               0.000007119               0.000007008               0.000000000               0.000000000               0.000000000               0.000000000               0.000015202               0.000044537               0.000000670               0.000000134               0.000014801               0.000014934               0.000000000               0.000000000               0.000000000               0.000000000               0.000022341               0.000065243               0.000000323               0.000000223               0.000021673               0.000021896               0.000000000               0.000000000               0.000000000               0.000000000               0.000028573               0.000088816              -0.000002068              -0.000000387               0.000029734               0.000029347               0.000000000               0.000000000               0.000000000               0.000000000               0.000036887               0.000114516              -0.000001664              -0.000000482               0.000038332               0.000037850               0.000000000               0.000000000               0.000000000               0.000000000               0.000045706               0.000139923              -0.000002276              -0.000000351               0.000046757               0.000046407               0.000000000               0.000000000               0.000000000               0.000000000               0.000053185               0.000161944              -0.000001973              -0.000000299               0.000054080               0.000053782               0.000000000               0.000000000               0.000000000               0.000000000               0.000062038               0.000180291              -0.000000027               0.000000728               0.000059854               0.000060582               0.000000000               0.000000000               0.000000000               0.000000000               0.000071558               0.000195993               0.000003386               0.000002335               0.000064552               0.000066887               0.000000000               0.000000000               0.000000000               0.000000000               0.000078219               0.000211486               0.000007792               0.000002897               0.000069529               0.000072426               0.000000000               0.000000000               0.000000000               0.000000000               0.000080046               0.000230336               0.000011877               0.000001225               0.000076370               0.000077595               0.000000000               0.000000000               0.000000000               0.000000000               0.000075509               0.000254540               0.000014593              -0.000003502               0.000086013               0.000082511               0.000000000               0.000000000               0.000000000               0.000000000               0.000064087               0.000284606               0.000015155              -0.000011543               0.000098715               0.000087172               0.000000000               0.000000000               0.000000000               0.000000000               0.000046575               0.000320087               0.000013017              -0.000022545               0.000114210               0.000091665               0.000000000               0.000000000               0.000000000               0.000000000               0.000024276               0.000359845               0.000007759              -0.000035877               0.000131906               0.000096029               0.000000000               0.000000000               0.000000000               0.000000000               0.000018073               0.000391141               0.000007725              -0.000042115               0.000144418               0.000102302               0.000000000               0.000000000               0.000000000               0.000000000               0.000016815               0.000035143               0.000001365               0.000001913               0.000011077               0.000012989               0.000000000               0.000000000               0.000000000               0.000000000               0.000015651               0.000043623              -0.000003706               0.000000416               0.000014402               0.000014818               0.000000000               0.000000000               0.000000000               0.000000000               0.000028389               0.000078921              -0.000000565               0.000000781               0.000026046               0.000026827               0.000000000               0.000000000               0.000000000               0.000000000               0.000040775               0.000111095              -0.000000029               0.000001404               0.000036563               0.000037967               0.000000000               0.000000000               0.000000000               0.000000000               0.000049095               0.000144638              -0.000003270               0.000000331               0.000048102               0.000048433               0.000000000               0.000000000               0.000000000               0.000000000               0.000059717               0.000179002              -0.000002931               0.000000018               0.000059661               0.000059679               0.000000000               0.000000000               0.000000000               0.000000000               0.000071877               0.000211439              -0.000002057               0.000000524               0.000070304               0.000070828               0.000000000               0.000000000               0.000000000               0.000000000               0.000082043               0.000239292               0.000000509               0.000000855               0.000079479               0.000080333               0.000000000               0.000000000               0.000000000               0.000000000               0.000091821               0.000264244               0.000005552               0.000001402               0.000087613               0.000089015               0.000000000               0.000000000               0.000000000               0.000000000               0.000099445               0.000289226               0.000012133               0.000001139               0.000096028               0.000097167               0.000000000               0.000000000               0.000000000               0.000000000               0.000101382               0.000317499               0.000018582              -0.000001669               0.000106388               0.000104719               0.000000000               0.000000000               0.000000000               0.000000000               0.000096326               0.000350669               0.000023467              -0.000007711               0.000119459               0.000111748               0.000000000               0.000000000               0.000000000               0.000000000               0.000084620               0.000388858               0.000025728              -0.000016875               0.000135243               0.000118368               0.000000000               0.000000000               0.000000000               0.000000000               0.000067414               0.000430911               0.000024648              -0.000028584               0.000153163               0.000124580               0.000000000               0.000000000               0.000000000               0.000000000               0.000046478               0.000475008               0.000019966              -0.000041947               0.000172317               0.000130370               0.000000000               0.000000000               0.000000000               0.000000000               0.000023478               0.000519204               0.000011518              -0.000056096               0.000191765               0.000135669               0.000000000               0.000000000               0.000000000               0.000000000               0.000017939               0.000551299               0.000009962              -0.000062185               0.000204493               0.000142308               0.000000000               0.000000000               0.000000000               0.000000000               0.000024881               0.000063590               0.000007488               0.000001381               0.000020736               0.000022117               0.000000000               0.000000000               0.000000000               0.000000000               0.000024768               0.000080158              -0.000003261              -0.000000732               0.000026963               0.000026231               0.000000000               0.000000000               0.000000000               0.000000000               0.000043335               0.000127031              -0.000003972               0.000000372               0.000042219               0.000042591               0.000000000               0.000000000               0.000000000               0.000000000               0.000061990               0.000171853              -0.000000778               0.000001765               0.000056695               0.000058460               0.000000000               0.000000000               0.000000000               0.000000000               0.000071525               0.000214531              -0.000003367               0.000000005               0.000071508               0.000071513               0.000000000               0.000000000               0.000000000               0.000000000               0.000083836               0.000256030              -0.000001580              -0.000000565               0.000085531               0.000084966               0.000000000               0.000000000               0.000000000               0.000000000               0.000098974               0.000294379               0.000001492               0.000000318               0.000098019               0.000098337               0.000000000               0.000000000               0.000000000               0.000000000               0.000111111               0.000329004               0.000006753               0.000000541               0.000109487               0.000110028               0.000000000               0.000000000               0.000000000               0.000000000               0.000119363               0.000362098               0.000014750              -0.000000501               0.000120865               0.000120364               0.000000000               0.000000000               0.000000000               0.000000000               0.000123423               0.000398786               0.000022958              -0.000003565               0.000134115               0.000130551               0.000000000               0.000000000               0.000000000               0.000000000               0.000119495               0.000440575               0.000029808              -0.000010261               0.000150277               0.000140016               0.000000000               0.000000000               0.000000000               0.000000000               0.000107663               0.000487288               0.000033837              -0.000020538               0.000169274               0.000148736               0.000000000               0.000000000               0.000000000               0.000000000               0.000090192               0.000537676               0.000034142              -0.000033387               0.000190353               0.000156965               0.000000000               0.000000000               0.000000000               0.000000000               0.000069043               0.000588936               0.000030673              -0.000047726               0.000212218               0.000164493               0.000000000               0.000000000               0.000000000               0.000000000               0.000046062               0.000638384               0.000023647              -0.000062525               0.000233634               0.000171110               0.000000000               0.000000000               0.000000000               0.000000000               0.000022783               0.000684169               0.000013160              -0.000076977               0.000253713               0.000176736               0.000000000               0.000000000               0.000000000               0.000000000               0.000017215               0.000715206               0.000010501              -0.000082945               0.000266048               0.000183103               0.000000000               0.000000000               0.000000000               0.000000000               0.000034628               0.000090493               0.000013481               0.000001674               0.000029606               0.000031280               0.000000000               0.000000000               0.000000000               0.000000000               0.000036134               0.000118174              -0.000000393              -0.000001222               0.000039798               0.000038577               0.000000000               0.000000000               0.000000000               0.000000000               0.000060708               0.000179085              -0.000004464               0.000000380               0.000059568               0.000059948               0.000000000               0.000000000               0.000000000               0.000000000               0.000085331               0.000234444              -0.000000132               0.000002693               0.000077249               0.000079943               0.000000000               0.000000000               0.000000000               0.000000000               0.000095625               0.000285262              -0.000001106               0.000000202               0.000095019               0.000095221               0.000000000               0.000000000               0.000000000               0.000000000               0.000108955               0.000334040               0.000001790              -0.000000897               0.000111645               0.000110748               0.000000000               0.000000000               0.000000000               0.000000000               0.000125594               0.000380088               0.000006664              -0.000000413               0.000126833               0.000126419               0.000000000               0.000000000               0.000000000               0.000000000               0.000136900               0.000423046               0.000014136              -0.000001543               0.000141528               0.000139985               0.000000000               0.000000000               0.000000000               0.000000000               0.000142212               0.000467644               0.000023571              -0.000005126               0.000157589               0.000152462               0.000000000               0.000000000               0.000000000               0.000000000               0.000141187               0.000517376               0.000031717              -0.000011727               0.000176366               0.000164639               0.000000000               0.000000000               0.000000000               0.000000000               0.000131033               0.000572255               0.000037154              -0.000022395               0.000198215               0.000175820               0.000000000               0.000000000               0.000000000               0.000000000               0.000114374               0.000630722               0.000038743              -0.000035950               0.000222222               0.000186272               0.000000000               0.000000000               0.000000000               0.000000000               0.000093513               0.000690013               0.000036348              -0.000051184               0.000247064               0.000195879               0.000000000               0.000000000               0.000000000               0.000000000               0.000070224               0.000746926               0.000030755              -0.000067032               0.000271317               0.000204285               0.000000000               0.000000000               0.000000000               0.000000000               0.000046107               0.000799665               0.000022472              -0.000082668               0.000294108               0.000211441               0.000000000               0.000000000               0.000000000               0.000000000               0.000022663               0.000846506               0.000012096              -0.000097315               0.000314604               0.000217290               0.000000000               0.000000000               0.000000000               0.000000000               0.000016606               0.000876867               0.000009664              -0.000103381               0.000326747               0.000223366               0.000000000               0.000000000               0.000000000               0.000000000               0.000042273               0.000110186               0.000019541               0.000002079               0.000036035               0.000038114               0.000000000               0.000000000               0.000000000               0.000000000               0.000047380               0.000151602               0.000003721              -0.000001183               0.000050928               0.000049745               0.000000000               0.000000000               0.000000000               0.000000000               0.000078343               0.000228437              -0.000004727               0.000000824               0.000075870               0.000076694               0.000000000               0.000000000               0.000000000               0.000000000               0.000105747               0.000290416              -0.000001148               0.000003353               0.000095687               0.000099040               0.000000000               0.000000000               0.000000000               0.000000000               0.000116547               0.000349067               0.000000129               0.000000072               0.000116331               0.000116402               0.000000000               0.000000000               0.000000000               0.000000000               0.000132169               0.000405149               0.000003742              -0.000001080               0.000135408               0.000134328               0.000000000               0.000000000               0.000000000               0.000000000               0.000149451               0.000460020               0.000010390              -0.000001458               0.000153825               0.000152366               0.000000000               0.000000000               0.000000000               0.000000000               0.000158742               0.000513870               0.000019281              -0.000004705               0.000172857               0.000168151               0.000000000               0.000000000               0.000000000               0.000000000               0.000160457               0.000571384               0.000028592              -0.000011252               0.000194210               0.000182958               0.000000000               0.000000000               0.000000000               0.000000000               0.000154101               0.000635449               0.000035607              -0.000021643               0.000219029               0.000197385               0.000000000               0.000000000               0.000000000               0.000000000               0.000139339               0.000702987               0.000038649              -0.000035621               0.000246200               0.000210579               0.000000000               0.000000000               0.000000000               0.000000000               0.000119183               0.000772133               0.000037562              -0.000051823               0.000274650               0.000222827               0.000000000               0.000000000               0.000000000               0.000000000               0.000096065               0.000839468               0.000032947              -0.000068909               0.000302790               0.000233881               0.000000000               0.000000000               0.000000000               0.000000000               0.000071367               0.000903385               0.000025955              -0.000086160               0.000329845               0.000243685               0.000000000               0.000000000               0.000000000               0.000000000               0.000046789               0.000962498               0.000017564              -0.000102766               0.000355085               0.000252319               0.000000000               0.000000000               0.000000000               0.000000000               0.000023253               0.001015223               0.000008956              -0.000118183               0.000377799               0.000259616               0.000000000               0.000000000               0.000000000               0.000000000               0.000015752               0.001048368               0.000007556              -0.000125139               0.000391165               0.000266027               0.000000000               0.000000000               0.000000000               0.000000000               0.000045474               0.000127324               0.000023899               0.000001137               0.000042062               0.000043199               0.000000000               0.000000000               0.000000000               0.000000000               0.000052384               0.000181441               0.000007297              -0.000003036               0.000061492               0.000058456               0.000000000               0.000000000               0.000000000               0.000000000               0.000087973               0.000268494              -0.000005578              -0.000000572               0.000089688               0.000089116               0.000000000               0.000000000               0.000000000               0.000000000               0.000119982               0.000336758              -0.000003585               0.000002899               0.000111285               0.000114184               0.000000000               0.000000000               0.000000000               0.000000000               0.000131452               0.000401847               0.000000039              -0.000000936               0.000134260               0.000133323               0.000000000               0.000000000               0.000000000               0.000000000               0.000148205               0.000463483               0.000004147              -0.000002359               0.000155279               0.000152921               0.000000000               0.000000000               0.000000000               0.000000000               0.000165960               0.000525482               0.000010061              -0.000003450               0.000176309               0.000172859               0.000000000               0.000000000               0.000000000               0.000000000               0.000173931               0.000586970               0.000018992              -0.000008147               0.000198370               0.000190223               0.000000000               0.000000000               0.000000000               0.000000000               0.000174907               0.000654395               0.000026987              -0.000016209               0.000223532               0.000207323               0.000000000               0.000000000               0.000000000               0.000000000               0.000167390               0.000728055               0.000032478              -0.000028236               0.000252094               0.000223859               0.000000000               0.000000000               0.000000000               0.000000000               0.000153047               0.000805137               0.000034570              -0.000043250               0.000282793               0.000239543               0.000000000               0.000000000               0.000000000               0.000000000               0.000134681               0.000882445               0.000032195              -0.000059800               0.000314079               0.000254279               0.000000000               0.000000000               0.000000000               0.000000000               0.000113689               0.000957892               0.000026792              -0.000077103               0.000344995               0.000267892               0.000000000               0.000000000               0.000000000               0.000000000               0.000091101               0.001029716               0.000019106              -0.000094552               0.000374752               0.000280201               0.000000000               0.000000000               0.000000000               0.000000000               0.000069210               0.001097730               0.000010809              -0.000111262               0.000402994               0.000291732               0.000000000               0.000000000               0.000000000               0.000000000               0.000049385               0.001160082               0.000003301              -0.000126490               0.000428854               0.000302363               0.000000000               0.000000000               0.000000000               0.000000000               0.000038554               0.001193485               0.000000702              -0.000134727               0.000442734               0.000308006               0.000000000               0.000000000               0.000000000               0.000000000               0.000051509               0.000133032               0.000027896               0.000002687               0.000043448               0.000046135               0.000000000               0.000000000               0.000000000               0.000000000               0.000055444               0.000194629               0.000013305              -0.000003537               0.000066055               0.000062518               0.000000000               0.000000000               0.000000000               0.000000000               0.000090922               0.000293258              -0.000002153              -0.000002562               0.000098606               0.000096044               0.000000000               0.000000000               0.000000000               0.000000000               0.000130606               0.000368853              -0.000004423               0.000002871               0.000121993               0.000124863               0.000000000               0.000000000               0.000000000               0.000000000               0.000145842               0.000434576               0.000000350               0.000000369               0.000144734               0.000145103               0.000000000               0.000000000               0.000000000               0.000000000               0.000159831               0.000499223               0.000005567              -0.000002466               0.000167228               0.000164762               0.000000000               0.000000000               0.000000000               0.000000000               0.000179282               0.000564495               0.000009637              -0.000003331               0.000189273               0.000185942               0.000000000               0.000000000               0.000000000               0.000000000               0.000191444               0.000628782               0.000016548              -0.000006806               0.000211861               0.000205054               0.000000000               0.000000000               0.000000000               0.000000000               0.000196055               0.000694766               0.000023953              -0.000013325               0.000236028               0.000222703               0.000000000               0.000000000               0.000000000               0.000000000               0.000194218               0.000765898               0.000029141              -0.000022905               0.000262932               0.000240026               0.000000000               0.000000000               0.000000000               0.000000000               0.000185494               0.000840875               0.000032186              -0.000035549               0.000292139               0.000256589               0.000000000               0.000000000               0.000000000               0.000000000               0.000172038               0.000916771               0.000031620              -0.000050082               0.000322281               0.000272199               0.000000000               0.000000000               0.000000000               0.000000000               0.000156125               0.000993548               0.000027479              -0.000065646               0.000353061               0.000287415               0.000000000               0.000000000               0.000000000               0.000000000               0.000138250               0.001069109               0.000020828              -0.000081795               0.000383631               0.000301836               0.000000000               0.000000000               0.000000000               0.000000000               0.000119850               0.001143720               0.000012809              -0.000098021               0.000413910               0.000315889               0.000000000               0.000000000               0.000000000               0.000000000               0.000103568               0.001218345               0.000004963              -0.000113455               0.000443929               0.000330474               0.000000000               0.000000000               0.000000000               0.000000000               0.000089802               0.001252949              -0.000001215              -0.000122943               0.000458626               0.000335684               0.000000000               0.000000000               0.000000000               0.000000000               0.000056804               0.000130015               0.000030683               0.000005050               0.000041655               0.000046704               0.000000000               0.000000000               0.000000000               0.000000000               0.000059522               0.000196808               0.000018925              -0.000002280               0.000066362               0.000064082               0.000000000               0.000000000               0.000000000               0.000000000               0.000090967               0.000307274               0.000003009              -0.000004297               0.000103856               0.000099559               0.000000000               0.000000000               0.000000000               0.000000000               0.000134568               0.000387993              -0.000004725               0.000001964               0.000128675               0.000130639               0.000000000               0.000000000               0.000000000               0.000000000               0.000156892               0.000454411              -0.000002844               0.000002033               0.000150791               0.000152824               0.000000000               0.000000000               0.000000000               0.000000000               0.000167818               0.000517705               0.000003040              -0.000001781               0.000173160               0.000171379               0.000000000               0.000000000               0.000000000               0.000000000               0.000186199               0.000582242               0.000006314              -0.000002956               0.000195064               0.000192108               0.000000000               0.000000000               0.000000000               0.000000000               0.000203779               0.000649449               0.000009847              -0.000004764               0.000218069               0.000213305               0.000000000               0.000000000               0.000000000               0.000000000               0.000213994               0.000713000               0.000015762              -0.000008877               0.000240623               0.000231746               0.000000000               0.000000000               0.000000000               0.000000000               0.000219413               0.000780224               0.000021377              -0.000015248               0.000265155               0.000249906               0.000000000               0.000000000               0.000000000               0.000000000               0.000219944               0.000851917               0.000024975              -0.000024011               0.000291973               0.000267962               0.000000000               0.000000000               0.000000000               0.000000000               0.000214980               0.000924748               0.000027099              -0.000034976               0.000319905               0.000284929               0.000000000               0.000000000               0.000000000               0.000000000               0.000207000               0.000999109               0.000025912              -0.000047263               0.000348788               0.000301524               0.000000000               0.000000000               0.000000000               0.000000000               0.000197138               0.001074076               0.000021801              -0.000060332               0.000378132               0.000317800               0.000000000               0.000000000               0.000000000               0.000000000               0.000185088               0.001148055               0.000015248              -0.000074099               0.000407381               0.000333282               0.000000000               0.000000000               0.000000000               0.000000000               0.000171967               0.001222148               0.000007655              -0.000088281               0.000436806               0.000348525               0.000000000               0.000000000               0.000000000               0.000000000               0.000156746               0.001252304               0.000000123              -0.000097758               0.000450017               0.000352259               0.000000000               0.000000000               0.000000000               0.000000000               0.000052213               0.000119207               0.000031012               0.000004679               0.000038176               0.000042855               0.000000000               0.000000000               0.000000000               0.000000000               0.000060261               0.000193735               0.000023949              -0.000001619               0.000065118               0.000063498               0.000000000               0.000000000               0.000000000               0.000000000               0.000090831               0.000314866               0.000009903              -0.000005297               0.000106720               0.000101423               0.000000000               0.000000000               0.000000000               0.000000000               0.000134364               0.000402462              -0.000002499               0.000000079               0.000134126               0.000134205               0.000000000               0.000000000               0.000000000               0.000000000               0.000164505               0.000473455              -0.000005163               0.000002507               0.000156981               0.000159488               0.000000000               0.000000000               0.000000000               0.000000000               0.000177883               0.000536241              -0.000000109              -0.000000324               0.000178853               0.000178529               0.000000000               0.000000000               0.000000000               0.000000000               0.000192841               0.000598486               0.000003921              -0.000002495               0.000200325               0.000197830               0.000000000               0.000000000               0.000000000               0.000000000               0.000212595               0.000666039               0.000005340              -0.000003532               0.000223188               0.000219656               0.000000000               0.000000000               0.000000000               0.000000000               0.000229182               0.000732380               0.000008289              -0.000005604               0.000245992               0.000240388               0.000000000               0.000000000               0.000000000               0.000000000               0.000240164               0.000796020               0.000013127              -0.000009441               0.000268484               0.000259043               0.000000000               0.000000000               0.000000000               0.000000000               0.000248222               0.000863941               0.000016604              -0.000014910               0.000292947               0.000278038               0.000000000               0.000000000               0.000000000               0.000000000               0.000252553               0.000934835               0.000019209              -0.000022147               0.000318991               0.000296844               0.000000000               0.000000000               0.000000000               0.000000000               0.000252782               0.001005928               0.000020383              -0.000030948               0.000345622               0.000314674               0.000000000               0.000000000               0.000000000               0.000000000               0.000251078               0.001078461               0.000019074              -0.000040653               0.000373034               0.000332381               0.000000000               0.000000000               0.000000000               0.000000000               0.000247758               0.001151379               0.000015102              -0.000051013               0.000400793               0.000349781               0.000000000               0.000000000               0.000000000               0.000000000               0.000241982               0.001223776               0.000008797              -0.000062229               0.000428664               0.000366435               0.000000000               0.000000000               0.000000000               0.000000000               0.000230706               0.001253395               0.000002349              -0.000070159               0.000441180               0.000371021               0.000000000               0.000000000               0.000000000               0.000000000               0.000046676               0.000103654               0.000026396               0.000004547               0.000033036               0.000037582               0.000000000               0.000000000               0.000000000               0.000000000               0.000061704               0.000183714               0.000025494               0.000000175               0.000061179               0.000061354               0.000000000               0.000000000               0.000000000               0.000000000               0.000092565               0.000311970               0.000016137              -0.000004284               0.000105417               0.000101133               0.000000000               0.000000000               0.000000000               0.000000000               0.000132648               0.000409852               0.000001481              -0.000001488               0.000137112               0.000135624               0.000000000               0.000000000               0.000000000               0.000000000               0.000168273               0.000488107              -0.000005205               0.000002089               0.000162004               0.000164093               0.000000000               0.000000000               0.000000000               0.000000000               0.000187319               0.000552594              -0.000002594               0.000001170               0.000183806               0.000184976               0.000000000               0.000000000               0.000000000               0.000000000               0.000202216               0.000613610               0.000001726              -0.000000870               0.000204825               0.000203955               0.000000000               0.000000000               0.000000000               0.000000000               0.000220470               0.000677453               0.000003023              -0.000002005               0.000226484               0.000224479               0.000000000               0.000000000               0.000000000               0.000000000               0.000241058               0.000746766               0.000003360              -0.000002949               0.000249903               0.000246954               0.000000000               0.000000000               0.000000000               0.000000000               0.000257650               0.000811609               0.000005536              -0.000004832               0.000272144               0.000267312               0.000000000               0.000000000               0.000000000               0.000000000               0.000270795               0.000875475               0.000008468              -0.000007886               0.000294451               0.000286564               0.000000000               0.000000000               0.000000000               0.000000000               0.000282593               0.000944052               0.000010158              -0.000012034               0.000318692               0.000306658               0.000000000               0.000000000               0.000000000               0.000000000               0.000291528               0.001013635               0.000011584              -0.000017381               0.000343669               0.000326287               0.000000000               0.000000000               0.000000000               0.000000000               0.000297872               0.001083194               0.000011928              -0.000023697               0.000368960               0.000345263               0.000000000               0.000000000               0.000000000               0.000000000               0.000303515               0.001154459               0.000010368              -0.000030489               0.000394979               0.000364490               0.000000000               0.000000000               0.000000000               0.000000000               0.000308148               0.001225122               0.000006451              -0.000037585               0.000420898               0.000383313               0.000000000               0.000000000               0.000000000               0.000000000               0.000305541               0.001256055               0.000002503              -0.000042429               0.000432824               0.000390395               0.000000000               0.000000000               0.000000000               0.000000000               0.000043214               0.000091828               0.000021243               0.000004727               0.000029034               0.000033760               0.000000000               0.000000000               0.000000000               0.000000000               0.000064827               0.000172282               0.000023704               0.000002775               0.000056502               0.000059277               0.000000000               0.000000000               0.000000000               0.000000000               0.000095961               0.000303147               0.000018554              -0.000001908               0.000101684               0.000099776               0.000000000               0.000000000               0.000000000               0.000000000               0.000131144               0.000411232               0.000005260              -0.000002225               0.000137818               0.000135592               0.000000000               0.000000000               0.000000000               0.000000000               0.000166984               0.000496812              -0.000004182               0.000000518               0.000165430               0.000165947               0.000000000               0.000000000               0.000000000               0.000000000               0.000191613               0.000564329              -0.000004000               0.000001314               0.000187670               0.000188984               0.000000000               0.000000000               0.000000000               0.000000000               0.000208843               0.000625408              -0.000000431               0.000000140               0.000208420               0.000208560               0.000000000               0.000000000               0.000000000               0.000000000               0.000226091               0.000685907               0.000001129              -0.000000954               0.000228952               0.000227997               0.000000000               0.000000000               0.000000000               0.000000000               0.000246920               0.000754470               0.000000978              -0.000001714               0.000252059               0.000250345               0.000000000               0.000000000               0.000000000               0.000000000               0.000268326               0.000824090               0.000000838              -0.000002389               0.000275490               0.000273101               0.000000000               0.000000000               0.000000000               0.000000000               0.000286064               0.000886806               0.000002436              -0.000003577               0.000296791               0.000293215               0.000000000               0.000000000               0.000000000               0.000000000               0.000302982               0.000951629               0.000003456              -0.000005335               0.000318985               0.000313650               0.000000000               0.000000000               0.000000000               0.000000000               0.000319450               0.001020478               0.000003983              -0.000007766               0.000342745               0.000334979               0.000000000               0.000000000               0.000000000               0.000000000               0.000333519               0.001087874               0.000004419              -0.000010915               0.000366259               0.000355345               0.000000000               0.000000000               0.000000000               0.000000000               0.000346836               0.001156744               0.000004161              -0.000014529               0.000390421               0.000375891               0.000000000               0.000000000               0.000000000               0.000000000               0.000360315               0.001226365               0.000002647              -0.000018177               0.000414843               0.000396666               0.000000000               0.000000000               0.000000000               0.000000000               0.000365197               0.001259225               0.000001081              -0.000020454               0.000426556               0.000406101               0.000000000               0.000000000               0.000000000               0.000000000               0.000037143               0.000081509               0.000016039               0.000003740               0.000025923               0.000029663               0.000000000               0.000000000               0.000000000               0.000000000               0.000066290               0.000160469               0.000019124               0.000004800               0.000051889               0.000056689               0.000000000               0.000000000               0.000000000               0.000000000               0.000099470               0.000292367               0.000016481               0.000000755               0.000097203               0.000097958               0.000000000               0.000000000               0.000000000               0.000000000               0.000131948               0.000407494               0.000007369              -0.000001456               0.000136315               0.000134859               0.000000000               0.000000000               0.000000000               0.000000000               0.000165486               0.000500341              -0.000001620              -0.000000485               0.000166940               0.000166455               0.000000000               0.000000000               0.000000000               0.000000000               0.000193686               0.000573630              -0.000003242               0.000000928               0.000190899               0.000191827               0.000000000               0.000000000               0.000000000               0.000000000               0.000213773               0.000635132              -0.000000856               0.000000773               0.000211451               0.000212224               0.000000000               0.000000000               0.000000000               0.000000000               0.000231519               0.000693818               0.000000498               0.000000092               0.000231240               0.000231332               0.000000000               0.000000000               0.000000000               0.000000000               0.000251627               0.000758797               0.000000509              -0.000000489               0.000253093               0.000252603               0.000000000               0.000000000               0.000000000               0.000000000               0.000274846               0.000830819              -0.000000428              -0.000000785               0.000277199               0.000276413               0.000000000               0.000000000               0.000000000               0.000000000               0.000295959               0.000896024              -0.000000299              -0.000001018               0.000299011               0.000297993               0.000000000               0.000000000               0.000000000               0.000000000               0.000315389               0.000957536               0.000000145              -0.000001421               0.000319649               0.000318228               0.000000000               0.000000000               0.000000000               0.000000000               0.000336038               0.001024932              -0.000000006              -0.000002102               0.000342342               0.000340239               0.000000000               0.000000000               0.000000000               0.000000000               0.000355477               0.001091965              -0.000000009              -0.000003192               0.000365048               0.000361857               0.000000000               0.000000000               0.000000000               0.000000000               0.000373738               0.001158453               0.000000140              -0.000004655               0.000387699               0.000383044               0.000000000               0.000000000               0.000000000               0.000000000               0.000392226               0.001226928               0.000000040              -0.000006281               0.000411066               0.000404785               0.000000000               0.000000000               0.000000000               0.000000000               0.000400792               0.001261028              -0.000000279              -0.000007332               0.000422782               0.000415451               0.000000000               0.000000000               0.000000000               0.000000000               0.000032063               0.000073971               0.000006881               0.000002777               0.000023731               0.000026508               0.000000000               0.000000000               0.000000000               0.000000000               0.000066295               0.000150400               0.000009384               0.000006061               0.000048113               0.000054173               0.000000000               0.000000000               0.000000000               0.000000000               0.000104384               0.000283631               0.000008918               0.000003690               0.000093313               0.000097003               0.000000000               0.000000000               0.000000000               0.000000000               0.000133906               0.000402793               0.000004462              -0.000000134               0.000134308               0.000134174               0.000000000               0.000000000               0.000000000               0.000000000               0.000163880               0.000500796              -0.000000760              -0.000001144               0.000167312               0.000166167               0.000000000               0.000000000               0.000000000               0.000000000               0.000192569               0.000579235              -0.000002154              -0.000000191               0.000193140               0.000192949               0.000000000               0.000000000               0.000000000               0.000000000               0.000214951               0.000640872              -0.000001067               0.000000498               0.000213456               0.000213954               0.000000000               0.000000000               0.000000000               0.000000000               0.000234086               0.000697692              -0.000000303               0.000000571               0.000232371               0.000232942               0.000000000               0.000000000               0.000000000               0.000000000               0.000254433               0.000759599              -0.000000107               0.000000463               0.000253043               0.000253506               0.000000000               0.000000000               0.000000000               0.000000000               0.000278230               0.000831868              -0.000000640               0.000000353               0.000277169               0.000277522               0.000000000               0.000000000               0.000000000               0.000000000               0.000301289               0.000901145              -0.000000836               0.000000340               0.000300265               0.000300605               0.000000000               0.000000000               0.000000000               0.000000000               0.000321932               0.000962840              -0.000000514               0.000000370               0.000320820               0.000321190               0.000000000               0.000000000               0.000000000               0.000000000               0.000344200               0.001029040              -0.000000587               0.000000445               0.000342862               0.000343306               0.000000000               0.000000000               0.000000000               0.000000000               0.000366879               0.001096647              -0.000000663               0.000000499               0.000365379               0.000365878               0.000000000               0.000000000               0.000000000               0.000000000               0.000388374               0.001161761              -0.000000427               0.000000420               0.000387110               0.000387530               0.000000000               0.000000000               0.000000000               0.000000000               0.000409733               0.001228216              -0.000000203               0.000000123               0.000409360               0.000409483               0.000000000               0.000000000               0.000000000               0.000000000               0.000420173               0.001262170              -0.000000244              -0.000000206               0.000420788               0.000420582               0.000000000               0.000000000               0.000000000               0.000000000               0.000030345               0.000073033               0.000000000               0.000002250               0.000023594               0.000025844               0.000000000               0.000000000               0.000000000               0.000000000               0.000065536               0.000147270               0.000000000               0.000006167               0.000047034               0.000053201               0.000000000               0.000000000               0.000000000               0.000000000               0.000106710               0.000279663               0.000000000               0.000005058               0.000091534               0.000096592               0.000000000               0.000000000               0.000000000               0.000000000               0.000134398               0.000399935               0.000000000               0.000000407               0.000133174               0.000133582               0.000000000               0.000000000               0.000000000               0.000000000               0.000162752               0.000500892               0.000000000              -0.000001579               0.000167489               0.000165910               0.000000000               0.000000000               0.000000000               0.000000000               0.000191320               0.000581045               0.000000000              -0.000000885               0.000193975               0.000193089               0.000000000               0.000000000               0.000000000               0.000000000               0.000214319               0.000642144               0.000000000               0.000000102               0.000214012               0.000214114               0.000000000               0.000000000               0.000000000               0.000000000               0.000234580               0.000698601               0.000000000               0.000000642               0.000232651               0.000233293               0.000000000               0.000000000               0.000000000               0.000000000               0.000255356               0.000759845               0.000000000               0.000000778               0.000253020               0.000253798               0.000000000               0.000000000               0.000000000               0.000000000               0.000279341               0.000832198              -0.000000000               0.000000728               0.000277154               0.000277882               0.000000000               0.000000000               0.000000000               0.000000000               0.000303083               0.000903471               0.000000000               0.000000722               0.000300913               0.000301635               0.000000000               0.000000000               0.000000000               0.000000000               0.000324002               0.000965868               0.000000000               0.000000767               0.000321697               0.000322464               0.000000000               0.000000000               0.000000000               0.000000000               0.000346486               0.001031524               0.000000000               0.000000992               0.000343507               0.000344499               0.000000000               0.000000000               0.000000000               0.000000000               0.000370263               0.001099140               0.000000000               0.000001456               0.000365891               0.000367347               0.000000000               0.000000000               0.000000000               0.000000000               0.000393087               0.001163580               0.000000000               0.000001960               0.000387203               0.000389163               0.000000000               0.000000000               0.000000000               0.000000000               0.000415748               0.001228912              -0.000000000               0.000002291               0.000408869               0.000411161               0.000000000               0.000000000               0.000000000               0.000000000               0.000427194               0.001262624              -0.000000000               0.000002370               0.000420080               0.000422450               0.000000000               0.000000000               0.000000000               0.000000000              -0.000012911              -0.000045577              -0.000000000               0.000000856              -0.000015478              -0.000014622               0.000000000               0.000000000               0.000000000               0.000000000              -0.000014487              -0.000034848              -0.000000000              -0.000001076              -0.000011257              -0.000012334               0.000000000               0.000000000               0.000000000               0.000000000              -0.000013939              -0.000035046               0.000000000              -0.000000847              -0.000011400              -0.000012246               0.000000000               0.000000000               0.000000000               0.000000000              -0.000010967              -0.000039316               0.000000000               0.000000802              -0.000013373              -0.000012571               0.000000000               0.000000000               0.000000000               0.000000000              -0.000012786              -0.000038560               0.000000000               0.000000025              -0.000012862              -0.000012836               0.000000000               0.000000000               0.000000000               0.000000000              -0.000014918              -0.000041984              -0.000000000              -0.000000346              -0.000013879              -0.000014225               0.000000000               0.000000000               0.000000000               0.000000000              -0.000014475              -0.000041635              -0.000000000              -0.000000224              -0.000013804              -0.000014028               0.000000000               0.000000000               0.000000000               0.000000000              -0.000014769              -0.000039068               0.000000000              -0.000000655              -0.000012804              -0.000013459               0.000000000               0.000000000               0.000000000               0.000000000              -0.000016081              -0.000034425               0.000000000              -0.000001727              -0.000010899              -0.000012626               0.000000000               0.000000000               0.000000000               0.000000000              -0.000017966              -0.000028934               0.000000000              -0.000003120              -0.000008605              -0.000011725               0.000000000               0.000000000               0.000000000               0.000000000              -0.000018359              -0.000024660               0.000000000              -0.000003802              -0.000006952              -0.000010755               0.000000000               0.000000000               0.000000000               0.000000000              -0.000015781              -0.000023429               0.000000000              -0.000002989              -0.000006813              -0.000009803               0.000000000               0.000000000               0.000000000               0.000000000              -0.000010116              -0.000026045              -0.000000000              -0.000000538              -0.000008502              -0.000009040               0.000000000               0.000000000               0.000000000               0.000000000              -0.000002864              -0.000031508              -0.000000000               0.000002865              -0.000011458              -0.000008593               0.000000000               0.000000000               0.000000000               0.000000000               0.000002931              -0.000037471              -0.000000000               0.000005783              -0.000014418              -0.000008635               0.000000000               0.000000000               0.000000000               0.000000000               0.000003982              -0.000041461              -0.000000000               0.000006676              -0.000016046              -0.000009370               0.000000000               0.000000000               0.000000000               0.000000000               0.000003386              -0.000041816              -0.000000000               0.000006497              -0.000016104              -0.000009607               0.000000000               0.000000000               0.000000000               0.000000000              -0.000008472              -0.000031628               0.000003882               0.000000776              -0.000010802              -0.000010025               0.000000000               0.000000000               0.000000000               0.000000000              -0.000008196              -0.000023558               0.000000640              -0.000000129              -0.000007810              -0.000007938               0.000000000               0.000000000               0.000000000               0.000000000              -0.000008393              -0.000021132              -0.000001813              -0.000000506              -0.000006876              -0.000007381               0.000000000               0.000000000               0.000000000               0.000000000              -0.000007481              -0.000020560              -0.000001291              -0.000000236              -0.000006775              -0.000007010               0.000000000               0.000000000               0.000000000               0.000000000              -0.000006397              -0.000016625              -0.000001898              -0.000000321              -0.000005435              -0.000005756               0.000000000               0.000000000               0.000000000               0.000000000              -0.000004542              -0.000012723              -0.000002331              -0.000000113              -0.000004204              -0.000004316               0.000000000               0.000000000               0.000000000               0.000000000              -0.000003362              -0.000007735              -0.000000876              -0.000000294              -0.000002480              -0.000002774               0.000000000               0.000000000               0.000000000               0.000000000              -0.000002409              -0.000001686               0.000000215              -0.000000693              -0.000000331              -0.000001024               0.000000000               0.000000000               0.000000000               0.000000000              -0.000001019               0.000005046               0.000001647              -0.000001013               0.000002019               0.000001007               0.000000000               0.000000000               0.000000000               0.000000000               0.000000476               0.000011018               0.000002879              -0.000001199               0.000004072               0.000002873               0.000000000               0.000000000               0.000000000               0.000000000               0.000002883               0.000015394               0.000003530              -0.000000843               0.000005412               0.000004569               0.000000000               0.000000000               0.000000000               0.000000000               0.000006353               0.000017936               0.000003423               0.000000140               0.000005932               0.000006072               0.000000000               0.000000000               0.000000000               0.000000000               0.000009966               0.000019404               0.000002745               0.000001312               0.000006031               0.000007342               0.000000000               0.000000000               0.000000000               0.000000000               0.000012403               0.000021405               0.000002007               0.000001975               0.000006476               0.000008452               0.000000000               0.000000000               0.000000000               0.000000000               0.000012113               0.000025690               0.000001582               0.000001331               0.000008120               0.000009451               0.000000000               0.000000000               0.000000000               0.000000000               0.000007659               0.000033766               0.000001282              -0.000001349               0.000011705               0.000010356               0.000000000               0.000000000               0.000000000               0.000000000               0.000006196               0.000042797              -0.000000484              -0.000003026               0.000015274               0.000012248               0.000000000               0.000000000               0.000000000               0.000000000              -0.000002261              -0.000004394               0.000004876              -0.000000299              -0.000001365              -0.000001664               0.000000000               0.000000000               0.000000000               0.000000000              -0.000000490               0.000000291               0.000001892              -0.000000220               0.000000170              -0.000000050               0.000000000               0.000000000               0.000000000               0.000000000               0.000003151               0.000011766              -0.000002367              -0.000000289               0.000004018               0.000003729               0.000000000               0.000000000               0.000000000               0.000000000               0.000005759               0.000022845              -0.000001257              -0.000000696               0.000007847               0.000007151               0.000000000               0.000000000               0.000000000               0.000000000               0.000009867               0.000035461               0.000000085              -0.000000733               0.000012065               0.000011332               0.000000000               0.000000000               0.000000000               0.000000000               0.000016036               0.000051425              -0.000000496              -0.000000415               0.000017280               0.000016865               0.000000000               0.000000000               0.000000000               0.000000000               0.000020696               0.000066499               0.000000639              -0.000000551               0.000022350               0.000021799               0.000000000               0.000000000               0.000000000               0.000000000               0.000024908               0.000080813               0.000001624              -0.000000761               0.000027191               0.000026430               0.000000000               0.000000000               0.000000000               0.000000000               0.000030610               0.000092666               0.000002171              -0.000000104               0.000030923               0.000030819               0.000000000               0.000000000               0.000000000               0.000000000               0.000038051               0.000101764               0.000001914               0.000001549               0.000033405               0.000034953               0.000000000               0.000000000               0.000000000               0.000000000               0.000045411               0.000109002               0.000000642               0.000003404               0.000035199               0.000038603               0.000000000               0.000000000               0.000000000               0.000000000               0.000050667               0.000117038              -0.000001326               0.000004370               0.000037555               0.000041926               0.000000000               0.000000000               0.000000000               0.000000000               0.000051390               0.000128597              -0.000003184               0.000003196               0.000041800               0.000044996               0.000000000               0.000000000               0.000000000               0.000000000               0.000046080               0.000145370              -0.000004186              -0.000000891               0.000048753               0.000047862               0.000000000               0.000000000               0.000000000               0.000000000               0.000034825               0.000167928              -0.000003906              -0.000007931               0.000058619               0.000050688               0.000000000               0.000000000               0.000000000               0.000000000               0.000018483               0.000196302              -0.000002181              -0.000017606               0.000071302               0.000053696               0.000000000               0.000000000               0.000000000               0.000000000               0.000013741               0.000220642              -0.000003713              -0.000022427               0.000081022               0.000058595               0.000000000               0.000000000               0.000000000               0.000000000               0.000006749               0.000016326               0.000003989               0.000000490               0.000005279               0.000005769               0.000000000               0.000000000               0.000000000               0.000000000               0.000006784               0.000021246               0.000004354              -0.000000112               0.000007119               0.000007008               0.000000000               0.000000000               0.000000000               0.000000000               0.000015202               0.000044537              -0.000000670               0.000000134               0.000014801               0.000014934               0.000000000               0.000000000               0.000000000               0.000000000               0.000022341               0.000065243              -0.000000323               0.000000223               0.000021673               0.000021896               0.000000000               0.000000000               0.000000000               0.000000000               0.000028573               0.000088816               0.000002068              -0.000000387               0.000029734               0.000029347               0.000000000               0.000000000               0.000000000               0.000000000               0.000036887               0.000114516               0.000001664              -0.000000482               0.000038332               0.000037850               0.000000000               0.000000000               0.000000000               0.000000000               0.000045706               0.000139923               0.000002276              -0.000000351               0.000046757               0.000046407               0.000000000               0.000000000               0.000000000               0.000000000               0.000053185               0.000161944               0.000001973              -0.000000299               0.000054080               0.000053782               0.000000000               0.000000000               0.000000000               0.000000000               0.000062038               0.000180291               0.000000027               0.000000728               0.000059854               0.000060582               0.000000000               0.000000000               0.000000000               0.000000000               0.000071558               0.000195993              -0.000003386               0.000002335               0.000064552               0.000066887               0.000000000               0.000000000               0.000000000               0.000000000               0.000078219               0.000211486              -0.000007792               0.000002897               0.000069529               0.000072426               0.000000000               0.000000000               0.000000000               0.000000000               0.000080046               0.000230336              -0.000011877               0.000001225               0.000076370               0.000077595               0.000000000               0.000000000               0.000000000               0.000000000               0.000075509               0.000254540              -0.000014593              -0.000003502               0.000086013               0.000082511               0.000000000               0.000000000               0.000000000               0.000000000               0.000064087               0.000284606              -0.000015155              -0.000011543               0.000098715               0.000087172               0.000000000               0.000000000               0.000000000               0.000000000               0.000046575               0.000320087              -0.000013017              -0.000022545               0.000114210               0.000091665               0.000000000               0.000000000               0.000000000               0.000000000               0.000024276               0.000359845              -0.000007759              -0.000035877               0.000131906               0.000096029               0.000000000               0.000000000               0.000000000               0.000000000               0.000018073               0.000391141              -0.000007725              -0.000042115               0.000144418               0.000102302               0.000000000               0.000000000               0.000000000               0.000000000               0.000016815               0.000035143              -0.000001365               0.000001913               0.000011077               0.000012989               0.000000000               0.000000000               0.000000000               0.000000000               0.000015651               0.000043623               0.000003706               0.000000416               0.000014402               0.000014818               0.000000000               0.000000000               0.000000000               0.000000000               0.000028389               0.000078921               0.000000565               0.000000781               0.000026046               0.000026827               0.000000000               0.000000000               0.000000000               0.000000000               0.000040775               0.000111095               0.000000029               0.000001404               0.000036563               0.000037967               0.000000000               0.000000000               0.000000000               0.000000000               0.000049095               0.000144638               0.000003270               0.000000331               0.000048102               0.000048433               0.000000000               0.000000000               0.000000000               0.000000000               0.000059717               0.000179002               0.000002931               0.000000018               0.000059661               0.000059679               0.000000000               0.000000000               0.000000000               0.000000000               0.000071877               0.000211439               0.000002057               0.000000524               0.000070304               0.000070828               0.000000000               0.000000000               0.000000000               0.000000000               0.000082043               0.000239292              -0.000000509               0.000000855               0.000079479               0.000080333               0.000000000               0.000000000               0.000000000               0.000000000               0.000091821               0.000264244              -0.000005552               0.000001402               0.000087613               0.000089015               0.000000000               0.000000000               0.000000000               0.000000000               0.000099445               0.000289226              -0.000012133               0.000001139               0.000096028               0.000097167               0.000000000               0.000000000               0.000000000               0.000000000               0.000101382               0.000317499              -0.000018582              -0.000001669               0.000106388               0.000104719               0.000000000               0.000000000               0.000000000               0.000000000               0.000096326               0.000350669              -0.000023467              -0.000007711               0.000119459               0.000111748               0.000000000               0.000000000               0.000000000               0.000000000               0.000084620               0.000388858              -0.000025728              -0.000016875               0.000135243               0.000118368               0.000000000               0.000000000               0.000000000               0.000000000               0.000067414               0.000430911              -0.000024648              -0.000028584               0.000153163               0.000124580               0.000000000               0.000000000               0.000000000               0.000000000               0.000046478               0.000475008              -0.000019966              -0.000041947               0.000172317               0.000130370               0.000000000               0.000000000               0.000000000               0.000000000               0.000023478               0.000519204              -0.000011518              -0.000056096               0.000191765               0.000135669               0.000000000               0.000000000               0.000000000               0.000000000               0.000017939               0.000551299              -0.000009962              -0.000062185               0.000204493               0.000142308               0.000000000               0.000000000               0.000000000               0.000000000               0.000024881               0.000063590              -0.000007488               0.000001381               0.000020736               0.000022117               0.000000000               0.000000000               0.000000000               0.000000000               0.000024768               0.000080158               0.000003261              -0.000000732               0.000026963               0.000026231               0.000000000               0.000000000               0.000000000               0.000000000               0.000043335               0.000127031               0.000003972               0.000000372               0.000042219               0.000042591               0.000000000               0.000000000               0.000000000               0.000000000               0.000061990               0.000171853               0.000000778               0.000001765               0.000056695               0.000058460               0.000000000               0.000000000               0.000000000               0.000000000               0.000071525               0.000214531               0.000003367               0.000000005               0.000071508               0.000071513               0.000000000               0.000000000               0.000000000               0.000000000               0.000083836               0.000256030               0.000001580              -0.000000565               0.000085531               0.000084966               0.000000000               0.000000000               0.000000000               0.000000000               0.000098974               0.000294379              -0.000001492               0.000000318               0.000098019               0.000098337               0.000000000               0.000000000               0.000000000               0.000000000               0.000111111               0.000329004              -0.000006753               0.000000541               0.000109487               0.000110028               0.000000000               0.000000000               0.000000000               0.000000000               0.000119363               0.000362098              -0.000014750              -0.000000501               0.000120865               0.000120364               0.000000000               0.000000000               0.000000000               0.000000000               0.000123423               0.000398786              -0.000022958              -0.000003565               0.000134115               0.000130551               0.000000000               0.000000000               0.000000000               0.000000000               0.000119495               0.000440575              -0.000029808              -0.000010261               0.000150277               0.000140016               0.000000000               0.000000000               0.000000000               0.000000000               0.000107663               0.000487288              -0.000033837              -0.000020538               0.000169274               0.000148736               0.000000000               0.000000000               0.000000000               0.000000000               0.000090192               0.000537676              -0.000034142              -0.000033387               0.000190353               0.000156965               0.000000000               0.000000000               0.000000000               0.000000000               0.000069043               0.000588936              -0.000030673              -0.000047726               0.000212218               0.000164493               0.000000000               0.000000000               0.000000000               0.000000000               0.000046062               0.000638384              -0.000023647              -0.000062525               0.000233634               0.000171110               0.000000000               0.000000000               0.000000000               0.000000000               0.000022783               0.000684169              -0.000013160              -0.000076977               0.000253713               0.000176736               0.000000000               0.000000000               0.000000000               0.000000000               0.000017215               0.000715206              -0.000010501              -0.000082945               0.000266048               0.000183103               0.000000000               0.000000000               0.000000000               0.000000000               0.000034628               0.000090493              -0.000013481               0.000001674               0.000029606               0.000031280               0.000000000               0.000000000               0.000000000               0.000000000               0.000036134               0.000118174               0.000000393              -0.000001222               0.000039798               0.000038577               0.000000000               0.000000000               0.000000000               0.000000000               0.000060708               0.000179085               0.000004464               0.000000380               0.000059568               0.000059948               0.000000000               0.000000000               0.000000000               0.000000000               0.000085331               0.000234444               0.000000132               0.000002693               0.000077249               0.000079943               0.000000000               0.000000000               0.000000000               0.000000000               0.000095625               0.000285262               0.000001106               0.000000202               0.000095019               0.000095221               0.000000000               0.000000000               0.000000000               0.000000000               0.000108955               0.000334040              -0.000001790              -0.000000897               0.000111645               0.000110748               0.000000000               0.000000000               0.000000000               0.000000000               0.000125594               0.000380088              -0.000006664              -0.000000413               0.000126833               0.000126419               0.000000000               0.000000000               0.000000000               0.000000000               0.000136900               0.000423046              -0.000014136              -0.000001543               0.000141528               0.000139985               0.000000000               0.000000000               0.000000000               0.000000000               0.000142212               0.000467644              -0.000023571              -0.000005126               0.000157589               0.000152462               0.000000000               0.000000000               0.000000000               0.000000000               0.000141187               0.000517376              -0.000031717              -0.000011727               0.000176366               0.000164639               0.000000000               0.000000000               0.000000000               0.000000000               0.000131033               0.000572255              -0.000037154              -0.000022395               0.000198215               0.000175820               0.000000000               0.000000000               0.000000000               0.000000000               0.000114374               0.000630722              -0.000038743              -0.000035950               0.000222222               0.000186272               0.000000000               0.000000000               0.000000000               0.000000000               0.000093513               0.000690013              -0.000036348              -0.000051184               0.000247064               0.000195879               0.000000000               0.000000000               0.000000000               0.000000000               0.000070224               0.000746926              -0.000030755              -0.000067032               0.000271317               0.000204285               0.000000000               0.000000000               0.000000000               0.000000000               0.000046107               0.000799665              -0.000022472              -0.000082668               0.000294108               0.000211441               0.000000000               0.000000000               0.000000000               0.000000000               0.000022663               0.000846506              -0.000012096              -0.000097315               0.000314604               0.000217290               0.000000000               0.000000000               0.000000000               0.000000000               0.000016606               0.000876867              -0.000009664              -0.000103381               0.000326747               0.000223366               0.000000000               0.000000000               0.000000000               0.000000000               0.000042273               0.000110186              -0.000019541               0.000002079               0.000036035               0.000038114               0.000000000               0.000000000               0.000000000               0.000000000               0.000047380               0.000151602              -0.000003721              -0.000001183               0.000050928               0.000049745               0.000000000               0.000000000               0.000000000               0.000000000               0.000078343               0.000228437               0.000004727               0.000000824               0.000075870               0.000076694               0.000000000               0.000000000               0.000000000               0.000000000               0.000105747               0.000290416               0.000001148               0.000003353               0.000095687               0.000099040               0.000000000               0.000000000               0.000000000               0.000000000               0.000116547               0.000349067              -0.000000129               0.000000072               0.000116331               0.000116402               0.000000000               0.000000000               0.000000000               0.000000000               0.000132169               0.000405149              -0.000003742              -0.000001080               0.000135408               0.000134328               0.000000000               0.000000000               0.000000000               0.000000000               0.000149451               0.000460020              -0.000010390              -0.000001458               0.000153825               0.000152366               0.000000000               0.000000000               0.000000000               0.000000000               0.000158742               0.000513870              -0.000019281              -0.000004705               0.000172857               0.000168151               0.000000000               0.000000000               0.000000000               0.000000000               0.000160457               0.000571384              -0.000028592              -0.000011252               0.000194210               0.000182958               0.000000000               0.000000000               0.000000000               0.000000000               0.000154101               0.000635449              -0.000035607              -0.000021643               0.000219029               0.000197385               0.000000000               0.000000000               0.000000000               0.000000000               0.000139339               0.000702987              -0.000038649              -0.000035621               0.000246200               0.000210579               0.000000000               0.000000000               0.000000000               0.000000000               0.000119183               0.000772133              -0.000037562              -0.000051823               0.000274650               0.000222827               0.000000000               0.000000000               0.000000000               0.000000000               0.000096065               0.000839468              -0.000032947              -0.000068909               0.000302790               0.000233881               0.000000000               0.000000000               0.000000000               0.000000000               0.000071367               0.000903385              -0.000025955              -0.000086160               0.000329845               0.000243685               0.000000000               0.000000000               0.000000000               0.000000000               0.000046789               0.000962498              -0.000017564              -0.000102766               0.000355085               0.000252319               0.000000000               0.000000000               0.000000000               0.000000000               0.000023253               0.001015223              -0.000008956              -0.000118183               0.000377799               0.000259616               0.000000000               0.000000000               0.000000000               0.000000000               0.000015752               0.001048368              -0.000007556              -0.000125139               0.000391165               0.000266027               0.000000000               0.000000000               0.000000000               0.000000000               0.000045474               0.000127324              -0.000023899               0.000001137               0.000042062               0.000043199               0.000000000               0.000000000               0.000000000               0.000000000               0.000052384               0.000181441              -0.000007297              -0.000003036               0.000061492               0.000058456               0.000000000               0.000000000               0.000000000               0.000000000               0.000087973               0.000268494               0.000005578              -0.000000572               0.000089688               0.000089116               0.000000000               0.000000000               0.000000000               0.000000000               0.000119982               0.000336758               0.000003585               0.000002899               0.000111285               0.000114184               0.000000000               0.000000000               0.000000000               0.000000000               0.000131452               0.000401847              -0.000000039              -0.000000936               0.000134260               0.000133323               0.000000000               0.000000000               0.000000000               0.000000000               0.000148205               0.000463483              -0.000004147              -0.000002359               0.000155279               0.000152921               0.000000000               0.000000000               0.000000000               0.000000000               0.000165960               0.000525482              -0.000010061              -0.000003450               0.000176309               0.000172859               0.000000000               0.000000000               0.000000000               0.000000000               0.000173931               0.000586970              -0.000018992              -0.000008147               0.000198370               0.000190223               0.000000000               0.000000000               0.000000000               0.000000000               0.000174907               0.000654395              -0.000026987              -0.000016209               0.000223532               0.000207323               0.000000000               0.000000000               0.000000000               0.000000000               0.000167390               0.000728055              -0.000032478              -0.000028236               0.000252094               0.000223859               0.000000000               0.000000000               0.000000000               0.000000000               0.000153047               0.000805137              -0.000034570              -0.000043250               0.000282793               0.000239543               0.000000000               0.000000000               0.000000000               0.000000000               0.000134681               0.000882445              -0.000032195              -0.000059800               0.000314079               0.000254279               0.000000000               0.000000000               0.000000000               0.000000000               0.000113689               0.000957892              -0.000026792              -0.000077103               0.000344995               0.000267892               0.000000000               0.000000000               0.000000000               0.000000000               0.000091101               0.001029716              -0.000019106              -0.000094552               0.000374752               0.000280201               0.000000000               0.000000000               0.000000000               0.000000000               0.000069210               0.001097730              -0.000010809              -0.000111262               0.000402994               0.000291732               0.000000000               0.000000000               0.000000000               0.000000000               0.000049385               0.001160082              -0.000003301              -0.000126490               0.000428854               0.000302363               0.000000000               0.000000000               0.000000000               0.000000000               0.000038554               0.001193485              -0.000000702              -0.000134727               0.000442734               0.000308006               0.000000000               0.000000000               0.000000000               0.000000000               0.000051509               0.000133032              -0.000027896               0.000002687               0.000043448               0.000046135               0.000000000               0.000000000               0.000000000               0.000000000               0.000055444               0.000194629              -0.000013305              -0.000003537               0.000066055               0.000062518               0.000000000               0.000000000               0.000000000               0.000000000               0.000090922               0.000293258               0.000002153              -0.000002562               0.000098606               0.000096044               0.000000000               0.000000000               0.000000000               0.000000000               0.000130606               0.000368853               0.000004423               0.000002871               0.000121993               0.000124863               0.000000000               0.000000000               0.000000000               0.000000000               0.000145842               0.000434576              -0.000000350               0.000000369               0.000144734               0.000145103               0.000000000               0.000000000               0.000000000               0.000000000               0.000159831               0.000499223              -0.000005567              -0.000002466               0.000167228               0.000164762               0.000000000               0.000000000               0.000000000               0.000000000               0.000179282               0.000564495              -0.000009637              -0.000003331               0.000189273               0.000185942               0.000000000               0.000000000               0.000000000               0.000000000               0.000191444               0.000628782              -0.000016548              -0.000006806               0.000211861               0.000205054               0.000000000               0.000000000               0.000000000               0.000000000               0.000196055               0.000694766              -0.000023953              -0.000013325               0.000236028               0.000222703               0.000000000               0.000000000               0.000000000               0.000000000               0.000194218               0.000765898              -0.000029141              -0.000022905               0.000262932               0.000240026               0.000000000               0.000000000               0.000000000               0.000000000               0.000185494               0.000840875              -0.000032186              -0.000035549               0.000292139               0.000256589               0.000000000               0.000000000               0.000000000               0.000000000               0.000172038               0.000916771              -0.000031620              -0.000050082               0.000322281               0.000272199               0.000000000               0.000000000               0.000000000               0.000000000               0.000156125               0.000993548              -0.000027479              -0.000065646               0.000353061               0.000287415               0.000000000               0.000000000               0.000000000               0.000000000               0.000138250               0.001069109              -0.000020828              -0.000081795               0.000383631               0.000301836               0.000000000               0.000000000               0.000000000               0.000000000               0.000119850               0.001143720              -0.000012809              -0.000098021               0.000413910               0.000315889               0.000000000               0.000000000               0.000000000               0.000000000               0.000103568               0.001218345              -0.000004963              -0.000113455               0.000443929               0.000330474               0.000000000               0.000000000               0.000000000               0.000000000               0.000089802               0.001252949               0.000001215              -0.000122943               0.000458626               0.000335684               0.000000000               0.000000000               0.000000000               0.000000000               0.000056804               0.000130015              -0.000030683               0.000005050               0.000041655               0.000046704               0.000000000               0.000000000               0.000000000               0.000000000               0.000059522               0.000196808              -0.000018925              -0.000002280               0.000066362               0.000064082               0.000000000               0.000000000               0.000000000               0.000000000               0.000090967               0.000307274              -0.000003009              -0.000004297               0.000103856               0.000099559               0.000000000               0.000000000               0.000000000               0.000000000               0.000134568               0.000387993               0.000004725               0.000001964               0.000128675               0.000130639               0.000000000               0.000000000               0.000000000               0.000000000               0.000156892               0.000454411               0.000002844               0.000002033               0.000150791               0.000152824               0.000000000               0.000000000               0.000000000               0.000000000               0.000167818               0.000517705              -0.000003040              -0.000001781               0.000173160               0.000171379               0.000000000               0.000000000               0.000000000               0.000000000               0.000186199               0.000582242              -0.000006314              -0.000002956               0.000195064               0.000192108               0.000000000               0.000000000               0.000000000               0.000000000               0.000203779               0.000649449              -0.000009847              -0.000004764               0.000218069               0.000213305               0.000000000               0.000000000               0.000000000               0.000000000               0.000213994               0.000713000              -0.000015762              -0.000008877               0.000240623               0.000231746               0.000000000               0.000000000               0.000000000               0.000000000               0.000219413               0.000780224              -0.000021377              -0.000015248               0.000265155               0.000249906               0.000000000               0.000000000               0.000000000               0.000000000               0.000219944               0.000851917              -0.000024975              -0.000024011               0.000291973               0.000267962               0.000000000               0.000000000               0.000000000               0.000000000               0.000214980               0.000924748              -0.000027099              -0.000034976               0.000319905               0.000284929               0.000000000               0.000000000               0.000000000               0.000000000               0.000207000               0.000999109              -0.000025912              -0.000047263               0.000348788               0.000301524               0.000000000               0.000000000               0.000000000               0.000000000               0.000197138               0.001074076              -0.000021801              -0.000060332               0.000378132               0.000317800               0.000000000               0.000000000               0.000000000               0.000000000               0.000185088               0.001148055              -0.000015248              -0.000074099               0.000407381               0.000333282               0.000000000               0.000000000               0.000000000               0.000000000               0.000171967               0.001222148              -0.000007655              -0.000088281               0.000436806               0.000348525               0.000000000               0.000000000               0.000000000               0.000000000               0.000156746               0.001252304              -0.000000123              -0.000097758               0.000450017               0.000352259               0.000000000               0.000000000               0.000000000               0.000000000               0.000052213               0.000119207              -0.000031012               0.000004679               0.000038176               0.000042855               0.000000000               0.000000000               0.000000000               0.000000000               0.000060261               0.000193735              -0.000023949              -0.000001619               0.000065118               0.000063498               0.000000000               0.000000000               0.000000000               0.000000000               0.000090831               0.000314866              -0.000009903              -0.000005297               0.000106720               0.000101423               0.000000000               0.000000000               0.000000000               0.000000000               0.000134364               0.000402462               0.000002499               0.000000079               0.000134126               0.000134205               0.000000000               0.000000000               0.000000000               0.000000000               0.000164505               0.000473455               0.000005163               0.000002507               0.000156981               0.000159488               0.000000000               0.000000000               0.000000000               0.000000000               0.000177883               0.000536241               0.000000109              -0.000000324               0.000178853               0.000178529               0.000000000               0.000000000               0.000000000               0.000000000               0.000192841               0.000598486              -0.000003921              -0.000002495               0.000200325               0.000197830               0.000000000               0.000000000               0.000000000               0.000000000               0.000212595               0.000666039              -0.000005340              -0.000003532               0.000223188               0.000219656               0.000000000               0.000000000               0.000000000               0.000000000               0.000229182               0.000732380              -0.000008289              -0.000005604               0.000245992               0.000240388               0.000000000               0.000000000               0.000000000               0.000000000               0.000240164               0.000796020              -0.000013127              -0.000009441               0.000268484               0.000259043               0.000000000               0.000000000               0.000000000               0.000000000               0.000248222               0.000863941              -0.000016604              -0.000014910               0.000292947               0.000278038               0.000000000               0.000000000               0.000000000               0.000000000               0.000252553               0.000934835              -0.000019209              -0.000022147               0.000318991               0.000296844               0.000000000               0.000000000               0.000000000               0.000000000               0.000252782               0.001005928              -0.000020383              -0.000030948               0.000345622               0.000314674               0.000000000               0.000000000               0.000000000               0.000000000               0.000251078               0.001078461              -0.000019074              -0.000040653               0.000373034               0.000332381               0.000000000               0.000000000               0.000000000               0.000000000               0.000247758               0.001151379              -0.000015102              -0.000051013               0.000400793               0.000349781               0.000000000               0.000000000               0.000000000               0.000000000               0.000241982               0.001223776              -0.000008797              -0.000062229               0.000428664               0.000366435               0.000000000               0.000000000               0.000000000               0.000000000               0.000230706               0.001253395              -0.000002349              -0.000070159               0.000441180               0.000371021               0.000000000               0.000000000               0.000000000               0.000000000               0.000046676               0.000103654              -0.000026396               0.000004547               0.000033036               0.000037582               0.000000000               0.000000000               0.000000000               0.000000000               0.000061704               0.000183714              -0.000025494               0.000000175               0.000061179               0.000061354               0.000000000               0.000000000               0.000000000               0.000000000               0.000092565               0.000311970              -0.000016137              -0.000004284               0.000105417               0.000101133               0.000000000               0.000000000               0.000000000               0.000000000               0.000132648               0.000409852              -0.000001481              -0.000001488               0.000137112               0.000135624               0.000000000               0.000000000               0.000000000               0.000000000               0.000168273               0.000488107               0.000005205               0.000002089               0.000162004               0.000164093               0.000000000               0.000000000               0.000000000               0.000000000               0.000187319               0.000552594               0.000002594               0.000001170               0.000183806               0.000184976               0.000000000               0.000000000               0.000000000               0.000000000               0.000202216               0.000613610              -0.000001726              -0.000000870               0.000204825               0.000203955               0.000000000               0.000000000               0.000000000               0.000000000               0.000220470               0.000677453              -0.000003023              -0.000002005               0.000226484               0.000224479               0.000000000               0.000000000               0.000000000               0.000000000               0.000241058               0.000746766              -0.000003360              -0.000002949               0.000249903               0.000246954               0.000000000               0.000000000               0.000000000               0.000000000               0.000257650               0.000811609              -0.000005536              -0.000004832               0.000272144               0.000267312               0.000000000               0.000000000               0.000000000               0.000000000               0.000270795               0.000875475              -0.000008468              -0.000007886               0.000294451               0.000286564               0.000000000               0.000000000               0.000000000               0.000000000               0.000282593               0.000944052              -0.000010158              -0.000012034               0.000318692               0.000306658               0.000000000               0.000000000               0.000000000               0.000000000               0.000291528               0.001013635              -0.000011584              -0.000017381               0.000343669               0.000326287               0.000000000               0.000000000               0.000000000               0.000000000               0.000297872               0.001083194              -0.000011928              -0.000023697               0.000368960               0.000345263               0.000000000               0.000000000               0.000000000               0.000000000               0.000303515               0.001154459              -0.000010368              -0.000030489               0.000394979               0.000364490               0.000000000               0.000000000               0.000000000               0.000000000               0.000308148               0.001225122              -0.000006451              -0.000037585               0.000420898               0.000383313               0.000000000               0.000000000               0.000000000               0.000000000               0.000305541               0.001256055              -0.000002503              -0.000042429               0.000432824               0.000390395               0.000000000               0.000000000               0.000000000               0.000000000               0.000043214               0.000091828              -0.000021243               0.000004727               0.000029034               0.000033760               0.000000000               0.000000000               0.000000000               0.000000000               0.000064827               0.000172282              -0.000023704               0.000002775               0.000056502               0.000059277               0.000000000               0.000000000               0.000000000               0.000000000               0.000095961               0.000303147              -0.000018554              -0.000001908               0.000101684               0.000099776               0.000000000               0.000000000               0.000000000               0.000000000               0.000131144               0.000411232              -0.000005260              -0.000002225               0.000137818               0.000135592               0.000000000               0.000000000               0.000000000               0.000000000               0.000166984               0.000496812               0.000004182               0.000000518               0.000165430               0.000165947               0.000000000               0.000000000               0.000000000               0.000000000               0.000191613               0.000564329               0.000004000               0.000001314               0.000187670               0.000188984               0.000000000               0.000000000               0.000000000               0.000000000               0.000208843               0.000625408               0.000000431               0.000000140               0.000208420               0.000208560               0.000000000               0.000000000               0.000000000               0.000000000               0.000226091               0.000685907              -0.000001129              -0.000000954               0.000228952               0.000227997               0.000000000               0.000000000               0.000000000               0.000000000               0.000246920               0.000754470              -0.000000978              -0.000001714               0.000252059               0.000250345               0.000000000               0.000000000               0.000000000               0.000000000               0.000268326               0.000824090              -0.000000838              -0.000002389               0.000275490               0.000273101               0.000000000               0.000000000               0.000000000               0.000000000               0.000286064               0.000886806              -0.000002436              -0.000003577               0.000296791               0.000293215               0.000000000               0.000000000               0.000000000               0.000000000               0.000302982               0.000951629              -0.000003456              -0.000005335               0.000318985               0.000313650               0.000000000               0.000000000               0.000000000               0.000000000               0.000319450               0.001020478              -0.000003983              -0.000007766               0.000342745               0.000334979               0.000000000               0.000000000               0.000000000               0.000000000               0.000333519               0.001087874              -0.000004419              -0.000010915               0.000366259               0.000355345               0.000000000               0.000000000               0.000000000               0.000000000               0.000346836               0.001156744              -0.000004161              -0.000014529               0.000390421               0.000375891               0.000000000               0.000000000               0.000000000               0.000000000               0.000360315               0.001226365              -0.000002647              -0.000018177               0.000414843               0.000396666               0.000000000               0.000000000               0.000000000               0.000000000               0.000365197               0.001259225              -0.000001081              -0.000020454               0.000426556               0.000406101               0.000000000               0.000000000               0.000000000               0.000000000               0.000037143               0.000081509              -0.000016039               0.000003740               0.000025923               0.000029663               0.000000000               0.000000000               0.000000000               0.000000000               0.000066290               0.000160469              -0.000019124               0.000004800               0.000051889               0.000056689               0.000000000               0.000000000               0.000000000               0.000000000               0.000099470               0.000292367              -0.000016481               0.000000755               0.000097203               0.000097958               0.000000000               0.000000000               0.000000000               0.000000000               0.000131948               0.000407494              -0.000007369              -0.000001456               0.000136315               0.000134859               0.000000000               0.000000000               0.000000000               0.000000000               0.000165486               0.000500341               0.000001620              -0.000000485               0.000166940               0.000166455               0.000000000               0.000000000               0.000000000               0.000000000               0.000193686               0.000573630               0.000003242               0.000000928               0.000190899               0.000191827               0.000000000               0.000000000               0.000000000               0.000000000               0.000213773               0.000635132               0.000000856               0.000000773               0.000211451               0.000212224               0.000000000               0.000000000               0.000000000               0.000000000               0.000231519               0.000693818              -0.000000498               0.000000092               0.000231240               0.000231332               0.000000000               0.000000000               0.000000000               0.000000000               0.000251627               0.000758797              -0.000000509              -0.000000489               0.000253093               0.000252603               0.000000000               0.000000000               0.000000000               0.000000000               0.000274846               0.000830819               0.000000428              -0.000000785               0.000277199               0.000276413               0.000000000               0.000000000               0.000000000               0.000000000               0.000295959               0.000896024               0.000000299              -0.000001018               0.000299011               0.000297993               0.000000000               0.000000000               0.000000000               0.000000000               0.000315389               0.000957536              -0.000000145              -0.000001421               0.000319649               0.000318228               0.000000000               0.000000000               0.000000000               0.000000000               0.000336038               0.001024932               0.000000006              -0.000002102               0.000342342               0.000340239               0.000000000               0.000000000               0.000000000               0.000000000               0.000355477               0.001091965               0.000000009              -0.000003192               0.000365048               0.000361857               0.000000000               0.000000000               0.000000000               0.000000000               0.000373738               0.001158453              -0.000000140              -0.000004655               0.000387699               0.000383044               0.000000000               0.000000000               0.000000000               0.000000000               0.000392226               0.001226928              -0.000000040              -0.000006281               0.000411066               0.000404785               0.000000000               0.000000000               0.000000000               0.000000000               0.000400792               0.001261028               0.000000279              -0.000007332               0.000422782               0.000415451               0.000000000               0.000000000               0.000000000               0.000000000               0.000032063               0.000073971              -0.000006881               0.000002777               0.000023731               0.000026508               0.000000000               0.000000000               0.000000000               0.000000000               0.000066295               0.000150400              -0.000009384               0.000006061               0.000048113               0.000054173               0.000000000               0.000000000               0.000000000               0.000000000               0.000104384               0.000283631              -0.000008918               0.000003690               0.000093313               0.000097003               0.000000000               0.000000000               0.000000000               0.000000000               0.000133906               0.000402793              -0.000004462              -0.000000134               0.000134308               0.000134174               0.000000000               0.000000000               0.000000000               0.000000000               0.000163880               0.000500796               0.000000760              -0.000001144               0.000167312               0.000166167               0.000000000               0.000000000               0.000000000               0.000000000               0.000192569               0.000579235               0.000002154              -0.000000191               0.000193140               0.000192949               0.000000000               0.000000000               0.000000000               0.000000000               0.000214951               0.000640872               0.000001067               0.000000498               0.000213456               0.000213954               0.000000000               0.000000000               0.000000000               0.000000000               0.000234086               0.000697692               0.000000303               0.000000571               0.000232371               0.000232942               0.000000000               0.000000000               0.000000000               0.000000000               0.000254433               0.000759599               0.000000107               0.000000463               0.000253043               0.000253506               0.000000000               0.000000000               0.000000000               0.000000000               0.000278230               0.000831868               0.000000640               0.000000353               0.000277169               0.000277522               0.000000000               0.000000000               0.000000000               0.000000000               0.000301289               0.000901145               0.000000836               0.000000340               0.000300265               0.000300605               0.000000000               0.000000000               0.000000000               0.000000000               0.000321932               0.000962840               0.000000514               0.000000370               0.000320820               0.000321190               0.000000000               0.000000000               0.000000000               0.000000000               0.000344200               0.001029040               0.000000587               0.000000445               0.000342862               0.000343306               0.000000000               0.000000000               0.000000000               0.000000000               0.000366879               0.001096647               0.000000663               0.000000499               0.000365379               0.000365878               0.000000000               0.000000000               0.000000000               0.000000000               0.000388374               0.001161761               0.000000427               0.000000420               0.000387110               0.000387530               0.000000000               0.000000000               0.000000000               0.000000000               0.000409733               0.001228216               0.000000203               0.000000123               0.000409360               0.000409483               0.000000000               0.000000000               0.000000000               0.000000000               0.000420173               0.001262170               0.000000244              -0.000000206               0.000420788               0.000420582               0.000000000               0.000000000               0.000000000               0.000000000               0.000000000               0.000000000               0.000000000               0.000000000               0.000000000               0.000000000               0.000000000               0.000000000               0.000000000               0.000000000               0.000000000               0.000000000               0.000000000               0.000000000               0.000000000               0.000000000               0.000000000               0.000000000               0.000000000               0.000000000               0.000000000               0.000000000               0.000000000               0.000000000               0.000000000               0.000000000               0.000000000               0.000000000               0.000000000               0.000000000               0.000000000               0.000000000               0.000000000               0.000000000               0.000000000               0.000000000               0.000000000               0.000000000               0.000000000               0.000000000               0.000000000               0.000000000               0.000000000               0.000000000               0.000000000               0.000000000               0.000000000               0.000000000               0.000000000               0.000000000               0.000000000               0.000000000               0.000000000               0.000000000               0.000000000               0.000000000               0.000000000               0.000000000               0.000000000               0.000000000               0.000000000               0.000000000               0.000000000               0.000000000               0.000000000               0.000000000               0.000000000               0.000000000               0.000000000               0.000000000               0.000000000               0.000000000               0.000000000               0.000000000               0.000000000               0.000000000               0.000000000               0.000000000               0.000000000               0.000000000               0.000000000               0.000000000               0.000000000               0.000000000               0.000000000               0.000000000               0.000000000               0.000000000               0.000000000               0.000000000               0.000000000               0.000000000               0.000000000               0.000000000               0.000000000               0.000000000               0.000000000               0.000000000               0.000000000               0.000000000               0.000000000               0.000000000               0.000000000               0.000000000               0.000000000               0.000000000               0.000000000               0.000000000               0.000000000               0.000000000               0.000000000               0.000000000               0.000000000               0.000000000               0.000000000               0.000000000               0.000000000               0.000000000               0.000000000               0.000000000               0.000000000               0.000000000               0.000000000               0.000000000               0.000000000               0.000000000               0.000000000               0.000000000               0.000000000               0.000000000               0.000000000               0.000000000               0.000000000               0.000000000               0.000000000               0.000000000               0.000000000               0.000000000               0.000000000               0.000000000               0.000000000               0.000000000               0.000000000               0.000000000               0.000000000               0.000000000               0.000000000               0.000000000               0.000000000               0.000000000               0.000000000               0.000000000               0.000000000               0.000000000               0.000000000               0.000000000               0.000000000               0.000000000               0.000000000               0.000000000               0.000000000               0.000000000               0.000000000               0.000000000               0.000000000               0.000000000               0.000000000               0.000000000               0.000000000               0.000000000               0.000000000               0.000000000               0.000000000               0.000000000               0.000000000               0.000000000               0.000000000               0.000000000               0.000000000               0.000000000               0.000000000               0.000000000               0.000000000               0.000000000               0.000000000               0.000000000               0.000000000               0.000000000               0.000000000               0.000000000               0.000000000               0.000000000               0.000000000               0.000000000               0.000000000               0.000000000               0.000000000               0.000000000               0.000000000               0.000000000               0.000000000               0.000000000               0.000000000               0.000000000               0.000000000               0.000000000               0.000000000               0.000000000               0.000000000               0.000000000               0.000000000               0.000000000               0.000000000               0.000000000               0.000000000               0.000000000               0.000000000               0.000000000               0.000000000               0.000000000               0.000000000               0.000000000               0.000000000               0.000000000               0.000000000               0.000000000               0.000000000               0.000000000               0.000000000               0.000000000               0.000000000               0.000000000               0.000000000               0.000000000               0.000000000               0.000000000               0.000000000               0.000000000               0.000000000               0.000000000               0.000000000               0.000000000               0.000000000               0.000000000               0.000000000               0.000000000               0.000000000               0.000000000               0.000000000               0.000000000               0.000000000               0.000000000               0.000000000               0.000000000               0.000000000               0.000000000               0.000000000               0.000000000               0.000000000               0.000000000               0.000000000               0.000000000               0.000000000               0.000000000               0.000000000               0.000000000               0.000000000               0.000000000               0.000000000               0.000000000               0.000000000               0.000000000               0.000000000               0.000000000               0.000000000               0.000000000               0.000000000               0.000000000               0.000000000               0.000000000               0.000000000               0.000000000               0.000000000               0.000000000               0.000000000               0.000000000               0.000000000               0.000000000               0.000000000               0.000000000               0.000000000               0.000000000               0.000000000               0.000000000               0.000000000               0.000000000               0.000000000               0.000000000               0.000000000               0.000000000               0.000000000               0.000000000               0.000000000               0.000000000               0.000000000               0.000000000               0.000000000               0.000000000               0.000000000               0.000000000               0.000000000               0.000000000               0.000000000               0.000000000               0.000000000               0.000000000               0.000000000               0.000000000               0.000000000               0.000000000               0.000000000               0.000000000               0.000000000               0.000000000               0.000000000               0.000000000               0.000000000               0.000000000               0.000000000               0.000000000               0.000000000               0.000000000               0.000000000               0.000000000               0.000000000               0.000000000               0.000000000               0.000000000               0.000000000               0.000000000              -0.000008472              -0.000031628              -0.000003882               0.000000776              -0.000010802              -0.000010025               0.000000000               0.000000000               0.000000000               0.000000000              -0.000008196              -0.000023558              -0.000000640              -0.000000129              -0.000007810              -0.000007938               0.000000000               0.000000000               0.000000000               0.000000000              -0.000008393              -0.000021132               0.000001813              -0.000000506              -0.000006876              -0.000007381               0.000000000               0.000000000               0.000000000               0.000000000              -0.000007481              -0.000020560               0.000001291              -0.000000236              -0.000006775              -0.000007010               0.000000000               0.000000000               0.000000000               0.000000000              -0.000006397              -0.000016625               0.000001898              -0.000000321              -0.000005435              -0.000005756               0.000000000               0.000000000               0.000000000               0.000000000              -0.000004542              -0.000012723               0.000002331              -0.000000113              -0.000004204              -0.000004316               0.000000000               0.000000000               0.000000000               0.000000000              -0.000003362              -0.000007735               0.000000876              -0.000000294              -0.000002480              -0.000002774               0.000000000               0.000000000               0.000000000               0.000000000              -0.000002409              -0.000001686              -0.000000215              -0.000000693              -0.000000331              -0.000001024               0.000000000               0.000000000               0.000000000               0.000000000              -0.000001019               0.000005046              -0.000001647              -0.000001013               0.000002019               0.000001007               0.000000000               0.000000000               0.000000000               0.000000000               0.000000476               0.000011018              -0.000002879              -0.000001199               0.000004072               0.000002873               0.000000000               0.000000000               0.000000000               0.000000000               0.000002883               0.000015394              -0.000003530              -0.000000843               0.000005412               0.000004569               0.000000000               0.000000000               0.000000000               0.000000000               0.000006353               0.000017936              -0.000003423               0.000000140               0.000005932               0.000006072               0.000000000               0.000000000               0.000000000               0.000000000               0.000009966               0.000019404              -0.000002745               0.000001312               0.000006031               0.000007342               0.000000000               0.000000000               0.000000000               0.000000000               0.000012403               0.000021405              -0.000002007               0.000001975               0.000006476               0.000008452               0.000000000               0.000000000               0.000000000               0.000000000               0.000012113               0.000025690              -0.000001582               0.000001331               0.000008120               0.000009451               0.000000000               0.000000000               0.000000000               0.000000000               0.000007659               0.000033766              -0.000001282              -0.000001349               0.000011705               0.000010356               0.000000000               0.000000000               0.000000000               0.000000000               0.000006196               0.000042797               0.000000484              -0.000003026               0.000015274               0.000012248               0.000000000               0.000000000               0.000000000               0.000000000              -0.000002261              -0.000004394              -0.000004876              -0.000000299              -0.000001365              -0.000001664               0.000000000               0.000000000               0.000000000               0.000000000              -0.000000490               0.000000291              -0.000001892              -0.000000220               0.000000170              -0.000000050               0.000000000               0.000000000               0.000000000               0.000000000               0.000003151               0.000011766               0.000002367              -0.000000289               0.000004018               0.000003729               0.000000000               0.000000000               0.000000000               0.000000000               0.000005759               0.000022845               0.000001257              -0.000000696               0.000007847               0.000007151               0.000000000               0.000000000               0.000000000               0.000000000               0.000009867               0.000035461              -0.000000085              -0.000000733               0.000012065               0.000011332               0.000000000               0.000000000               0.000000000               0.000000000               0.000016036               0.000051425               0.000000496              -0.000000415               0.000017280               0.000016865               0.000000000               0.000000000               0.000000000               0.000000000               0.000020696               0.000066499              -0.000000639              -0.000000551               0.000022350               0.000021799               0.000000000               0.000000000               0.000000000               0.000000000               0.000024908               0.000080813              -0.000001624              -0.000000761               0.000027191               0.000026430               0.000000000               0.000000000               0.000000000               0.000000000               0.000030610               0.000092666              -0.000002171              -0.000000104               0.000030923               0.000030819               0.000000000               0.000000000               0.000000000               0.000000000               0.000038051               0.000101764              -0.000001914               0.000001549               0.000033405               0.000034953               0.000000000               0.000000000               0.000000000               0.000000000               0.000045411               0.000109002              -0.000000642               0.000003404               0.000035199               0.000038603               0.000000000               0.000000000               0.000000000               0.000000000               0.000050667               0.000117038               0.000001326               0.000004370               0.000037555               0.000041926               0.000000000               0.000000000               0.000000000               0.000000000               0.000051390               0.000128597               0.000003184               0.000003196               0.000041800               0.000044996               0.000000000               0.000000000               0.000000000               0.000000000               0.000046080               0.000145370               0.000004186              -0.000000891               0.000048753               0.000047862               0.000000000               0.000000000               0.000000000               0.000000000               0.000034825               0.000167928               0.000003906              -0.000007931               0.000058619               0.000050688               0.000000000               0.000000000               0.000000000               0.000000000               0.000018483               0.000196302               0.000002181              -0.000017606               0.000071302               0.000053696               0.000000000               0.000000000               0.000000000               0.000000000               0.000013741               0.000220642               0.000003713              -0.000022427               0.000081022               0.000058595               0.000000000               0.000000000               0.000000000               0.000000000               0.000006749               0.000016326              -0.000003989               0.000000490               0.000005279               0.000005769               0.000000000               0.000000000               0.000000000               0.000000000               0.000006784               0.000021246              -0.000004354              -0.000000112               0.000007119               0.000007008               0.000000000               0.000000000               0.000000000               0.000000000               0.000015202               0.000044537               0.000000670               0.000000134               0.000014801               0.000014934               0.000000000               0.000000000               0.000000000               0.000000000               0.000022341               0.000065243               0.000000323               0.000000223               0.000021673               0.000021896               0.000000000               0.000000000               0.000000000               0.000000000               0.000028573               0.000088816              -0.000002068              -0.000000387               0.000029734               0.000029347               0.000000000               0.000000000               0.000000000               0.000000000               0.000036887               0.000114516              -0.000001664              -0.000000482               0.000038332               0.000037850               0.000000000               0.000000000               0.000000000               0.000000000               0.000045706               0.000139923              -0.000002276              -0.000000351               0.000046757               0.000046407               0.000000000               0.000000000               0.000000000               0.000000000               0.000053185               0.000161944              -0.000001973              -0.000000299               0.000054080               0.000053782               0.000000000               0.000000000               0.000000000               0.000000000               0.000062038               0.000180291              -0.000000027               0.000000728               0.000059854               0.000060582               0.000000000               0.000000000               0.000000000               0.000000000               0.000071558               0.000195993               0.000003386               0.000002335               0.000064552               0.000066887               0.000000000               0.000000000               0.000000000               0.000000000               0.000078219               0.000211486               0.000007792               0.000002897               0.000069529               0.000072426               0.000000000               0.000000000               0.000000000               0.000000000               0.000080046               0.000230336               0.000011877               0.000001225               0.000076370               0.000077595               0.000000000               0.000000000               0.000000000               0.000000000               0.000075509               0.000254540               0.000014593              -0.000003502               0.000086013               0.000082511               0.000000000               0.000000000               0.000000000               0.000000000               0.000064087               0.000284606               0.000015155              -0.000011543               0.000098715               0.000087172               0.000000000               0.000000000               0.000000000               0.000000000               0.000046575               0.000320087               0.000013017              -0.000022545               0.000114210               0.000091665               0.000000000               0.000000000               0.000000000               0.000000000               0.000024276               0.000359845               0.000007759              -0.000035877               0.000131906               0.000096029               0.000000000               0.000000000               0.000000000               0.000000000               0.000018073               0.000391141               0.000007725              -0.000042115               0.000144418               0.000102302               0.000000000               0.000000000               0.000000000               0.000000000               0.000016815               0.000035143               0.000001365               0.000001913               0.000011077               0.000012989               0.000000000               0.000000000               0.000000000               0.000000000               0.000015651               0.000043623              -0.000003706               0.000000416               0.000014402               0.000014818               0.000000000               0.000000000               0.000000000               0.000000000               0.000028389               0.000078921              -0.000000565               0.000000781               0.000026046               0.000026827               0.000000000               0.000000000               0.000000000               0.000000000               0.000040775               0.000111095              -0.000000029               0.000001404               0.000036563               0.000037967               0.000000000               0.000000000               0.000000000               0.000000000               0.000049095               0.000144638              -0.000003270               0.000000331               0.000048102               0.000048433               0.000000000               0.000000000               0.000000000               0.000000000               0.000059717               0.000179002              -0.000002931               0.000000018               0.000059661               0.000059679               0.000000000               0.000000000               0.000000000               0.000000000               0.000071877               0.000211439              -0.000002057               0.000000524               0.000070304               0.000070828               0.000000000               0.000000000               0.000000000               0.000000000               0.000082043               0.000239292               0.000000509               0.000000855               0.000079479               0.000080333               0.000000000               0.000000000               0.000000000               0.000000000               0.000091821               0.000264244               0.000005552               0.000001402               0.000087613               0.000089015               0.000000000               0.000000000               0.000000000               0.000000000               0.000099445               0.000289226               0.000012133               0.000001139               0.000096028               0.000097167               0.000000000               0.000000000               0.000000000               0.000000000               0.000101382               0.000317499               0.000018582              -0.000001669               0.000106388               0.000104719               0.000000000               0.000000000               0.000000000               0.000000000               0.000096326               0.000350669               0.000023467              -0.000007711               0.000119459               0.000111748               0.000000000               0.000000000               0.000000000               0.000000000               0.000084620               0.000388858               0.000025728              -0.000016875               0.000135243               0.000118368               0.000000000               0.000000000               0.000000000               0.000000000               0.000067414               0.000430911               0.000024648              -0.000028584               0.000153163               0.000124580               0.000000000               0.000000000               0.000000000               0.000000000               0.000046478               0.000475008               0.000019966              -0.000041947               0.000172317               0.000130370               0.000000000               0.000000000               0.000000000               0.000000000               0.000023478               0.000519204               0.000011518              -0.000056096               0.000191765               0.000135669               0.000000000               0.000000000               0.000000000               0.000000000               0.000017939               0.000551299               0.000009962              -0.000062185               0.000204493               0.000142308               0.000000000               0.000000000               0.000000000               0.000000000               0.000024881               0.000063590               0.000007488               0.000001381               0.000020736               0.000022117               0.000000000               0.000000000               0.000000000               0.000000000               0.000024768               0.000080158              -0.000003261              -0.000000732               0.000026963               0.000026231               0.000000000               0.000000000               0.000000000               0.000000000               0.000043335               0.000127031              -0.000003972               0.000000372               0.000042219               0.000042591               0.000000000               0.000000000               0.000000000               0.000000000               0.000061990               0.000171853              -0.000000778               0.000001765               0.000056695               0.000058460               0.000000000               0.000000000               0.000000000               0.000000000               0.000071525               0.000214531              -0.000003367               0.000000005               0.000071508               0.000071513               0.000000000               0.000000000               0.000000000               0.000000000               0.000083836               0.000256030              -0.000001580              -0.000000565               0.000085531               0.000084966               0.000000000               0.000000000               0.000000000               0.000000000               0.000098974               0.000294379               0.000001492               0.000000318               0.000098019               0.000098337               0.000000000               0.000000000               0.000000000               0.000000000               0.000111111               0.000329004               0.000006753               0.000000541               0.000109487               0.000110028               0.000000000               0.000000000               0.000000000               0.000000000               0.000119363               0.000362098               0.000014750              -0.000000501               0.000120865               0.000120364               0.000000000               0.000000000               0.000000000               0.000000000               0.000123423               0.000398786               0.000022958              -0.000003565               0.000134115               0.000130551               0.000000000               0.000000000               0.000000000               0.000000000               0.000119495               0.000440575               0.000029808              -0.000010261               0.000150277               0.000140016               0.000000000               0.000000000               0.000000000               0.000000000               0.000107663               0.000487288               0.000033837              -0.000020538               0.000169274               0.000148736               0.000000000               0.000000000               0.000000000               0.000000000               0.000090192               0.000537676               0.000034142              -0.000033387               0.000190353               0.000156965               0.000000000               0.000000000               0.000000000               0.000000000               0.000069043               0.000588936               0.000030673              -0.000047726               0.000212218               0.000164493               0.000000000               0.000000000               0.000000000               0.000000000               0.000046062               0.000638384               0.000023647              -0.000062525               0.000233634               0.000171110               0.000000000               0.000000000               0.000000000               0.000000000               0.000022783               0.000684169               0.000013160              -0.000076977               0.000253713               0.000176736               0.000000000               0.000000000               0.000000000               0.000000000               0.000017215               0.000715206               0.000010501              -0.000082945               0.000266048               0.000183103               0.000000000               0.000000000               0.000000000               0.000000000               0.000034628               0.000090493               0.000013481               0.000001674               0.000029606               0.000031280               0.000000000               0.000000000               0.000000000               0.000000000               0.000036134               0.000118174              -0.000000393              -0.000001222               0.000039798               0.000038577               0.000000000               0.000000000               0.000000000               0.000000000               0.000060708               0.000179085              -0.000004464               0.000000380               0.000059568               0.000059948               0.000000000               0.000000000               0.000000000               0.000000000               0.000085331               0.000234444              -0.000000132               0.000002693               0.000077249               0.000079943               0.000000000               0.000000000               0.000000000               0.000000000               0.000095625               0.000285262              -0.000001106               0.000000202               0.000095019               0.000095221               0.000000000               0.000000000               0.000000000               0.000000000               0.000108955               0.000334040               0.000001790              -0.000000897               0.000111645               0.000110748               0.000000000               0.000000000               0.000000000               0.000000000               0.000125594               0.000380088               0.000006664              -0.000000413               0.000126833               0.000126419               0.000000000               0.000000000               0.000000000               0.000000000               0.000136900               0.000423046               0.000014136              -0.000001543               0.000141528               0.000139985               0.000000000               0.000000000               0.000000000               0.000000000               0.000142212               0.000467644               0.000023571              -0.000005126               0.000157589               0.000152462               0.000000000               0.000000000               0.000000000               0.000000000               0.000141187               0.000517376               0.000031717              -0.000011727               0.000176366               0.000164639               0.000000000               0.000000000               0.000000000               0.000000000               0.000131033               0.000572255               0.000037154              -0.000022395               0.000198215               0.000175820               0.000000000               0.000000000               0.000000000               0.000000000               0.000114374               0.000630722               0.000038743              -0.000035950               0.000222222               0.000186272               0.000000000               0.000000000               0.000000000               0.000000000               0.000093513               0.000690013               0.000036348              -0.000051184               0.000247064               0.000195879               0.000000000               0.000000000               0.000000000               0.000000000               0.000070224               0.000746926               0.000030755              -0.000067032               0.000271317               0.000204285               0.000000000               0.000000000               0.000000000               0.000000000               0.000046107               0.000799665               0.000022472              -0.000082668               0.000294108               0.000211441               0.000000000               0.000000000               0.000000000               0.000000000               0.000022663               0.000846506               0.000012096              -0.000097315               0.000314604               0.000217290               0.000000000               0.000000000               0.000000000               0.000000000               0.000016606               0.000876867               0.000009664              -0.000103381               0.000326747               0.000223366               0.000000000               0.000000000               0.000000000               0.000000000               0.000042273               0.000110186               0.000019541               0.000002079               0.000036035               0.000038114               0.000000000               0.000000000               0.000000000               0.000000000               0.000047380               0.000151602               0.000003721              -0.000001183               0.000050928               0.000049745               0.000000000               0.000000000               0.000000000               0.000000000               0.000078343               0.000228437              -0.000004727               0.000000824               0.000075870               0.000076694               0.000000000               0.000000000               0.000000000               0.000000000               0.000105747               0.000290416              -0.000001148               0.000003353               0.000095687               0.000099040               0.000000000               0.000000000               0.000000000               0.000000000               0.000116547               0.000349067               0.000000129               0.000000072               0.000116331               0.000116402               0.000000000               0.000000000               0.000000000               0.000000000               0.000132169               0.000405149               0.000003742              -0.000001080               0.000135408               0.000134328               0.000000000               0.000000000               0.000000000               0.000000000               0.000149451               0.000460020               0.000010390              -0.000001458               0.000153825               0.000152366               0.000000000               0.000000000               0.000000000               0.000000000               0.000158742               0.000513870               0.000019281              -0.000004705               0.000172857               0.000168151               0.000000000               0.000000000               0.000000000               0.000000000               0.000160457               0.000571384               0.000028592              -0.000011252               0.000194210               0.000182958               0.000000000               0.000000000               0.000000000               0.000000000               0.000154101               0.000635449               0.000035607              -0.000021643               0.000219029               0.000197385               0.000000000               0.000000000               0.000000000               0.000000000               0.000139339               0.000702987               0.000038649              -0.000035621               0.000246200               0.000210579               0.000000000               0.000000000               0.000000000               0.000000000               0.000119183               0.000772133               0.000037562              -0.000051823               0.000274650               0.000222827               0.000000000               0.000000000               0.000000000               0.000000000               0.000096065               0.000839468               0.000032947              -0.000068909               0.000302790               0.000233881               0.000000000               0.000000000               0.000000000               0.000000000               0.000071367               0.000903385               0.000025955              -0.000086160               0.000329845               0.000243685               0.000000000               0.000000000               0.000000000               0.000000000               0.000046789               0.000962498               0.000017564              -0.000102766               0.000355085               0.000252319               0.000000000               0.000000000               0.000000000               0.000000000               0.000023253               0.001015223               0.000008956              -0.000118183               0.000377799               0.000259616               0.000000000               0.000000000               0.000000000               0.000000000               0.000015752               0.001048368               0.000007556              -0.000125139               0.000391165               0.000266027               0.000000000               0.000000000               0.000000000               0.000000000               0.000045474               0.000127324               0.000023899               0.000001137               0.000042062               0.000043199               0.000000000               0.000000000               0.000000000               0.000000000               0.000052384               0.000181441               0.000007297              -0.000003036               0.000061492               0.000058456               0.000000000               0.000000000               0.000000000               0.000000000               0.000087973               0.000268494              -0.000005578              -0.000000572               0.000089688               0.000089116               0.000000000               0.000000000               0.000000000               0.000000000               0.000119982               0.000336758              -0.000003585               0.000002899               0.000111285               0.000114184               0.000000000               0.000000000               0.000000000               0.000000000               0.000131452               0.000401847               0.000000039              -0.000000936               0.000134260               0.000133323               0.000000000               0.000000000               0.000000000               0.000000000               0.000148205               0.000463483               0.000004147              -0.000002359               0.000155279               0.000152921               0.000000000               0.000000000               0.000000000               0.000000000               0.000165960               0.000525482               0.000010061              -0.000003450               0.000176309               0.000172859               0.000000000               0.000000000               0.000000000               0.000000000               0.000173931               0.000586970               0.000018992              -0.000008147               0.000198370               0.000190223               0.000000000               0.000000000               0.000000000               0.000000000               0.000174907               0.000654395               0.000026987              -0.000016209               0.000223532               0.000207323               0.000000000               0.000000000               0.000000000               0.000000000               0.000167390               0.000728055               0.000032478              -0.000028236               0.000252094               0.000223859               0.000000000               0.000000000               0.000000000               0.000000000               0.000153047               0.000805137               0.000034570              -0.000043250               0.000282793               0.000239543               0.000000000               0.000000000               0.000000000               0.000000000               0.000134681               0.000882445               0.000032195              -0.000059800               0.000314079               0.000254279               0.000000000               0.000000000               0.000000000               0.000000000               0.000113689               0.000957892               0.000026792              -0.000077103               0.000344995               0.000267892               0.000000000               0.000000000               0.000000000               0.000000000               0.000091101               0.001029716               0.000019106              -0.000094552               0.000374752               0.000280201               0.000000000               0.000000000               0.000000000               0.000000000               0.000069210               0.001097730               0.000010809              -0.000111262               0.000402994               0.000291732               0.000000000               0.000000000               0.000000000               0.000000000               0.000049385               0.001160082               0.000003301              -0.000126490               0.000428854               0.000302363               0.000000000               0.000000000               0.000000000               0.000000000               0.000038554               0.001193485               0.000000702              -0.000134727               0.000442734               0.000308006               0.000000000               0.000000000               0.000000000               0.000000000               0.000051509               0.000133032               0.000027896               0.000002687               0.000043448               0.000046135               0.000000000               0.000000000               0.000000000               0.000000000               0.000055444               0.000194629               0.000013305              -0.000003537               0.000066055               0.000062518               0.000000000               0.000000000               0.000000000               0.000000000               0.000090922               0.000293258              -0.000002153              -0.000002562               0.000098606               0.000096044               0.000000000               0.000000000               0.000000000               0.000000000               0.000130606               0.000368853              -0.000004423               0.000002871               0.000121993               0.000124863               0.000000000               0.000000000               0.000000000               0.000000000               0.000145842               0.000434576               0.000000350               0.000000369               0.000144734               0.000145103               0.000000000               0.000000000               0.000000000               0.000000000               0.000159831               0.000499223               0.000005567              -0.000002466               0.000167228               0.000164762               0.000000000               0.000000000               0.000000000               0.000000000               0.000179282               0.000564495               0.000009637              -0.000003331               0.000189273               0.000185942               0.000000000               0.000000000               0.000000000               0.000000000               0.000191444               0.000628782               0.000016548              -0.000006806               0.000211861               0.000205054               0.000000000               0.000000000               0.000000000               0.000000000               0.000196055               0.000694766               0.000023953              -0.000013325               0.000236028               0.000222703               0.000000000               0.000000000               0.000000000               0.000000000               0.000194218               0.000765898               0.000029141              -0.000022905               0.000262932               0.000240026               0.000000000               0.000000000               0.000000000               0.000000000               0.000185494               0.000840875               0.000032186              -0.000035549               0.000292139               0.000256589               0.000000000               0.000000000               0.000000000               0.000000000               0.000172038               0.000916771               0.000031620              -0.000050082               0.000322281               0.000272199               0.000000000               0.000000000               0.000000000               0.000000000               0.000156125               0.000993548               0.000027479              -0.000065646               0.000353061               0.000287415               0.000000000               0.000000000               0.000000000               0.000000000               0.000138250               0.001069109               0.000020828              -0.000081795               0.000383631               0.000301836               0.000000000               0.000000000               0.000000000               0.000000000               0.000119850               0.001143720               0.000012809              -0.000098021               0.000413910               0.000315889               0.000000000               0.000000000               0.000000000               0.000000000               0.000103568               0.001218345               0.000004963              -0.000113455               0.000443929               0.000330474               0.000000000               0.000000000               0.000000000               0.000000000               0.000089802               0.001252949              -0.000001215              -0.000122943               0.000458626               0.000335684               0.000000000               0.000000000               0.000000000               0.000000000               0.000056804               0.000130015               0.000030683               0.000005050               0.000041655               0.000046704               0.000000000               0.000000000               0.000000000               0.000000000               0.000059522               0.000196808               0.000018925              -0.000002280               0.000066362               0.000064082               0.000000000               0.000000000               0.000000000               0.000000000               0.000090967               0.000307274               0.000003009              -0.000004297               0.000103856               0.000099559               0.000000000               0.000000000               0.000000000               0.000000000               0.000134568               0.000387993              -0.000004725               0.000001964               0.000128675               0.000130639               0.000000000               0.000000000               0.000000000               0.000000000               0.000156892               0.000454411              -0.000002844               0.000002033               0.000150791               0.000152824               0.000000000               0.000000000               0.000000000               0.000000000               0.000167818               0.000517705               0.000003040              -0.000001781               0.000173160               0.000171379               0.000000000               0.000000000               0.000000000               0.000000000               0.000186199               0.000582242               0.000006314              -0.000002956               0.000195064               0.000192108               0.000000000               0.000000000               0.000000000               0.000000000               0.000203779               0.000649449               0.000009847              -0.000004764               0.000218069               0.000213305               0.000000000               0.000000000               0.000000000               0.000000000               0.000213994               0.000713000               0.000015762              -0.000008877               0.000240623               0.000231746               0.000000000               0.000000000               0.000000000               0.000000000               0.000219413               0.000780224               0.000021377              -0.000015248               0.000265155               0.000249906               0.000000000               0.000000000               0.000000000               0.000000000               0.000219944               0.000851917               0.000024975              -0.000024011               0.000291973               0.000267962               0.000000000               0.000000000               0.000000000               0.000000000               0.000214980               0.000924748               0.000027099              -0.000034976               0.000319905               0.000284929               0.000000000               0.000000000               0.000000000               0.000000000               0.000207000               0.000999109               0.000025912              -0.000047263               0.000348788               0.000301524               0.000000000               0.000000000               0.000000000               0.000000000               0.000197138               0.001074076               0.000021801              -0.000060332               0.000378132               0.000317800               0.000000000               0.000000000               0.000000000               0.000000000               0.000185088               0.001148055               0.000015248              -0.000074099               0.000407381               0.000333282               0.000000000               0.000000000               0.000000000               0.000000000               0.000171967               0.001222148               0.000007655              -0.000088281               0.000436806               0.000348525               0.000000000               0.000000000               0.000000000               0.000000000               0.000156746               0.001252304               0.000000123              -0.000097758               0.000450017               0.000352259               0.000000000               0.000000000               0.000000000               0.000000000               0.000052213               0.000119207               0.000031012               0.000004679               0.000038176               0.000042855               0.000000000               0.000000000               0.000000000               0.000000000               0.000060261               0.000193735               0.000023949              -0.000001619               0.000065118               0.000063498               0.000000000               0.000000000               0.000000000               0.000000000               0.000090831               0.000314866               0.000009903              -0.000005297               0.000106720               0.000101423               0.000000000               0.000000000               0.000000000               0.000000000               0.000134364               0.000402462              -0.000002499               0.000000079               0.000134126               0.000134205               0.000000000               0.000000000               0.000000000               0.000000000               0.000164505               0.000473455              -0.000005163               0.000002507               0.000156981               0.000159488               0.000000000               0.000000000               0.000000000               0.000000000               0.000177883               0.000536241              -0.000000109              -0.000000324               0.000178853               0.000178529               0.000000000               0.000000000               0.000000000               0.000000000               0.000192841               0.000598486               0.000003921              -0.000002495               0.000200325               0.000197830               0.000000000               0.000000000               0.000000000               0.000000000               0.000212595               0.000666039               0.000005340              -0.000003532               0.000223188               0.000219656               0.000000000               0.000000000               0.000000000               0.000000000               0.000229182               0.000732380               0.000008289              -0.000005604               0.000245992               0.000240388               0.000000000               0.000000000               0.000000000               0.000000000               0.000240164               0.000796020               0.000013127              -0.000009441               0.000268484               0.000259043               0.000000000               0.000000000               0.000000000               0.000000000               0.000248222               0.000863941               0.000016604              -0.000014910               0.000292947               0.000278038               0.000000000               0.000000000               0.000000000               0.000000000               0.000252553               0.000934835               0.000019209              -0.000022147               0.000318991               0.000296844               0.000000000               0.000000000               0.000000000               0.000000000               0.000252782               0.001005928               0.000020383              -0.000030948               0.000345622               0.000314674               0.000000000               0.000000000               0.000000000               0.000000000               0.000251078               0.001078461               0.000019074              -0.000040653               0.000373034               0.000332381               0.000000000               0.000000000               0.000000000               0.000000000               0.000247758               0.001151379               0.000015102              -0.000051013               0.000400793               0.000349781               0.000000000               0.000000000               0.000000000               0.000000000               0.000241982               0.001223776               0.000008797              -0.000062229               0.000428664               0.000366435               0.000000000               0.000000000               0.000000000               0.000000000               0.000230706               0.001253395               0.000002349              -0.000070159               0.000441180               0.000371021               0.000000000               0.000000000               0.000000000               0.000000000               0.000046676               0.000103654               0.000026396               0.000004547               0.000033036               0.000037582               0.000000000               0.000000000               0.000000000               0.000000000               0.000061704               0.000183714               0.000025494               0.000000175               0.000061179               0.000061354               0.000000000               0.000000000               0.000000000               0.000000000               0.000092565               0.000311970               0.000016137              -0.000004284               0.000105417               0.000101133               0.000000000               0.000000000               0.000000000               0.000000000               0.000132648               0.000409852               0.000001481              -0.000001488               0.000137112               0.000135624               0.000000000               0.000000000               0.000000000               0.000000000               0.000168273               0.000488107              -0.000005205               0.000002089               0.000162004               0.000164093               0.000000000               0.000000000               0.000000000               0.000000000               0.000187319               0.000552594              -0.000002594               0.000001170               0.000183806               0.000184976               0.000000000               0.000000000               0.000000000               0.000000000               0.000202216               0.000613610               0.000001726              -0.000000870               0.000204825               0.000203955               0.000000000               0.000000000               0.000000000               0.000000000               0.000220470               0.000677453               0.000003023              -0.000002005               0.000226484               0.000224479               0.000000000               0.000000000               0.000000000               0.000000000               0.000241058               0.000746766               0.000003360              -0.000002949               0.000249903               0.000246954               0.000000000               0.000000000               0.000000000               0.000000000               0.000257650               0.000811609               0.000005536              -0.000004832               0.000272144               0.000267312               0.000000000               0.000000000               0.000000000               0.000000000               0.000270795               0.000875475               0.000008468              -0.000007886               0.000294451               0.000286564               0.000000000               0.000000000               0.000000000               0.000000000               0.000282593               0.000944052               0.000010158              -0.000012034               0.000318692               0.000306658               0.000000000               0.000000000               0.000000000               0.000000000               0.000291528               0.001013635               0.000011584              -0.000017381               0.000343669               0.000326287               0.000000000               0.000000000               0.000000000               0.000000000               0.000297872               0.001083194               0.000011928              -0.000023697               0.000368960               0.000345263               0.000000000               0.000000000               0.000000000               0.000000000               0.000303515               0.001154459               0.000010368              -0.000030489               0.000394979               0.000364490               0.000000000               0.000000000               0.000000000               0.000000000               0.000308148               0.001225122               0.000006451              -0.000037585               0.000420898               0.000383313               0.000000000               0.000000000               0.000000000               0.000000000               0.000305541               0.001256055               0.000002503              -0.000042429               0.000432824               0.000390395               0.000000000               0.000000000               0.000000000               0.000000000               0.000043214               0.000091828               0.000021243               0.000004727               0.000029034               0.000033760               0.000000000               0.000000000               0.000000000               0.000000000               0.000064827               0.000172282               0.000023704               0.000002775               0.000056502               0.000059277               0.000000000               0.000000000               0.000000000               0.000000000               0.000095961               0.000303147               0.000018554              -0.000001908               0.000101684               0.000099776               0.000000000               0.000000000               0.000000000               0.000000000               0.000131144               0.000411232               0.000005260              -0.000002225               0.000137818               0.000135592               0.000000000               0.000000000               0.000000000               0.000000000               0.000166984               0.000496812              -0.000004182               0.000000518               0.000165430               0.000165947               0.000000000               0.000000000               0.000000000               0.000000000               0.000191613               0.000564329              -0.000004000               0.000001314               0.000187670               0.000188984               0.000000000               0.000000000               0.000000000               0.000000000               0.000208843               0.000625408              -0.000000431               0.000000140               0.000208420               0.000208560               0.000000000               0.000000000               0.000000000               0.000000000               0.000226091               0.000685907               0.000001129              -0.000000954               0.000228952               0.000227997               0.000000000               0.000000000               0.000000000               0.000000000               0.000246920               0.000754470               0.000000978              -0.000001714               0.000252059               0.000250345               0.000000000               0.000000000               0.000000000               0.000000000               0.000268326               0.000824090               0.000000838              -0.000002389               0.000275490               0.000273101               0.000000000               0.000000000               0.000000000               0.000000000               0.000286064               0.000886806               0.000002436              -0.000003577               0.000296791               0.000293215               0.000000000               0.000000000               0.000000000               0.000000000               0.000302982               0.000951629               0.000003456              -0.000005335               0.000318985               0.000313650               0.000000000               0.000000000               0.000000000               0.000000000               0.000319450               0.001020478               0.000003983              -0.000007766               0.000342745               0.000334979               0.000000000               0.000000000               0.000000000               0.000000000               0.000333519               0.001087874               0.000004419              -0.000010915               0.000366259               0.000355345               0.000000000               0.000000000               0.000000000               0.000000000               0.000346836               0.001156744               0.000004161              -0.000014529               0.000390421               0.000375891               0.000000000               0.000000000               0.000000000               0.000000000               0.000360315               0.001226365               0.000002647              -0.000018177               0.000414843               0.000396666               0.000000000               0.000000000               0.000000000               0.000000000               0.000365197               0.001259225               0.000001081              -0.000020454               0.000426556               0.000406101               0.000000000               0.000000000               0.000000000               0.000000000               0.000037143               0.000081509               0.000016039               0.000003740               0.000025923               0.000029663               0.000000000               0.000000000               0.000000000               0.000000000               0.000066290               0.000160469               0.000019124               0.000004800               0.000051889               0.000056689               0.000000000               0.000000000               0.000000000               0.000000000               0.000099470               0.000292367               0.000016481               0.000000755               0.000097203               0.000097958               0.000000000               0.000000000               0.000000000               0.000000000               0.000131948               0.000407494               0.000007369              -0.000001456               0.000136315               0.000134859               0.000000000               0.000000000               0.000000000               0.000000000               0.000165486               0.000500341              -0.000001620              -0.000000485               0.000166940               0.000166455               0.000000000               0.000000000               0.000000000               0.000000000               0.000193686               0.000573630              -0.000003242               0.000000928               0.000190899               0.000191827               0.000000000               0.000000000               0.000000000               0.000000000               0.000213773               0.000635132              -0.000000856               0.000000773               0.000211451               0.000212224               0.000000000               0.000000000               0.000000000               0.000000000               0.000231519               0.000693818               0.000000498               0.000000092               0.000231240               0.000231332               0.000000000               0.000000000               0.000000000               0.000000000               0.000251627               0.000758797               0.000000509              -0.000000489               0.000253093               0.000252603               0.000000000               0.000000000               0.000000000               0.000000000               0.000274846               0.000830819              -0.000000428              -0.000000785               0.000277199               0.000276413               0.000000000               0.000000000               0.000000000               0.000000000               0.000295959               0.000896024              -0.000000299              -0.000001018               0.000299011               0.000297993               0.000000000               0.000000000               0.000000000               0.000000000               0.000315389               0.000957536               0.000000145              -0.000001421               0.000319649               0.000318228               0.000000000               0.000000000               0.000000000               0.000000000               0.000336038               0.001024932              -0.000000006              -0.000002102               0.000342342               0.000340239               0.000000000               0.000000000               0.000000000               0.000000000               0.000355477               0.001091965              -0.000000009              -0.000003192               0.000365048               0.000361857               0.000000000               0.000000000               0.000000000               0.000000000               0.000373738               0.001158453               0.000000140              -0.000004655               0.000387699               0.000383044               0.000000000               0.000000000               0.000000000               0.000000000               0.000392226               0.001226928               0.000000040              -0.000006281               0.000411066               0.000404785               0.000000000               0.000000000               0.000000000               0.000000000               0.000400792               0.001261028              -0.000000279              -0.000007332               0.000422782               0.000415451               0.000000000               0.000000000               0.000000000               0.000000000               0.000032063               0.000073971               0.000006881               0.000002777               0.000023731               0.000026508               0.000000000               0.000000000               0.000000000               0.000000000               0.000066295               0.000150400               0.000009384               0.000006061               0.000048113               0.000054173               0.000000000               0.000000000               0.000000000               0.000000000               0.000104384               0.000283631               0.000008918               0.000003690               0.000093313               0.000097003               0.000000000               0.000000000               0.000000000               0.000000000               0.000133906               0.000402793               0.000004462              -0.000000134               0.000134308               0.000134174               0.000000000               0.000000000               0.000000000               0.000000000               0.000163880               0.000500796              -0.000000760              -0.000001144               0.000167312               0.000166167               0.000000000               0.000000000               0.000000000               0.000000000               0.000192569               0.000579235              -0.000002154              -0.000000191               0.000193140               0.000192949               0.000000000               0.000000000               0.000000000               0.000000000               0.000214951               0.000640872              -0.000001067               0.000000498               0.000213456               0.000213954               0.000000000               0.000000000               0.000000000               0.000000000               0.000234086               0.000697692              -0.000000303               0.000000571               0.000232371               0.000232942               0.000000000               0.000000000               0.000000000               0.000000000               0.000254433               0.000759599              -0.000000107               0.000000463               0.000253043               0.000253506               0.000000000               0.000000000               0.000000000               0.000000000               0.000278230               0.000831868              -0.000000640               0.000000353               0.000277169               0.000277522               0.000000000               0.000000000               0.000000000               0.000000000               0.000301289               0.000901145              -0.000000836               0.000000340               0.000300265               0.000300605               0.000000000               0.000000000               0.000000000               0.000000000               0.000321932               0.000962840              -0.000000514               0.000000370               0.000320820               0.000321190               0.000000000               0.000000000               0.000000000               0.000000000               0.000344200               0.001029040              -0.000000587               0.000000445               0.000342862               0.000343306               0.000000000               0.000000000               0.000000000               0.000000000               0.000366879               0.001096647              -0.000000663               0.000000499               0.000365379               0.000365878               0.000000000               0.000000000               0.000000000               0.000000000               0.000388374               0.001161761              -0.000000427               0.000000420               0.000387110               0.000387530               0.000000000               0.000000000               0.000000000               0.000000000               0.000409733               0.001228216              -0.000000203               0.000000123               0.000409360               0.000409483               0.000000000               0.000000000               0.000000000               0.000000000               0.000420173               0.001262170              -0.000000244              -0.000000206               0.000420788               0.000420582               0.000000000               0.000000000               0.000000000               0.000000000               0.000000000               0.000000000               0.000000000               0.000000000               0.000000000               0.000000000               0.000000000               0.000000000               0.000000000               0.000000000               0.000000000               0.000000000               0.000000000               0.000000000               0.000000000               0.000000000               0.000000000               0.000000000               0.000000000               0.000000000               0.000000000               0.000000000               0.000000000               0.000000000               0.000000000               0.000000000               0.000000000               0.000000000               0.000000000               0.000000000               0.000000000               0.000000000               0.000000000               0.000000000               0.000000000               0.000000000               0.000000000               0.000000000               0.000000000               0.000000000               0.000000000               0.000000000               0.000000000               0.000000000               0.000000000               0.000000000               0.000000000               0.000000000               0.000000000               0.000000000               0.000000000               0.000000000               0.000000000               0.000000000               0.000000000               0.000000000               0.000000000               0.000000000               0.000000000               0.000000000               0.000000000               0.000000000               0.000000000               0.000000000               0.000000000               0.000000000               0.000000000               0.000000000               0.000000000               0.000000000               0.000000000               0.000000000               0.000000000               0.000000000               0.000000000               0.000000000               0.000000000               0.000000000               0.000000000               0.000000000               0.000000000               0.000000000               0.000000000               0.000000000               0.000000000               0.000000000               0.000000000               0.000000000               0.000000000               0.000000000               0.000000000               0.000000000               0.000000000               0.000000000               0.000000000               0.000000000               0.000000000               0.000000000               0.000000000               0.000000000               0.000000000               0.000000000               0.000000000               0.000000000               0.000000000               0.000000000               0.000000000               0.000000000               0.000000000               0.000000000               0.000000000               0.000000000               0.000000000               0.000000000               0.000000000               0.000000000               0.000000000               0.000000000               0.000000000               0.000000000               0.000000000               0.000000000               0.000000000               0.000000000               0.000000000               0.000000000               0.000000000               0.000000000               0.000000000               0.000000000               0.000000000               0.000000000               0.000000000               0.000000000               0.000000000               0.000000000               0.000000000               0.000000000               0.000000000               0.000000000               0.000000000               0.000000000               0.000000000               0.000000000               0.000000000               0.000000000               0.000000000               0.000000000               0.000000000               0.000000000               0.000000000               0.000000000               0.000000000               0.000000000               0.000000000               0.000000000               0.000000000               0.000000000               0.000000000               0.000000000               0.000000000               0.000000000               0.000000000               0.000000000               0.000000000               0.000000000               0.000000000               0.000000000               0.000000000               0.000000000 </DataArray>
</PointData>
</Piece>
</UnstructuredGrid> </VTKFile>
