<?xml version="1.0"?>
<VTKFile type="UnstructuredGrid" version="0.1">
<UnstructuredGrid>
<Piece NumberOfPoints="      1156" NumberOfCells="      1024">
<Points>
<DataArray type="Float64"                                    Name="coordinates"                                                      NumberOfComponents=" 3" format="ascii">
              0.133000000               0.000000000               0.000000000               0.155937500               0.000000000               0.000000000               0.178875000               0.000000000               0.000000000               0.201812500               0.000000000               0.000000000               0.224750000               0.000000000               0.000000000               0.247687500               0.000000000               0.000000000               0.270625000               0.000000000               0.000000000               0.293562500               0.000000000               0.000000000               0.316500000               0.000000000               0.000000000               0.339437500               0.000000000               0.000000000               0.362375000               0.000000000               0.000000000               0.385312500               0.000000000               0.000000000               0.408250000               0.000000000               0.000000000               0.431187500               0.000000000               0.000000000               0.454125000               0.000000000               0.000000000               0.477062500               0.000000000               0.000000000               0.500000000               0.000000000               0.000000000               0.132359569               0.013036280               0.000000000               0.155337096               0.016127762               0.000000000               0.178314623               0.019219245               0.000000000               0.201292150               0.022310727               0.000000000               0.224269676               0.025402210               0.000000000               0.247247203               0.028493692               0.000000000               0.270224730               0.031585175               0.000000000               0.293202257               0.034676657               0.000000000               0.316179784               0.037768140               0.000000000               0.339157311               0.040859622               0.000000000               0.362134838               0.043951105               0.000000000               0.385112365               0.047042587               0.000000000               0.408089892               0.050134070               0.000000000               0.431067419               0.053225552               0.000000000               0.454044946               0.056317035               0.000000000               0.477022473               0.059408517               0.000000000               0.500000000               0.062500000               0.000000000               0.130444442               0.025947013               0.000000000               0.153541665               0.032137825               0.000000000               0.176638887               0.038328636               0.000000000               0.199736109               0.044519448               0.000000000               0.222833332               0.050710260               0.000000000               0.245930554               0.056901071               0.000000000               0.269027776               0.063091883               0.000000000               0.292124999               0.069282695               0.000000000               0.315222221               0.075473506               0.000000000               0.338319444               0.081664318               0.000000000               0.361416666               0.087855130               0.000000000               0.384513888               0.094045942               0.000000000               0.407611111               0.100236753               0.000000000               0.430708333               0.106427565               0.000000000               0.453805555               0.112618377               0.000000000               0.476902778               0.118809188               0.000000000               0.500000000               0.125000000               0.000000000               0.127273065               0.038607862               0.000000000               0.150568498               0.047913621               0.000000000               0.173863932               0.057219379               0.000000000               0.197159365               0.066525138               0.000000000               0.220454798               0.075830897               0.000000000               0.243750232               0.085136655               0.000000000               0.267045665               0.094442414               0.000000000               0.290341099               0.103748172               0.000000000               0.313636532               0.113053931               0.000000000               0.336931966               0.122359690               0.000000000               0.360227399               0.131665448               0.000000000               0.383522833               0.140971207               0.000000000               0.406818266               0.150276966               0.000000000               0.430113700               0.159582724               0.000000000               0.453409133               0.168888483               0.000000000               0.476704567               0.178194241               0.000000000               0.500000000               0.187500000               0.000000000               0.122875978               0.050896897               0.000000000               0.146446229               0.063340840               0.000000000               0.170016481               0.075784784               0.000000000               0.193586732               0.088228728               0.000000000               0.217156983               0.100672672               0.000000000               0.240727235               0.113116616               0.000000000               0.264297486               0.125560560               0.000000000               0.287867738               0.138004504               0.000000000               0.311437989               0.150448448               0.000000000               0.335008240               0.162892392               0.000000000               0.358578492               0.175336336               0.000000000               0.382148743               0.187780280               0.000000000               0.405718994               0.200224224               0.000000000               0.429289246               0.212668168               0.000000000               0.452859497               0.225112112               0.000000000               0.476429749               0.237556056               0.000000000               0.500000000               0.250000000               0.000000000               0.117295528               0.062695766               0.000000000               0.141214558               0.078308531               0.000000000               0.165133587               0.093921295               0.000000000               0.189052617               0.109534060               0.000000000               0.212971646               0.125146824               0.000000000               0.236890676               0.140759589               0.000000000               0.260809705               0.156372354               0.000000000               0.284728735               0.171985118               0.000000000               0.308647764               0.187597883               0.000000000               0.332566794               0.203210648               0.000000000               0.356485823               0.218823412               0.000000000               0.380404853               0.234436177               0.000000000               0.404323882               0.250048941               0.000000000               0.428242912               0.265661706               0.000000000               0.452161941               0.281274471               0.000000000               0.476080971               0.296887235               0.000000000               0.500000000               0.312500000               0.000000000               0.110585458               0.073890841               0.000000000               0.134923867               0.092710163               0.000000000               0.159262276               0.111529486               0.000000000               0.183600685               0.130348808               0.000000000               0.207939094               0.149168131               0.000000000               0.232277503               0.167987453               0.000000000               0.256615912               0.186806776               0.000000000               0.280954320               0.205626098               0.000000000               0.305292729               0.224445420               0.000000000               0.329631138               0.243264743               0.000000000               0.353969547               0.262084065               0.000000000               0.378307956               0.280903388               0.000000000               0.402646365               0.299722710               0.000000000               0.426984773               0.318542033               0.000000000               0.451323182               0.337361355               0.000000000               0.475661591               0.356180678               0.000000000               0.500000000               0.375000000               0.000000000               0.102810390               0.084374307               0.000000000               0.127634741               0.106444663               0.000000000               0.152459092               0.128515018               0.000000000               0.177283442               0.150585374               0.000000000               0.202107793               0.172655730               0.000000000               0.226932143               0.194726086               0.000000000               0.251756494               0.216796442               0.000000000               0.276580845               0.238866798               0.000000000               0.301405195               0.260937153               0.000000000               0.326229546               0.283007509               0.000000000               0.351053896               0.305077865               0.000000000               0.375878247               0.327148221               0.000000000               0.400702598               0.349218577               0.000000000               0.425526948               0.371288933               0.000000000               0.450351299               0.393359288               0.000000000               0.475175649               0.415429644               0.000000000               0.500000000               0.437500000               0.000000000               0.094045202               0.094045202               0.000000000               0.119417377               0.119417377               0.000000000               0.144789552               0.144789552               0.000000000               0.170161727               0.170161727               0.000000000               0.195533901               0.195533901               0.000000000               0.220906076               0.220906076               0.000000000               0.246278251               0.246278251               0.000000000               0.271650426               0.271650426               0.000000000               0.297022601               0.297022601               0.000000000               0.322394776               0.322394776               0.000000000               0.347766951               0.347766951               0.000000000               0.373139126               0.373139126               0.000000000               0.398511300               0.398511300               0.000000000               0.423883475               0.423883475               0.000000000               0.449255650               0.449255650               0.000000000               0.474627825               0.474627825               0.000000000               0.500000000               0.500000000               0.000000000               0.084374307               0.102810390               0.000000000               0.106444663               0.127634741               0.000000000               0.128515018               0.152459092               0.000000000               0.150585374               0.177283442               0.000000000               0.172655730               0.202107793               0.000000000               0.194726086               0.226932143               0.000000000               0.216796442               0.251756494               0.000000000               0.238866798               0.276580845               0.000000000               0.260937153               0.301405195               0.000000000               0.283007509               0.326229546               0.000000000               0.305077865               0.351053896               0.000000000               0.327148221               0.375878247               0.000000000               0.349218577               0.400702598               0.000000000               0.371288933               0.425526948               0.000000000               0.393359288               0.450351299               0.000000000               0.415429644               0.475175649               0.000000000               0.437500000               0.500000000               0.000000000               0.073890841               0.110585458               0.000000000               0.092710163               0.134923867               0.000000000               0.111529486               0.159262276               0.000000000               0.130348808               0.183600685               0.000000000               0.149168131               0.207939094               0.000000000               0.167987453               0.232277503               0.000000000               0.186806776               0.256615912               0.000000000               0.205626098               0.280954320               0.000000000               0.224445420               0.305292729               0.000000000               0.243264743               0.329631138               0.000000000               0.262084065               0.353969547               0.000000000               0.280903388               0.378307956               0.000000000               0.299722710               0.402646365               0.000000000               0.318542033               0.426984773               0.000000000               0.337361355               0.451323182               0.000000000               0.356180678               0.475661591               0.000000000               0.375000000               0.500000000               0.000000000               0.062695766               0.117295528               0.000000000               0.078308531               0.141214558               0.000000000               0.093921295               0.165133587               0.000000000               0.109534060               0.189052617               0.000000000               0.125146824               0.212971646               0.000000000               0.140759589               0.236890676               0.000000000               0.156372354               0.260809705               0.000000000               0.171985118               0.284728735               0.000000000               0.187597883               0.308647764               0.000000000               0.203210648               0.332566794               0.000000000               0.218823412               0.356485823               0.000000000               0.234436177               0.380404853               0.000000000               0.250048941               0.404323882               0.000000000               0.265661706               0.428242912               0.000000000               0.281274471               0.452161941               0.000000000               0.296887235               0.476080971               0.000000000               0.312500000               0.500000000               0.000000000               0.050896897               0.122875978               0.000000000               0.063340840               0.146446229               0.000000000               0.075784784               0.170016481               0.000000000               0.088228728               0.193586732               0.000000000               0.100672672               0.217156983               0.000000000               0.113116616               0.240727235               0.000000000               0.125560560               0.264297486               0.000000000               0.138004504               0.287867738               0.000000000               0.150448448               0.311437989               0.000000000               0.162892392               0.335008240               0.000000000               0.175336336               0.358578492               0.000000000               0.187780280               0.382148743               0.000000000               0.200224224               0.405718994               0.000000000               0.212668168               0.429289246               0.000000000               0.225112112               0.452859497               0.000000000               0.237556056               0.476429749               0.000000000               0.250000000               0.500000000               0.000000000               0.038607862               0.127273065               0.000000000               0.047913621               0.150568498               0.000000000               0.057219379               0.173863932               0.000000000               0.066525138               0.197159365               0.000000000               0.075830897               0.220454798               0.000000000               0.085136655               0.243750232               0.000000000               0.094442414               0.267045665               0.000000000               0.103748172               0.290341099               0.000000000               0.113053931               0.313636532               0.000000000               0.122359690               0.336931966               0.000000000               0.131665448               0.360227399               0.000000000               0.140971207               0.383522833               0.000000000               0.150276966               0.406818266               0.000000000               0.159582724               0.430113700               0.000000000               0.168888483               0.453409133               0.000000000               0.178194241               0.476704567               0.000000000               0.187500000               0.500000000               0.000000000               0.025947013               0.130444442               0.000000000               0.032137825               0.153541665               0.000000000               0.038328636               0.176638887               0.000000000               0.044519448               0.199736109               0.000000000               0.050710260               0.222833332               0.000000000               0.056901071               0.245930554               0.000000000               0.063091883               0.269027776               0.000000000               0.069282695               0.292124999               0.000000000               0.075473506               0.315222221               0.000000000               0.081664318               0.338319444               0.000000000               0.087855130               0.361416666               0.000000000               0.094045942               0.384513888               0.000000000               0.100236753               0.407611111               0.000000000               0.106427565               0.430708333               0.000000000               0.112618377               0.453805555               0.000000000               0.118809188               0.476902778               0.000000000               0.125000000               0.500000000               0.000000000               0.013036280               0.132359569               0.000000000               0.016127762               0.155337096               0.000000000               0.019219245               0.178314623               0.000000000               0.022310727               0.201292150               0.000000000               0.025402210               0.224269676               0.000000000               0.028493692               0.247247203               0.000000000               0.031585175               0.270224730               0.000000000               0.034676657               0.293202257               0.000000000               0.037768140               0.316179784               0.000000000               0.040859622               0.339157311               0.000000000               0.043951105               0.362134838               0.000000000               0.047042587               0.385112365               0.000000000               0.050134070               0.408089892               0.000000000               0.053225552               0.431067419               0.000000000               0.056317035               0.454044946               0.000000000               0.059408517               0.477022473               0.000000000               0.062500000               0.500000000               0.000000000               0.000000000               0.133000000               0.000000000               0.000000000               0.155937500               0.000000000               0.000000000               0.178875000               0.000000000               0.000000000               0.201812500               0.000000000               0.000000000               0.224750000               0.000000000               0.000000000               0.247687500               0.000000000               0.000000000               0.270625000               0.000000000               0.000000000               0.293562500               0.000000000               0.000000000               0.316500000               0.000000000               0.000000000               0.339437500               0.000000000               0.000000000               0.362375000               0.000000000               0.000000000               0.385312500               0.000000000               0.000000000               0.408250000               0.000000000               0.000000000               0.431187500               0.000000000               0.000000000               0.454125000               0.000000000               0.000000000               0.477062500               0.000000000               0.000000000               0.500000000               0.000000000               0.133000000               0.000000000               0.000000000               0.155937500               0.000000000               0.000000000               0.178875000               0.000000000               0.000000000               0.201812500               0.000000000               0.000000000               0.224750000               0.000000000               0.000000000               0.247687500               0.000000000               0.000000000               0.270625000               0.000000000               0.000000000               0.293562500               0.000000000               0.000000000               0.316500000               0.000000000               0.000000000               0.339437500               0.000000000               0.000000000               0.362375000               0.000000000               0.000000000               0.385312500               0.000000000               0.000000000               0.408250000               0.000000000               0.000000000               0.431187500               0.000000000               0.000000000               0.454125000               0.000000000               0.000000000               0.477062500               0.000000000               0.000000000               0.500000000               0.000000000               0.000000000               0.132359569              -0.013036280               0.000000000               0.155337096              -0.016127762               0.000000000               0.178314623              -0.019219245               0.000000000               0.201292150              -0.022310727               0.000000000               0.224269676              -0.025402210               0.000000000               0.247247203              -0.028493692               0.000000000               0.270224730              -0.031585175               0.000000000               0.293202257              -0.034676657               0.000000000               0.316179784              -0.037768140               0.000000000               0.339157311              -0.040859622               0.000000000               0.362134838              -0.043951105               0.000000000               0.385112365              -0.047042587               0.000000000               0.408089892              -0.050134070               0.000000000               0.431067419              -0.053225552               0.000000000               0.454044946              -0.056317035               0.000000000               0.477022473              -0.059408517               0.000000000               0.500000000              -0.062500000               0.000000000               0.130444442              -0.025947013               0.000000000               0.153541665              -0.032137825               0.000000000               0.176638887              -0.038328636               0.000000000               0.199736109              -0.044519448               0.000000000               0.222833332              -0.050710260               0.000000000               0.245930554              -0.056901071               0.000000000               0.269027776              -0.063091883               0.000000000               0.292124999              -0.069282695               0.000000000               0.315222221              -0.075473506               0.000000000               0.338319444              -0.081664318               0.000000000               0.361416666              -0.087855130               0.000000000               0.384513888              -0.094045942               0.000000000               0.407611111              -0.100236753               0.000000000               0.430708333              -0.106427565               0.000000000               0.453805555              -0.112618377               0.000000000               0.476902778              -0.118809188               0.000000000               0.500000000              -0.125000000               0.000000000               0.127273065              -0.038607862               0.000000000               0.150568498              -0.047913621               0.000000000               0.173863932              -0.057219379               0.000000000               0.197159365              -0.066525138               0.000000000               0.220454798              -0.075830897               0.000000000               0.243750232              -0.085136655               0.000000000               0.267045665              -0.094442414               0.000000000               0.290341099              -0.103748172               0.000000000               0.313636532              -0.113053931               0.000000000               0.336931966              -0.122359690               0.000000000               0.360227399              -0.131665448               0.000000000               0.383522833              -0.140971207               0.000000000               0.406818266              -0.150276966               0.000000000               0.430113700              -0.159582724               0.000000000               0.453409133              -0.168888483               0.000000000               0.476704567              -0.178194241               0.000000000               0.500000000              -0.187500000               0.000000000               0.122875978              -0.050896897               0.000000000               0.146446229              -0.063340840               0.000000000               0.170016481              -0.075784784               0.000000000               0.193586732              -0.088228728               0.000000000               0.217156983              -0.100672672               0.000000000               0.240727235              -0.113116616               0.000000000               0.264297486              -0.125560560               0.000000000               0.287867738              -0.138004504               0.000000000               0.311437989              -0.150448448               0.000000000               0.335008240              -0.162892392               0.000000000               0.358578492              -0.175336336               0.000000000               0.382148743              -0.187780280               0.000000000               0.405718994              -0.200224224               0.000000000               0.429289246              -0.212668168               0.000000000               0.452859497              -0.225112112               0.000000000               0.476429749              -0.237556056               0.000000000               0.500000000              -0.250000000               0.000000000               0.117295528              -0.062695766               0.000000000               0.141214558              -0.078308531               0.000000000               0.165133587              -0.093921295               0.000000000               0.189052617              -0.109534060               0.000000000               0.212971646              -0.125146824               0.000000000               0.236890676              -0.140759589               0.000000000               0.260809705              -0.156372354               0.000000000               0.284728735              -0.171985118               0.000000000               0.308647764              -0.187597883               0.000000000               0.332566794              -0.203210648               0.000000000               0.356485823              -0.218823412               0.000000000               0.380404853              -0.234436177               0.000000000               0.404323882              -0.250048941               0.000000000               0.428242912              -0.265661706               0.000000000               0.452161941              -0.281274471               0.000000000               0.476080971              -0.296887235               0.000000000               0.500000000              -0.312500000               0.000000000               0.110585458              -0.073890841               0.000000000               0.134923867              -0.092710163               0.000000000               0.159262276              -0.111529486               0.000000000               0.183600685              -0.130348808               0.000000000               0.207939094              -0.149168131               0.000000000               0.232277503              -0.167987453               0.000000000               0.256615912              -0.186806776               0.000000000               0.280954320              -0.205626098               0.000000000               0.305292729              -0.224445420               0.000000000               0.329631138              -0.243264743               0.000000000               0.353969547              -0.262084065               0.000000000               0.378307956              -0.280903388               0.000000000               0.402646365              -0.299722710               0.000000000               0.426984773              -0.318542033               0.000000000               0.451323182              -0.337361355               0.000000000               0.475661591              -0.356180678               0.000000000               0.500000000              -0.375000000               0.000000000               0.102810390              -0.084374307               0.000000000               0.127634741              -0.106444663               0.000000000               0.152459092              -0.128515018               0.000000000               0.177283442              -0.150585374               0.000000000               0.202107793              -0.172655730               0.000000000               0.226932143              -0.194726086               0.000000000               0.251756494              -0.216796442               0.000000000               0.276580845              -0.238866798               0.000000000               0.301405195              -0.260937153               0.000000000               0.326229546              -0.283007509               0.000000000               0.351053896              -0.305077865               0.000000000               0.375878247              -0.327148221               0.000000000               0.400702598              -0.349218577               0.000000000               0.425526948              -0.371288933               0.000000000               0.450351299              -0.393359288               0.000000000               0.475175649              -0.415429644               0.000000000               0.500000000              -0.437500000               0.000000000               0.094045202              -0.094045202               0.000000000               0.119417377              -0.119417377               0.000000000               0.144789552              -0.144789552               0.000000000               0.170161727              -0.170161727               0.000000000               0.195533901              -0.195533901               0.000000000               0.220906076              -0.220906076               0.000000000               0.246278251              -0.246278251               0.000000000               0.271650426              -0.271650426               0.000000000               0.297022601              -0.297022601               0.000000000               0.322394776              -0.322394776               0.000000000               0.347766951              -0.347766951               0.000000000               0.373139126              -0.373139126               0.000000000               0.398511300              -0.398511300               0.000000000               0.423883475              -0.423883475               0.000000000               0.449255650              -0.449255650               0.000000000               0.474627825              -0.474627825               0.000000000               0.500000000              -0.500000000               0.000000000               0.084374307              -0.102810390               0.000000000               0.106444663              -0.127634741               0.000000000               0.128515018              -0.152459092               0.000000000               0.150585374              -0.177283442               0.000000000               0.172655730              -0.202107793               0.000000000               0.194726086              -0.226932143               0.000000000               0.216796442              -0.251756494               0.000000000               0.238866798              -0.276580845               0.000000000               0.260937153              -0.301405195               0.000000000               0.283007509              -0.326229546               0.000000000               0.305077865              -0.351053896               0.000000000               0.327148221              -0.375878247               0.000000000               0.349218577              -0.400702598               0.000000000               0.371288933              -0.425526948               0.000000000               0.393359288              -0.450351299               0.000000000               0.415429644              -0.475175649               0.000000000               0.437500000              -0.500000000               0.000000000               0.073890841              -0.110585458               0.000000000               0.092710163              -0.134923867               0.000000000               0.111529486              -0.159262276               0.000000000               0.130348808              -0.183600685               0.000000000               0.149168131              -0.207939094               0.000000000               0.167987453              -0.232277503               0.000000000               0.186806776              -0.256615912               0.000000000               0.205626098              -0.280954320               0.000000000               0.224445420              -0.305292729               0.000000000               0.243264743              -0.329631138               0.000000000               0.262084065              -0.353969547               0.000000000               0.280903388              -0.378307956               0.000000000               0.299722710              -0.402646365               0.000000000               0.318542033              -0.426984773               0.000000000               0.337361355              -0.451323182               0.000000000               0.356180678              -0.475661591               0.000000000               0.375000000              -0.500000000               0.000000000               0.062695766              -0.117295528               0.000000000               0.078308531              -0.141214558               0.000000000               0.093921295              -0.165133587               0.000000000               0.109534060              -0.189052617               0.000000000               0.125146824              -0.212971646               0.000000000               0.140759589              -0.236890676               0.000000000               0.156372354              -0.260809705               0.000000000               0.171985118              -0.284728735               0.000000000               0.187597883              -0.308647764               0.000000000               0.203210648              -0.332566794               0.000000000               0.218823412              -0.356485823               0.000000000               0.234436177              -0.380404853               0.000000000               0.250048941              -0.404323882               0.000000000               0.265661706              -0.428242912               0.000000000               0.281274471              -0.452161941               0.000000000               0.296887235              -0.476080971               0.000000000               0.312500000              -0.500000000               0.000000000               0.050896897              -0.122875978               0.000000000               0.063340840              -0.146446229               0.000000000               0.075784784              -0.170016481               0.000000000               0.088228728              -0.193586732               0.000000000               0.100672672              -0.217156983               0.000000000               0.113116616              -0.240727235               0.000000000               0.125560560              -0.264297486               0.000000000               0.138004504              -0.287867738               0.000000000               0.150448448              -0.311437989               0.000000000               0.162892392              -0.335008240               0.000000000               0.175336336              -0.358578492               0.000000000               0.187780280              -0.382148743               0.000000000               0.200224224              -0.405718994               0.000000000               0.212668168              -0.429289246               0.000000000               0.225112112              -0.452859497               0.000000000               0.237556056              -0.476429749               0.000000000               0.250000000              -0.500000000               0.000000000               0.038607862              -0.127273065               0.000000000               0.047913621              -0.150568498               0.000000000               0.057219379              -0.173863932               0.000000000               0.066525138              -0.197159365               0.000000000               0.075830897              -0.220454798               0.000000000               0.085136655              -0.243750232               0.000000000               0.094442414              -0.267045665               0.000000000               0.103748172              -0.290341099               0.000000000               0.113053931              -0.313636532               0.000000000               0.122359690              -0.336931966               0.000000000               0.131665448              -0.360227399               0.000000000               0.140971207              -0.383522833               0.000000000               0.150276966              -0.406818266               0.000000000               0.159582724              -0.430113700               0.000000000               0.168888483              -0.453409133               0.000000000               0.178194241              -0.476704567               0.000000000               0.187500000              -0.500000000               0.000000000               0.025947013              -0.130444442               0.000000000               0.032137825              -0.153541665               0.000000000               0.038328636              -0.176638887               0.000000000               0.044519448              -0.199736109               0.000000000               0.050710260              -0.222833332               0.000000000               0.056901071              -0.245930554               0.000000000               0.063091883              -0.269027776               0.000000000               0.069282695              -0.292124999               0.000000000               0.075473506              -0.315222221               0.000000000               0.081664318              -0.338319444               0.000000000               0.087855130              -0.361416666               0.000000000               0.094045942              -0.384513888               0.000000000               0.100236753              -0.407611111               0.000000000               0.106427565              -0.430708333               0.000000000               0.112618377              -0.453805555               0.000000000               0.118809188              -0.476902778               0.000000000               0.125000000              -0.500000000               0.000000000               0.013036280              -0.132359569               0.000000000               0.016127762              -0.155337096               0.000000000               0.019219245              -0.178314623               0.000000000               0.022310727              -0.201292150               0.000000000               0.025402210              -0.224269676               0.000000000               0.028493692              -0.247247203               0.000000000               0.031585175              -0.270224730               0.000000000               0.034676657              -0.293202257               0.000000000               0.037768140              -0.316179784               0.000000000               0.040859622              -0.339157311               0.000000000               0.043951105              -0.362134838               0.000000000               0.047042587              -0.385112365               0.000000000               0.050134070              -0.408089892               0.000000000               0.053225552              -0.431067419               0.000000000               0.056317035              -0.454044946               0.000000000               0.059408517              -0.477022473               0.000000000               0.062500000              -0.500000000               0.000000000               0.000000000              -0.133000000               0.000000000               0.000000000              -0.155937500               0.000000000               0.000000000              -0.178875000               0.000000000               0.000000000              -0.201812500               0.000000000               0.000000000              -0.224750000               0.000000000               0.000000000              -0.247687500               0.000000000               0.000000000              -0.270625000               0.000000000               0.000000000              -0.293562500               0.000000000               0.000000000              -0.316500000               0.000000000               0.000000000              -0.339437500               0.000000000               0.000000000              -0.362375000               0.000000000               0.000000000              -0.385312500               0.000000000               0.000000000              -0.408250000               0.000000000               0.000000000              -0.431187500               0.000000000               0.000000000              -0.454125000               0.000000000               0.000000000              -0.477062500               0.000000000               0.000000000              -0.500000000               0.000000000              -0.133000000               0.000000000               0.000000000              -0.155937500               0.000000000               0.000000000              -0.178875000               0.000000000               0.000000000              -0.201812500               0.000000000               0.000000000              -0.224750000               0.000000000               0.000000000              -0.247687500               0.000000000               0.000000000              -0.270625000               0.000000000               0.000000000              -0.293562500               0.000000000               0.000000000              -0.316500000               0.000000000               0.000000000              -0.339437500               0.000000000               0.000000000              -0.362375000               0.000000000               0.000000000              -0.385312500               0.000000000               0.000000000              -0.408250000               0.000000000               0.000000000              -0.431187500               0.000000000               0.000000000              -0.454125000               0.000000000               0.000000000              -0.477062500               0.000000000               0.000000000              -0.500000000               0.000000000               0.000000000              -0.132359569              -0.013036280               0.000000000              -0.155337096              -0.016127762               0.000000000              -0.178314623              -0.019219245               0.000000000              -0.201292150              -0.022310727               0.000000000              -0.224269676              -0.025402210               0.000000000              -0.247247203              -0.028493692               0.000000000              -0.270224730              -0.031585175               0.000000000              -0.293202257              -0.034676657               0.000000000              -0.316179784              -0.037768140               0.000000000              -0.339157311              -0.040859622               0.000000000              -0.362134838              -0.043951105               0.000000000              -0.385112365              -0.047042587               0.000000000              -0.408089892              -0.050134070               0.000000000              -0.431067419              -0.053225552               0.000000000              -0.454044946              -0.056317035               0.000000000              -0.477022473              -0.059408517               0.000000000              -0.500000000              -0.062500000               0.000000000              -0.130444442              -0.025947013               0.000000000              -0.153541665              -0.032137825               0.000000000              -0.176638887              -0.038328636               0.000000000              -0.199736109              -0.044519448               0.000000000              -0.222833332              -0.050710260               0.000000000              -0.245930554              -0.056901071               0.000000000              -0.269027776              -0.063091883               0.000000000              -0.292124999              -0.069282695               0.000000000              -0.315222221              -0.075473506               0.000000000              -0.338319444              -0.081664318               0.000000000              -0.361416666              -0.087855130               0.000000000              -0.384513888              -0.094045942               0.000000000              -0.407611111              -0.100236753               0.000000000              -0.430708333              -0.106427565               0.000000000              -0.453805555              -0.112618377               0.000000000              -0.476902778              -0.118809188               0.000000000              -0.500000000              -0.125000000               0.000000000              -0.127273065              -0.038607862               0.000000000              -0.150568498              -0.047913621               0.000000000              -0.173863932              -0.057219379               0.000000000              -0.197159365              -0.066525138               0.000000000              -0.220454798              -0.075830897               0.000000000              -0.243750232              -0.085136655               0.000000000              -0.267045665              -0.094442414               0.000000000              -0.290341099              -0.103748172               0.000000000              -0.313636532              -0.113053931               0.000000000              -0.336931966              -0.122359690               0.000000000              -0.360227399              -0.131665448               0.000000000              -0.383522833              -0.140971207               0.000000000              -0.406818266              -0.150276966               0.000000000              -0.430113700              -0.159582724               0.000000000              -0.453409133              -0.168888483               0.000000000              -0.476704567              -0.178194241               0.000000000              -0.500000000              -0.187500000               0.000000000              -0.122875978              -0.050896897               0.000000000              -0.146446229              -0.063340840               0.000000000              -0.170016481              -0.075784784               0.000000000              -0.193586732              -0.088228728               0.000000000              -0.217156983              -0.100672672               0.000000000              -0.240727235              -0.113116616               0.000000000              -0.264297486              -0.125560560               0.000000000              -0.287867738              -0.138004504               0.000000000              -0.311437989              -0.150448448               0.000000000              -0.335008240              -0.162892392               0.000000000              -0.358578492              -0.175336336               0.000000000              -0.382148743              -0.187780280               0.000000000              -0.405718994              -0.200224224               0.000000000              -0.429289246              -0.212668168               0.000000000              -0.452859497              -0.225112112               0.000000000              -0.476429749              -0.237556056               0.000000000              -0.500000000              -0.250000000               0.000000000              -0.117295528              -0.062695766               0.000000000              -0.141214558              -0.078308531               0.000000000              -0.165133587              -0.093921295               0.000000000              -0.189052617              -0.109534060               0.000000000              -0.212971646              -0.125146824               0.000000000              -0.236890676              -0.140759589               0.000000000              -0.260809705              -0.156372354               0.000000000              -0.284728735              -0.171985118               0.000000000              -0.308647764              -0.187597883               0.000000000              -0.332566794              -0.203210648               0.000000000              -0.356485823              -0.218823412               0.000000000              -0.380404853              -0.234436177               0.000000000              -0.404323882              -0.250048941               0.000000000              -0.428242912              -0.265661706               0.000000000              -0.452161941              -0.281274471               0.000000000              -0.476080971              -0.296887235               0.000000000              -0.500000000              -0.312500000               0.000000000              -0.110585458              -0.073890841               0.000000000              -0.134923867              -0.092710163               0.000000000              -0.159262276              -0.111529486               0.000000000              -0.183600685              -0.130348808               0.000000000              -0.207939094              -0.149168131               0.000000000              -0.232277503              -0.167987453               0.000000000              -0.256615912              -0.186806776               0.000000000              -0.280954320              -0.205626098               0.000000000              -0.305292729              -0.224445420               0.000000000              -0.329631138              -0.243264743               0.000000000              -0.353969547              -0.262084065               0.000000000              -0.378307956              -0.280903388               0.000000000              -0.402646365              -0.299722710               0.000000000              -0.426984773              -0.318542033               0.000000000              -0.451323182              -0.337361355               0.000000000              -0.475661591              -0.356180678               0.000000000              -0.500000000              -0.375000000               0.000000000              -0.102810390              -0.084374307               0.000000000              -0.127634741              -0.106444663               0.000000000              -0.152459092              -0.128515018               0.000000000              -0.177283442              -0.150585374               0.000000000              -0.202107793              -0.172655730               0.000000000              -0.226932143              -0.194726086               0.000000000              -0.251756494              -0.216796442               0.000000000              -0.276580845              -0.238866798               0.000000000              -0.301405195              -0.260937153               0.000000000              -0.326229546              -0.283007509               0.000000000              -0.351053896              -0.305077865               0.000000000              -0.375878247              -0.327148221               0.000000000              -0.400702598              -0.349218577               0.000000000              -0.425526948              -0.371288933               0.000000000              -0.450351299              -0.393359288               0.000000000              -0.475175649              -0.415429644               0.000000000              -0.500000000              -0.437500000               0.000000000              -0.094045202              -0.094045202               0.000000000              -0.119417377              -0.119417377               0.000000000              -0.144789552              -0.144789552               0.000000000              -0.170161727              -0.170161727               0.000000000              -0.195533901              -0.195533901               0.000000000              -0.220906076              -0.220906076               0.000000000              -0.246278251              -0.246278251               0.000000000              -0.271650426              -0.271650426               0.000000000              -0.297022601              -0.297022601               0.000000000              -0.322394776              -0.322394776               0.000000000              -0.347766951              -0.347766951               0.000000000              -0.373139126              -0.373139126               0.000000000              -0.398511300              -0.398511300               0.000000000              -0.423883475              -0.423883475               0.000000000              -0.449255650              -0.449255650               0.000000000              -0.474627825              -0.474627825               0.000000000              -0.500000000              -0.500000000               0.000000000              -0.084374307              -0.102810390               0.000000000              -0.106444663              -0.127634741               0.000000000              -0.128515018              -0.152459092               0.000000000              -0.150585374              -0.177283442               0.000000000              -0.172655730              -0.202107793               0.000000000              -0.194726086              -0.226932143               0.000000000              -0.216796442              -0.251756494               0.000000000              -0.238866798              -0.276580845               0.000000000              -0.260937153              -0.301405195               0.000000000              -0.283007509              -0.326229546               0.000000000              -0.305077865              -0.351053896               0.000000000              -0.327148221              -0.375878247               0.000000000              -0.349218577              -0.400702598               0.000000000              -0.371288933              -0.425526948               0.000000000              -0.393359288              -0.450351299               0.000000000              -0.415429644              -0.475175649               0.000000000              -0.437500000              -0.500000000               0.000000000              -0.073890841              -0.110585458               0.000000000              -0.092710163              -0.134923867               0.000000000              -0.111529486              -0.159262276               0.000000000              -0.130348808              -0.183600685               0.000000000              -0.149168131              -0.207939094               0.000000000              -0.167987453              -0.232277503               0.000000000              -0.186806776              -0.256615912               0.000000000              -0.205626098              -0.280954320               0.000000000              -0.224445420              -0.305292729               0.000000000              -0.243264743              -0.329631138               0.000000000              -0.262084065              -0.353969547               0.000000000              -0.280903388              -0.378307956               0.000000000              -0.299722710              -0.402646365               0.000000000              -0.318542033              -0.426984773               0.000000000              -0.337361355              -0.451323182               0.000000000              -0.356180678              -0.475661591               0.000000000              -0.375000000              -0.500000000               0.000000000              -0.062695766              -0.117295528               0.000000000              -0.078308531              -0.141214558               0.000000000              -0.093921295              -0.165133587               0.000000000              -0.109534060              -0.189052617               0.000000000              -0.125146824              -0.212971646               0.000000000              -0.140759589              -0.236890676               0.000000000              -0.156372354              -0.260809705               0.000000000              -0.171985118              -0.284728735               0.000000000              -0.187597883              -0.308647764               0.000000000              -0.203210648              -0.332566794               0.000000000              -0.218823412              -0.356485823               0.000000000              -0.234436177              -0.380404853               0.000000000              -0.250048941              -0.404323882               0.000000000              -0.265661706              -0.428242912               0.000000000              -0.281274471              -0.452161941               0.000000000              -0.296887235              -0.476080971               0.000000000              -0.312500000              -0.500000000               0.000000000              -0.050896897              -0.122875978               0.000000000              -0.063340840              -0.146446229               0.000000000              -0.075784784              -0.170016481               0.000000000              -0.088228728              -0.193586732               0.000000000              -0.100672672              -0.217156983               0.000000000              -0.113116616              -0.240727235               0.000000000              -0.125560560              -0.264297486               0.000000000              -0.138004504              -0.287867738               0.000000000              -0.150448448              -0.311437989               0.000000000              -0.162892392              -0.335008240               0.000000000              -0.175336336              -0.358578492               0.000000000              -0.187780280              -0.382148743               0.000000000              -0.200224224              -0.405718994               0.000000000              -0.212668168              -0.429289246               0.000000000              -0.225112112              -0.452859497               0.000000000              -0.237556056              -0.476429749               0.000000000              -0.250000000              -0.500000000               0.000000000              -0.038607862              -0.127273065               0.000000000              -0.047913621              -0.150568498               0.000000000              -0.057219379              -0.173863932               0.000000000              -0.066525138              -0.197159365               0.000000000              -0.075830897              -0.220454798               0.000000000              -0.085136655              -0.243750232               0.000000000              -0.094442414              -0.267045665               0.000000000              -0.103748172              -0.290341099               0.000000000              -0.113053931              -0.313636532               0.000000000              -0.122359690              -0.336931966               0.000000000              -0.131665448              -0.360227399               0.000000000              -0.140971207              -0.383522833               0.000000000              -0.150276966              -0.406818266               0.000000000              -0.159582724              -0.430113700               0.000000000              -0.168888483              -0.453409133               0.000000000              -0.178194241              -0.476704567               0.000000000              -0.187500000              -0.500000000               0.000000000              -0.025947013              -0.130444442               0.000000000              -0.032137825              -0.153541665               0.000000000              -0.038328636              -0.176638887               0.000000000              -0.044519448              -0.199736109               0.000000000              -0.050710260              -0.222833332               0.000000000              -0.056901071              -0.245930554               0.000000000              -0.063091883              -0.269027776               0.000000000              -0.069282695              -0.292124999               0.000000000              -0.075473506              -0.315222221               0.000000000              -0.081664318              -0.338319444               0.000000000              -0.087855130              -0.361416666               0.000000000              -0.094045942              -0.384513888               0.000000000              -0.100236753              -0.407611111               0.000000000              -0.106427565              -0.430708333               0.000000000              -0.112618377              -0.453805555               0.000000000              -0.118809188              -0.476902778               0.000000000              -0.125000000              -0.500000000               0.000000000              -0.013036280              -0.132359569               0.000000000              -0.016127762              -0.155337096               0.000000000              -0.019219245              -0.178314623               0.000000000              -0.022310727              -0.201292150               0.000000000              -0.025402210              -0.224269676               0.000000000              -0.028493692              -0.247247203               0.000000000              -0.031585175              -0.270224730               0.000000000              -0.034676657              -0.293202257               0.000000000              -0.037768140              -0.316179784               0.000000000              -0.040859622              -0.339157311               0.000000000              -0.043951105              -0.362134838               0.000000000              -0.047042587              -0.385112365               0.000000000              -0.050134070              -0.408089892               0.000000000              -0.053225552              -0.431067419               0.000000000              -0.056317035              -0.454044946               0.000000000              -0.059408517              -0.477022473               0.000000000              -0.062500000              -0.500000000               0.000000000               0.000000000              -0.133000000               0.000000000               0.000000000              -0.155937500               0.000000000               0.000000000              -0.178875000               0.000000000               0.000000000              -0.201812500               0.000000000               0.000000000              -0.224750000               0.000000000               0.000000000              -0.247687500               0.000000000               0.000000000              -0.270625000               0.000000000               0.000000000              -0.293562500               0.000000000               0.000000000              -0.316500000               0.000000000               0.000000000              -0.339437500               0.000000000               0.000000000              -0.362375000               0.000000000               0.000000000              -0.385312500               0.000000000               0.000000000              -0.408250000               0.000000000               0.000000000              -0.431187500               0.000000000               0.000000000              -0.454125000               0.000000000               0.000000000              -0.477062500               0.000000000               0.000000000              -0.500000000               0.000000000              -0.133000000               0.000000000               0.000000000              -0.155937500               0.000000000               0.000000000              -0.178875000               0.000000000               0.000000000              -0.201812500               0.000000000               0.000000000              -0.224750000               0.000000000               0.000000000              -0.247687500               0.000000000               0.000000000              -0.270625000               0.000000000               0.000000000              -0.293562500               0.000000000               0.000000000              -0.316500000               0.000000000               0.000000000              -0.339437500               0.000000000               0.000000000              -0.362375000               0.000000000               0.000000000              -0.385312500               0.000000000               0.000000000              -0.408250000               0.000000000               0.000000000              -0.431187500               0.000000000               0.000000000              -0.454125000               0.000000000               0.000000000              -0.477062500               0.000000000               0.000000000              -0.500000000               0.000000000               0.000000000              -0.132359569               0.013036280               0.000000000              -0.155337096               0.016127762               0.000000000              -0.178314623               0.019219245               0.000000000              -0.201292150               0.022310727               0.000000000              -0.224269676               0.025402210               0.000000000              -0.247247203               0.028493692               0.000000000              -0.270224730               0.031585175               0.000000000              -0.293202257               0.034676657               0.000000000              -0.316179784               0.037768140               0.000000000              -0.339157311               0.040859622               0.000000000              -0.362134838               0.043951105               0.000000000              -0.385112365               0.047042587               0.000000000              -0.408089892               0.050134070               0.000000000              -0.431067419               0.053225552               0.000000000              -0.454044946               0.056317035               0.000000000              -0.477022473               0.059408517               0.000000000              -0.500000000               0.062500000               0.000000000              -0.130444442               0.025947013               0.000000000              -0.153541665               0.032137825               0.000000000              -0.176638887               0.038328636               0.000000000              -0.199736109               0.044519448               0.000000000              -0.222833332               0.050710260               0.000000000              -0.245930554               0.056901071               0.000000000              -0.269027776               0.063091883               0.000000000              -0.292124999               0.069282695               0.000000000              -0.315222221               0.075473506               0.000000000              -0.338319444               0.081664318               0.000000000              -0.361416666               0.087855130               0.000000000              -0.384513888               0.094045942               0.000000000              -0.407611111               0.100236753               0.000000000              -0.430708333               0.106427565               0.000000000              -0.453805555               0.112618377               0.000000000              -0.476902778               0.118809188               0.000000000              -0.500000000               0.125000000               0.000000000              -0.127273065               0.038607862               0.000000000              -0.150568498               0.047913621               0.000000000              -0.173863932               0.057219379               0.000000000              -0.197159365               0.066525138               0.000000000              -0.220454798               0.075830897               0.000000000              -0.243750232               0.085136655               0.000000000              -0.267045665               0.094442414               0.000000000              -0.290341099               0.103748172               0.000000000              -0.313636532               0.113053931               0.000000000              -0.336931966               0.122359690               0.000000000              -0.360227399               0.131665448               0.000000000              -0.383522833               0.140971207               0.000000000              -0.406818266               0.150276966               0.000000000              -0.430113700               0.159582724               0.000000000              -0.453409133               0.168888483               0.000000000              -0.476704567               0.178194241               0.000000000              -0.500000000               0.187500000               0.000000000              -0.122875978               0.050896897               0.000000000              -0.146446229               0.063340840               0.000000000              -0.170016481               0.075784784               0.000000000              -0.193586732               0.088228728               0.000000000              -0.217156983               0.100672672               0.000000000              -0.240727235               0.113116616               0.000000000              -0.264297486               0.125560560               0.000000000              -0.287867738               0.138004504               0.000000000              -0.311437989               0.150448448               0.000000000              -0.335008240               0.162892392               0.000000000              -0.358578492               0.175336336               0.000000000              -0.382148743               0.187780280               0.000000000              -0.405718994               0.200224224               0.000000000              -0.429289246               0.212668168               0.000000000              -0.452859497               0.225112112               0.000000000              -0.476429749               0.237556056               0.000000000              -0.500000000               0.250000000               0.000000000              -0.117295528               0.062695766               0.000000000              -0.141214558               0.078308531               0.000000000              -0.165133587               0.093921295               0.000000000              -0.189052617               0.109534060               0.000000000              -0.212971646               0.125146824               0.000000000              -0.236890676               0.140759589               0.000000000              -0.260809705               0.156372354               0.000000000              -0.284728735               0.171985118               0.000000000              -0.308647764               0.187597883               0.000000000              -0.332566794               0.203210648               0.000000000              -0.356485823               0.218823412               0.000000000              -0.380404853               0.234436177               0.000000000              -0.404323882               0.250048941               0.000000000              -0.428242912               0.265661706               0.000000000              -0.452161941               0.281274471               0.000000000              -0.476080971               0.296887235               0.000000000              -0.500000000               0.312500000               0.000000000              -0.110585458               0.073890841               0.000000000              -0.134923867               0.092710163               0.000000000              -0.159262276               0.111529486               0.000000000              -0.183600685               0.130348808               0.000000000              -0.207939094               0.149168131               0.000000000              -0.232277503               0.167987453               0.000000000              -0.256615912               0.186806776               0.000000000              -0.280954320               0.205626098               0.000000000              -0.305292729               0.224445420               0.000000000              -0.329631138               0.243264743               0.000000000              -0.353969547               0.262084065               0.000000000              -0.378307956               0.280903388               0.000000000              -0.402646365               0.299722710               0.000000000              -0.426984773               0.318542033               0.000000000              -0.451323182               0.337361355               0.000000000              -0.475661591               0.356180678               0.000000000              -0.500000000               0.375000000               0.000000000              -0.102810390               0.084374307               0.000000000              -0.127634741               0.106444663               0.000000000              -0.152459092               0.128515018               0.000000000              -0.177283442               0.150585374               0.000000000              -0.202107793               0.172655730               0.000000000              -0.226932143               0.194726086               0.000000000              -0.251756494               0.216796442               0.000000000              -0.276580845               0.238866798               0.000000000              -0.301405195               0.260937153               0.000000000              -0.326229546               0.283007509               0.000000000              -0.351053896               0.305077865               0.000000000              -0.375878247               0.327148221               0.000000000              -0.400702598               0.349218577               0.000000000              -0.425526948               0.371288933               0.000000000              -0.450351299               0.393359288               0.000000000              -0.475175649               0.415429644               0.000000000              -0.500000000               0.437500000               0.000000000              -0.094045202               0.094045202               0.000000000              -0.119417377               0.119417377               0.000000000              -0.144789552               0.144789552               0.000000000              -0.170161727               0.170161727               0.000000000              -0.195533901               0.195533901               0.000000000              -0.220906076               0.220906076               0.000000000              -0.246278251               0.246278251               0.000000000              -0.271650426               0.271650426               0.000000000              -0.297022601               0.297022601               0.000000000              -0.322394776               0.322394776               0.000000000              -0.347766951               0.347766951               0.000000000              -0.373139126               0.373139126               0.000000000              -0.398511300               0.398511300               0.000000000              -0.423883475               0.423883475               0.000000000              -0.449255650               0.449255650               0.000000000              -0.474627825               0.474627825               0.000000000              -0.500000000               0.500000000               0.000000000              -0.084374307               0.102810390               0.000000000              -0.106444663               0.127634741               0.000000000              -0.128515018               0.152459092               0.000000000              -0.150585374               0.177283442               0.000000000              -0.172655730               0.202107793               0.000000000              -0.194726086               0.226932143               0.000000000              -0.216796442               0.251756494               0.000000000              -0.238866798               0.276580845               0.000000000              -0.260937153               0.301405195               0.000000000              -0.283007509               0.326229546               0.000000000              -0.305077865               0.351053896               0.000000000              -0.327148221               0.375878247               0.000000000              -0.349218577               0.400702598               0.000000000              -0.371288933               0.425526948               0.000000000              -0.393359288               0.450351299               0.000000000              -0.415429644               0.475175649               0.000000000              -0.437500000               0.500000000               0.000000000              -0.073890841               0.110585458               0.000000000              -0.092710163               0.134923867               0.000000000              -0.111529486               0.159262276               0.000000000              -0.130348808               0.183600685               0.000000000              -0.149168131               0.207939094               0.000000000              -0.167987453               0.232277503               0.000000000              -0.186806776               0.256615912               0.000000000              -0.205626098               0.280954320               0.000000000              -0.224445420               0.305292729               0.000000000              -0.243264743               0.329631138               0.000000000              -0.262084065               0.353969547               0.000000000              -0.280903388               0.378307956               0.000000000              -0.299722710               0.402646365               0.000000000              -0.318542033               0.426984773               0.000000000              -0.337361355               0.451323182               0.000000000              -0.356180678               0.475661591               0.000000000              -0.375000000               0.500000000               0.000000000              -0.062695766               0.117295528               0.000000000              -0.078308531               0.141214558               0.000000000              -0.093921295               0.165133587               0.000000000              -0.109534060               0.189052617               0.000000000              -0.125146824               0.212971646               0.000000000              -0.140759589               0.236890676               0.000000000              -0.156372354               0.260809705               0.000000000              -0.171985118               0.284728735               0.000000000              -0.187597883               0.308647764               0.000000000              -0.203210648               0.332566794               0.000000000              -0.218823412               0.356485823               0.000000000              -0.234436177               0.380404853               0.000000000              -0.250048941               0.404323882               0.000000000              -0.265661706               0.428242912               0.000000000              -0.281274471               0.452161941               0.000000000              -0.296887235               0.476080971               0.000000000              -0.312500000               0.500000000               0.000000000              -0.050896897               0.122875978               0.000000000              -0.063340840               0.146446229               0.000000000              -0.075784784               0.170016481               0.000000000              -0.088228728               0.193586732               0.000000000              -0.100672672               0.217156983               0.000000000              -0.113116616               0.240727235               0.000000000              -0.125560560               0.264297486               0.000000000              -0.138004504               0.287867738               0.000000000              -0.150448448               0.311437989               0.000000000              -0.162892392               0.335008240               0.000000000              -0.175336336               0.358578492               0.000000000              -0.187780280               0.382148743               0.000000000              -0.200224224               0.405718994               0.000000000              -0.212668168               0.429289246               0.000000000              -0.225112112               0.452859497               0.000000000              -0.237556056               0.476429749               0.000000000              -0.250000000               0.500000000               0.000000000              -0.038607862               0.127273065               0.000000000              -0.047913621               0.150568498               0.000000000              -0.057219379               0.173863932               0.000000000              -0.066525138               0.197159365               0.000000000              -0.075830897               0.220454798               0.000000000              -0.085136655               0.243750232               0.000000000              -0.094442414               0.267045665               0.000000000              -0.103748172               0.290341099               0.000000000              -0.113053931               0.313636532               0.000000000              -0.122359690               0.336931966               0.000000000              -0.131665448               0.360227399               0.000000000              -0.140971207               0.383522833               0.000000000              -0.150276966               0.406818266               0.000000000              -0.159582724               0.430113700               0.000000000              -0.168888483               0.453409133               0.000000000              -0.178194241               0.476704567               0.000000000              -0.187500000               0.500000000               0.000000000              -0.025947013               0.130444442               0.000000000              -0.032137825               0.153541665               0.000000000              -0.038328636               0.176638887               0.000000000              -0.044519448               0.199736109               0.000000000              -0.050710260               0.222833332               0.000000000              -0.056901071               0.245930554               0.000000000              -0.063091883               0.269027776               0.000000000              -0.069282695               0.292124999               0.000000000              -0.075473506               0.315222221               0.000000000              -0.081664318               0.338319444               0.000000000              -0.087855130               0.361416666               0.000000000              -0.094045942               0.384513888               0.000000000              -0.100236753               0.407611111               0.000000000              -0.106427565               0.430708333               0.000000000              -0.112618377               0.453805555               0.000000000              -0.118809188               0.476902778               0.000000000              -0.125000000               0.500000000               0.000000000              -0.013036280               0.132359569               0.000000000              -0.016127762               0.155337096               0.000000000              -0.019219245               0.178314623               0.000000000              -0.022310727               0.201292150               0.000000000              -0.025402210               0.224269676               0.000000000              -0.028493692               0.247247203               0.000000000              -0.031585175               0.270224730               0.000000000              -0.034676657               0.293202257               0.000000000              -0.037768140               0.316179784               0.000000000              -0.040859622               0.339157311               0.000000000              -0.043951105               0.362134838               0.000000000              -0.047042587               0.385112365               0.000000000              -0.050134070               0.408089892               0.000000000              -0.053225552               0.431067419               0.000000000              -0.056317035               0.454044946               0.000000000              -0.059408517               0.477022473               0.000000000              -0.062500000               0.500000000               0.000000000               0.000000000               0.133000000               0.000000000               0.000000000               0.155937500               0.000000000               0.000000000               0.178875000               0.000000000               0.000000000               0.201812500               0.000000000               0.000000000               0.224750000               0.000000000               0.000000000               0.247687500               0.000000000               0.000000000               0.270625000               0.000000000               0.000000000               0.293562500               0.000000000               0.000000000               0.316500000               0.000000000               0.000000000               0.339437500               0.000000000               0.000000000               0.362375000               0.000000000               0.000000000               0.385312500               0.000000000               0.000000000               0.408250000               0.000000000               0.000000000               0.431187500               0.000000000               0.000000000               0.454125000               0.000000000               0.000000000               0.477062500               0.000000000               0.000000000               0.500000000               0.000000000 </DataArray>
</Points>
<Cells>
<DataArray type="Int32"                                    Name="connectivity"                                                      NumberOfComponents=" 1" format="ascii">
         0          1         18         17          1          2         19         18          2          3         20         19          3          4         21         20          4          5         22         21          5          6         23         22          6          7         24         23          7          8         25         24          8          9         26         25          9         10         27         26         10         11         28         27         11         12         29         28         12         13         30         29         13         14         31         30         14         15         32         31         15         16         33         32         17         18         35         34         18         19         36         35         19         20         37         36         20         21         38         37         21         22         39         38         22         23         40         39         23         24         41         40         24         25         42         41         25         26         43         42         26         27         44         43         27         28         45         44         28         29         46         45         29         30         47         46         30         31         48         47         31         32         49         48         32         33         50         49         34         35         52         51         35         36         53         52         36         37         54         53         37         38         55         54         38         39         56         55         39         40         57         56         40         41         58         57         41         42         59         58         42         43         60         59         43         44         61         60         44         45         62         61         45         46         63         62         46         47         64         63         47         48         65         64         48         49         66         65         49         50         67         66         51         52         69         68         52         53         70         69         53         54         71         70         54         55         72         71         55         56         73         72         56         57         74         73         57         58         75         74         58         59         76         75         59         60         77         76         60         61         78         77         61         62         79         78         62         63         80         79         63         64         81         80         64         65         82         81         65         66         83         82         66         67         84         83         68         69         86         85         69         70         87         86         70         71         88         87         71         72         89         88         72         73         90         89         73         74         91         90         74         75         92         91         75         76         93         92         76         77         94         93         77         78         95         94         78         79         96         95         79         80         97         96         80         81         98         97         81         82         99         98         82         83        100         99         83         84        101        100         85         86        103        102         86         87        104        103         87         88        105        104         88         89        106        105         89         90        107        106         90         91        108        107         91         92        109        108         92         93        110        109         93         94        111        110         94         95        112        111         95         96        113        112         96         97        114        113         97         98        115        114         98         99        116        115         99        100        117        116        100        101        118        117        102        103        120        119        103        104        121        120        104        105        122        121        105        106        123        122        106        107        124        123        107        108        125        124        108        109        126        125        109        110        127        126        110        111        128        127        111        112        129        128        112        113        130        129        113        114        131        130        114        115        132        131        115        116        133        132        116        117        134        133        117        118        135        134        119        120        137        136        120        121        138        137        121        122        139        138        122        123        140        139        123        124        141        140        124        125        142        141        125        126        143        142        126        127        144        143        127        128        145        144        128        129        146        145        129        130        147        146        130        131        148        147        131        132        149        148        132        133        150        149        133        134        151        150        134        135        152        151        136        137        154        153        137        138        155        154        138        139        156        155        139        140        157        156        140        141        158        157        141        142        159        158        142        143        160        159        143        144        161        160        144        145        162        161        145        146        163        162        146        147        164        163        147        148        165        164        148        149        166        165        149        150        167        166        150        151        168        167        151        152        169        168        153        154        171        170        154        155        172        171        155        156        173        172        156        157        174        173        157        158        175        174        158        159        176        175        159        160        177        176        160        161        178        177        161        162        179        178        162        163        180        179        163        164        181        180        164        165        182        181        165        166        183        182        166        167        184        183        167        168        185        184        168        169        186        185        170        171        188        187        171        172        189        188        172        173        190        189        173        174        191        190        174        175        192        191        175        176        193        192        176        177        194        193        177        178        195        194        178        179        196        195        179        180        197        196        180        181        198        197        181        182        199        198        182        183        200        199        183        184        201        200        184        185        202        201        185        186        203        202        187        188        205        204        188        189        206        205        189        190        207        206        190        191        208        207        191        192        209        208        192        193        210        209        193        194        211        210        194        195        212        211        195        196        213        212        196        197        214        213        197        198        215        214        198        199        216        215        199        200        217        216        200        201        218        217        201        202        219        218        202        203        220        219        204        205        222        221        205        206        223        222        206        207        224        223        207        208        225        224        208        209        226        225        209        210        227        226        210        211        228        227        211        212        229        228        212        213        230        229        213        214        231        230        214        215        232        231        215        216        233        232        216        217        234        233        217        218        235        234        218        219        236        235        219        220        237        236        221        222        239        238        222        223        240        239        223        224        241        240        224        225        242        241        225        226        243        242        226        227        244        243        227        228        245        244        228        229        246        245        229        230        247        246        230        231        248        247        231        232        249        248        232        233        250        249        233        234        251        250        234        235        252        251        235        236        253        252        236        237        254        253        238        239        256        255        239        240        257        256        240        241        258        257        241        242        259        258        242        243        260        259        243        244        261        260        244        245        262        261        245        246        263        262        246        247        264        263        247        248        265        264        248        249        266        265        249        250        267        266        250        251        268        267        251        252        269        268        252        253        270        269        253        254        271        270        255        256        273        272        256        257        274        273        257        258        275        274        258        259        276        275        259        260        277        276        260        261        278        277        261        262        279        278        262        263        280        279        263        264        281        280        264        265        282        281        265        266        283        282        266        267        284        283        267        268        285        284        268        269        286        285        269        270        287        286        270        271        288        287        306        307          1          0        307        308          2          1        308        309          3          2        309        310          4          3        310        311          5          4        311        312          6          5        312        313          7          6        313        314          8          7        314        315          9          8        315        316         10          9        316        317         11         10        317        318         12         11        318        319         13         12        319        320         14         13        320        321         15         14        321        322         16         15        323        324        307        306        324        325        308        307        325        326        309        308        326        327        310        309        327        328        311        310        328        329        312        311        329        330        313        312        330        331        314        313        331        332        315        314        332        333        316        315        333        334        317        316        334        335        318        317        335        336        319        318        336        337        320        319        337        338        321        320        338        339        322        321        340        341        324        323        341        342        325        324        342        343        326        325        343        344        327        326        344        345        328        327        345        346        329        328        346        347        330        329        347        348        331        330        348        349        332        331        349        350        333        332        350        351        334        333        351        352        335        334        352        353        336        335        353        354        337        336        354        355        338        337        355        356        339        338        357        358        341        340        358        359        342        341        359        360        343        342        360        361        344        343        361        362        345        344        362        363        346        345        363        364        347        346        364        365        348        347        365        366        349        348        366        367        350        349        367        368        351        350        368        369        352        351        369        370        353        352        370        371        354        353        371        372        355        354        372        373        356        355        374        375        358        357        375        376        359        358        376        377        360        359        377        378        361        360        378        379        362        361        379        380        363        362        380        381        364        363        381        382        365        364        382        383        366        365        383        384        367        366        384        385        368        367        385        386        369        368        386        387        370        369        387        388        371        370        388        389        372        371        389        390        373        372        391        392        375        374        392        393        376        375        393        394        377        376        394        395        378        377        395        396        379        378        396        397        380        379        397        398        381        380        398        399        382        381        399        400        383        382        400        401        384        383        401        402        385        384        402        403        386        385        403        404        387        386        404        405        388        387        405        406        389        388        406        407        390        389        408        409        392        391        409        410        393        392        410        411        394        393        411        412        395        394        412        413        396        395        413        414        397        396        414        415        398        397        415        416        399        398        416        417        400        399        417        418        401        400        418        419        402        401        419        420        403        402        420        421        404        403        421        422        405        404        422        423        406        405        423        424        407        406        425        426        409        408        426        427        410        409        427        428        411        410        428        429        412        411        429        430        413        412        430        431        414        413        431        432        415        414        432        433        416        415        433        434        417        416        434        435        418        417        435        436        419        418        436        437        420        419        437        438        421        420        438        439        422        421        439        440        423        422        440        441        424        423        442        443        426        425        443        444        427        426        444        445        428        427        445        446        429        428        446        447        430        429        447        448        431        430        448        449        432        431        449        450        433        432        450        451        434        433        451        452        435        434        452        453        436        435        453        454        437        436        454        455        438        437        455        456        439        438        456        457        440        439        457        458        441        440        459        460        443        442        460        461        444        443        461        462        445        444        462        463        446        445        463        464        447        446        464        465        448        447        465        466        449        448        466        467        450        449        467        468        451        450        468        469        452        451        469        470        453        452        470        471        454        453        471        472        455        454        472        473        456        455        473        474        457        456        474        475        458        457        476        477        460        459        477        478        461        460        478        479        462        461        479        480        463        462        480        481        464        463        481        482        465        464        482        483        466        465        483        484        467        466        484        485        468        467        485        486        469        468        486        487        470        469        487        488        471        470        488        489        472        471        489        490        473        472        490        491        474        473        491        492        475        474        493        494        477        476        494        495        478        477        495        496        479        478        496        497        480        479        497        498        481        480        498        499        482        481        499        500        483        482        500        501        484        483        501        502        485        484        502        503        486        485        503        504        487        486        504        505        488        487        505        506        489        488        506        507        490        489        507        508        491        490        508        509        492        491        510        511        494        493        511        512        495        494        512        513        496        495        513        514        497        496        514        515        498        497        515        516        499        498        516        517        500        499        517        518        501        500        518        519        502        501        519        520        503        502        520        521        504        503        521        522        505        504        522        523        506        505        523        524        507        506        524        525        508        507        525        526        509        508        527        528        511        510        528        529        512        511        529        530        513        512        530        531        514        513        531        532        515        514        532        533        516        515        533        534        517        516        534        535        518        517        535        536        519        518        536        537        520        519        537        538        521        520        538        539        522        521        539        540        523        522        540        541        524        523        541        542        525        524        542        543        526        525        544        545        528        527        545        546        529        528        546        547        530        529        547        548        531        530        548        549        532        531        549        550        533        532        550        551        534        533        551        552        535        534        552        553        536        535        553        554        537        536        554        555        538        537        555        556        539        538        556        557        540        539        557        558        541        540        558        559        542        541        559        560        543        542        561        562        545        544        562        563        546        545        563        564        547        546        564        565        548        547        565        566        549        548        566        567        550        549        567        568        551        550        568        569        552        551        569        570        553        552        570        571        554        553        571        572        555        554        572        573        556        555        573        574        557        556        574        575        558        557        575        576        559        558        576        577        560        559        578        579        596        595        579        580        597        596        580        581        598        597        581        582        599        598        582        583        600        599        583        584        601        600        584        585        602        601        585        586        603        602        586        587        604        603        587        588        605        604        588        589        606        605        589        590        607        606        590        591        608        607        591        592        609        608        592        593        610        609        593        594        611        610        595        596        613        612        596        597        614        613        597        598        615        614        598        599        616        615        599        600        617        616        600        601        618        617        601        602        619        618        602        603        620        619        603        604        621        620        604        605        622        621        605        606        623        622        606        607        624        623        607        608        625        624        608        609        626        625        609        610        627        626        610        611        628        627        612        613        630        629        613        614        631        630        614        615        632        631        615        616        633        632        616        617        634        633        617        618        635        634        618        619        636        635        619        620        637        636        620        621        638        637        621        622        639        638        622        623        640        639        623        624        641        640        624        625        642        641        625        626        643        642        626        627        644        643        627        628        645        644        629        630        647        646        630        631        648        647        631        632        649        648        632        633        650        649        633        634        651        650        634        635        652        651        635        636        653        652        636        637        654        653        637        638        655        654        638        639        656        655        639        640        657        656        640        641        658        657        641        642        659        658        642        643        660        659        643        644        661        660        644        645        662        661        646        647        664        663        647        648        665        664        648        649        666        665        649        650        667        666        650        651        668        667        651        652        669        668        652        653        670        669        653        654        671        670        654        655        672        671        655        656        673        672        656        657        674        673        657        658        675        674        658        659        676        675        659        660        677        676        660        661        678        677        661        662        679        678        663        664        681        680        664        665        682        681        665        666        683        682        666        667        684        683        667        668        685        684        668        669        686        685        669        670        687        686        670        671        688        687        671        672        689        688        672        673        690        689        673        674        691        690        674        675        692        691        675        676        693        692        676        677        694        693        677        678        695        694        678        679        696        695        680        681        698        697        681        682        699        698        682        683        700        699        683        684        701        700        684        685        702        701        685        686        703        702        686        687        704        703        687        688        705        704        688        689        706        705        689        690        707        706        690        691        708        707        691        692        709        708        692        693        710        709        693        694        711        710        694        695        712        711        695        696        713        712        697        698        715        714        698        699        716        715        699        700        717        716        700        701        718        717        701        702        719        718        702        703        720        719        703        704        721        720        704        705        722        721        705        706        723        722        706        707        724        723        707        708        725        724        708        709        726        725        709        710        727        726        710        711        728        727        711        712        729        728        712        713        730        729        714        715        732        731        715        716        733        732        716        717        734        733        717        718        735        734        718        719        736        735        719        720        737        736        720        721        738        737        721        722        739        738        722        723        740        739        723        724        741        740        724        725        742        741        725        726        743        742        726        727        744        743        727        728        745        744        728        729        746        745        729        730        747        746        731        732        749        748        732        733        750        749        733        734        751        750        734        735        752        751        735        736        753        752        736        737        754        753        737        738        755        754        738        739        756        755        739        740        757        756        740        741        758        757        741        742        759        758        742        743        760        759        743        744        761        760        744        745        762        761        745        746        763        762        746        747        764        763        748        749        766        765        749        750        767        766        750        751        768        767        751        752        769        768        752        753        770        769        753        754        771        770        754        755        772        771        755        756        773        772        756        757        774        773        757        758        775        774        758        759        776        775        759        760        777        776        760        761        778        777        761        762        779        778        762        763        780        779        763        764        781        780        765        766        783        782        766        767        784        783        767        768        785        784        768        769        786        785        769        770        787        786        770        771        788        787        771        772        789        788        772        773        790        789        773        774        791        790        774        775        792        791        775        776        793        792        776        777        794        793        777        778        795        794        778        779        796        795        779        780        797        796        780        781        798        797        782        783        800        799        783        784        801        800        784        785        802        801        785        786        803        802        786        787        804        803        787        788        805        804        788        789        806        805        789        790        807        806        790        791        808        807        791        792        809        808        792        793        810        809        793        794        811        810        794        795        812        811        795        796        813        812        796        797        814        813        797        798        815        814        799        800        817        816        800        801        818        817        801        802        819        818        802        803        820        819        803        804        821        820        804        805        822        821        805        806        823        822        806        807        824        823        807        808        825        824        808        809        826        825        809        810        827        826        810        811        828        827        811        812        829        828        812        813        830        829        813        814        831        830        814        815        832        831        816        817        834        833        817        818        835        834        818        819        836        835        819        820        837        836        820        821        838        837        821        822        839        838        822        823        840        839        823        824        841        840        824        825        842        841        825        826        843        842        826        827        844        843        827        828        845        844        828        829        846        845        829        830        847        846        830        831        848        847        831        832        849        848        833        834        562        561        834        835        563        562        835        836        564        563        836        837        565        564        837        838        566        565        838        839        567        566        839        840        568        567        840        841        569        568        841        842        570        569        842        843        571        570        843        844        572        571        844        845        573        572        845        846        574        573        846        847        575        574        847        848        576        575        848        849        577        576        884        885        579        578        885        886        580        579        886        887        581        580        887        888        582        581        888        889        583        582        889        890        584        583        890        891        585        584        891        892        586        585        892        893        587        586        893        894        588        587        894        895        589        588        895        896        590        589        896        897        591        590        897        898        592        591        898        899        593        592        899        900        594        593        901        902        885        884        902        903        886        885        903        904        887        886        904        905        888        887        905        906        889        888        906        907        890        889        907        908        891        890        908        909        892        891        909        910        893        892        910        911        894        893        911        912        895        894        912        913        896        895        913        914        897        896        914        915        898        897        915        916        899        898        916        917        900        899        918        919        902        901        919        920        903        902        920        921        904        903        921        922        905        904        922        923        906        905        923        924        907        906        924        925        908        907        925        926        909        908        926        927        910        909        927        928        911        910        928        929        912        911        929        930        913        912        930        931        914        913        931        932        915        914        932        933        916        915        933        934        917        916        935        936        919        918        936        937        920        919        937        938        921        920        938        939        922        921        939        940        923        922        940        941        924        923        941        942        925        924        942        943        926        925        943        944        927        926        944        945        928        927        945        946        929        928        946        947        930        929        947        948        931        930        948        949        932        931        949        950        933        932        950        951        934        933        952        953        936        935        953        954        937        936        954        955        938        937        955        956        939        938        956        957        940        939        957        958        941        940        958        959        942        941        959        960        943        942        960        961        944        943        961        962        945        944        962        963        946        945        963        964        947        946        964        965        948        947        965        966        949        948        966        967        950        949        967        968        951        950        969        970        953        952        970        971        954        953        971        972        955        954        972        973        956        955        973        974        957        956        974        975        958        957        975        976        959        958        976        977        960        959        977        978        961        960        978        979        962        961        979        980        963        962        980        981        964        963        981        982        965        964        982        983        966        965        983        984        967        966        984        985        968        967        986        987        970        969        987        988        971        970        988        989        972        971        989        990        973        972        990        991        974        973        991        992        975        974        992        993        976        975        993        994        977        976        994        995        978        977        995        996        979        978        996        997        980        979        997        998        981        980        998        999        982        981        999       1000        983        982       1000       1001        984        983       1001       1002        985        984       1003       1004        987        986       1004       1005        988        987       1005       1006        989        988       1006       1007        990        989       1007       1008        991        990       1008       1009        992        991       1009       1010        993        992       1010       1011        994        993       1011       1012        995        994       1012       1013        996        995       1013       1014        997        996       1014       1015        998        997       1015       1016        999        998       1016       1017       1000        999       1017       1018       1001       1000       1018       1019       1002       1001       1020       1021       1004       1003       1021       1022       1005       1004       1022       1023       1006       1005       1023       1024       1007       1006       1024       1025       1008       1007       1025       1026       1009       1008       1026       1027       1010       1009       1027       1028       1011       1010       1028       1029       1012       1011       1029       1030       1013       1012       1030       1031       1014       1013       1031       1032       1015       1014       1032       1033       1016       1015       1033       1034       1017       1016       1034       1035       1018       1017       1035       1036       1019       1018       1037       1038       1021       1020       1038       1039       1022       1021       1039       1040       1023       1022       1040       1041       1024       1023       1041       1042       1025       1024       1042       1043       1026       1025       1043       1044       1027       1026       1044       1045       1028       1027       1045       1046       1029       1028       1046       1047       1030       1029       1047       1048       1031       1030       1048       1049       1032       1031       1049       1050       1033       1032       1050       1051       1034       1033       1051       1052       1035       1034       1052       1053       1036       1035       1054       1055       1038       1037       1055       1056       1039       1038       1056       1057       1040       1039       1057       1058       1041       1040       1058       1059       1042       1041       1059       1060       1043       1042       1060       1061       1044       1043       1061       1062       1045       1044       1062       1063       1046       1045       1063       1064       1047       1046       1064       1065       1048       1047       1065       1066       1049       1048       1066       1067       1050       1049       1067       1068       1051       1050       1068       1069       1052       1051       1069       1070       1053       1052       1071       1072       1055       1054       1072       1073       1056       1055       1073       1074       1057       1056       1074       1075       1058       1057       1075       1076       1059       1058       1076       1077       1060       1059       1077       1078       1061       1060       1078       1079       1062       1061       1079       1080       1063       1062       1080       1081       1064       1063       1081       1082       1065       1064       1082       1083       1066       1065       1083       1084       1067       1066       1084       1085       1068       1067       1085       1086       1069       1068       1086       1087       1070       1069       1088       1089       1072       1071       1089       1090       1073       1072       1090       1091       1074       1073       1091       1092       1075       1074       1092       1093       1076       1075       1093       1094       1077       1076       1094       1095       1078       1077       1095       1096       1079       1078       1096       1097       1080       1079       1097       1098       1081       1080       1098       1099       1082       1081       1099       1100       1083       1082       1100       1101       1084       1083       1101       1102       1085       1084       1102       1103       1086       1085       1103       1104       1087       1086       1105       1106       1089       1088       1106       1107       1090       1089       1107       1108       1091       1090       1108       1109       1092       1091       1109       1110       1093       1092       1110       1111       1094       1093       1111       1112       1095       1094       1112       1113       1096       1095       1113       1114       1097       1096       1114       1115       1098       1097       1115       1116       1099       1098       1116       1117       1100       1099       1117       1118       1101       1100       1118       1119       1102       1101       1119       1120       1103       1102       1120       1121       1104       1103       1122       1123       1106       1105       1123       1124       1107       1106       1124       1125       1108       1107       1125       1126       1109       1108       1126       1127       1110       1109       1127       1128       1111       1110       1128       1129       1112       1111       1129       1130       1113       1112       1130       1131       1114       1113       1131       1132       1115       1114       1132       1133       1116       1115       1133       1134       1117       1116       1134       1135       1118       1117       1135       1136       1119       1118       1136       1137       1120       1119       1137       1138       1121       1120        272        273       1123       1122        273        274       1124       1123        274        275       1125       1124        275        276       1126       1125        276        277       1127       1126        277        278       1128       1127        278        279       1129       1128        279        280       1130       1129        280        281       1131       1130        281        282       1132       1131        282        283       1133       1132        283        284       1134       1133        284        285       1135       1134        285        286       1136       1135        286        287       1137       1136        287        288       1138       1137 </DataArray>
<DataArray type="Int32"                                    Name="offsets"                                                      NumberOfComponents=" 1" format="ascii">
         4          8         12         16         20         24         28         32         36         40         44         48         52         56         60         64         68         72         76         80         84         88         92         96        100        104        108        112        116        120        124        128        132        136        140        144        148        152        156        160        164        168        172        176        180        184        188        192        196        200        204        208        212        216        220        224        228        232        236        240        244        248        252        256        260        264        268        272        276        280        284        288        292        296        300        304        308        312        316        320        324        328        332        336        340        344        348        352        356        360        364        368        372        376        380        384        388        392        396        400        404        408        412        416        420        424        428        432        436        440        444        448        452        456        460        464        468        472        476        480        484        488        492        496        500        504        508        512        516        520        524        528        532        536        540        544        548        552        556        560        564        568        572        576        580        584        588        592        596        600        604        608        612        616        620        624        628        632        636        640        644        648        652        656        660        664        668        672        676        680        684        688        692        696        700        704        708        712        716        720        724        728        732        736        740        744        748        752        756        760        764        768        772        776        780        784        788        792        796        800        804        808        812        816        820        824        828        832        836        840        844        848        852        856        860        864        868        872        876        880        884        888        892        896        900        904        908        912        916        920        924        928        932        936        940        944        948        952        956        960        964        968        972        976        980        984        988        992        996       1000       1004       1008       1012       1016       1020       1024       1028       1032       1036       1040       1044       1048       1052       1056       1060       1064       1068       1072       1076       1080       1084       1088       1092       1096       1100       1104       1108       1112       1116       1120       1124       1128       1132       1136       1140       1144       1148       1152       1156       1160       1164       1168       1172       1176       1180       1184       1188       1192       1196       1200       1204       1208       1212       1216       1220       1224       1228       1232       1236       1240       1244       1248       1252       1256       1260       1264       1268       1272       1276       1280       1284       1288       1292       1296       1300       1304       1308       1312       1316       1320       1324       1328       1332       1336       1340       1344       1348       1352       1356       1360       1364       1368       1372       1376       1380       1384       1388       1392       1396       1400       1404       1408       1412       1416       1420       1424       1428       1432       1436       1440       1444       1448       1452       1456       1460       1464       1468       1472       1476       1480       1484       1488       1492       1496       1500       1504       1508       1512       1516       1520       1524       1528       1532       1536       1540       1544       1548       1552       1556       1560       1564       1568       1572       1576       1580       1584       1588       1592       1596       1600       1604       1608       1612       1616       1620       1624       1628       1632       1636       1640       1644       1648       1652       1656       1660       1664       1668       1672       1676       1680       1684       1688       1692       1696       1700       1704       1708       1712       1716       1720       1724       1728       1732       1736       1740       1744       1748       1752       1756       1760       1764       1768       1772       1776       1780       1784       1788       1792       1796       1800       1804       1808       1812       1816       1820       1824       1828       1832       1836       1840       1844       1848       1852       1856       1860       1864       1868       1872       1876       1880       1884       1888       1892       1896       1900       1904       1908       1912       1916       1920       1924       1928       1932       1936       1940       1944       1948       1952       1956       1960       1964       1968       1972       1976       1980       1984       1988       1992       1996       2000       2004       2008       2012       2016       2020       2024       2028       2032       2036       2040       2044       2048       2052       2056       2060       2064       2068       2072       2076       2080       2084       2088       2092       2096       2100       2104       2108       2112       2116       2120       2124       2128       2132       2136       2140       2144       2148       2152       2156       2160       2164       2168       2172       2176       2180       2184       2188       2192       2196       2200       2204       2208       2212       2216       2220       2224       2228       2232       2236       2240       2244       2248       2252       2256       2260       2264       2268       2272       2276       2280       2284       2288       2292       2296       2300       2304       2308       2312       2316       2320       2324       2328       2332       2336       2340       2344       2348       2352       2356       2360       2364       2368       2372       2376       2380       2384       2388       2392       2396       2400       2404       2408       2412       2416       2420       2424       2428       2432       2436       2440       2444       2448       2452       2456       2460       2464       2468       2472       2476       2480       2484       2488       2492       2496       2500       2504       2508       2512       2516       2520       2524       2528       2532       2536       2540       2544       2548       2552       2556       2560       2564       2568       2572       2576       2580       2584       2588       2592       2596       2600       2604       2608       2612       2616       2620       2624       2628       2632       2636       2640       2644       2648       2652       2656       2660       2664       2668       2672       2676       2680       2684       2688       2692       2696       2700       2704       2708       2712       2716       2720       2724       2728       2732       2736       2740       2744       2748       2752       2756       2760       2764       2768       2772       2776       2780       2784       2788       2792       2796       2800       2804       2808       2812       2816       2820       2824       2828       2832       2836       2840       2844       2848       2852       2856       2860       2864       2868       2872       2876       2880       2884       2888       2892       2896       2900       2904       2908       2912       2916       2920       2924       2928       2932       2936       2940       2944       2948       2952       2956       2960       2964       2968       2972       2976       2980       2984       2988       2992       2996       3000       3004       3008       3012       3016       3020       3024       3028       3032       3036       3040       3044       3048       3052       3056       3060       3064       3068       3072       3076       3080       3084       3088       3092       3096       3100       3104       3108       3112       3116       3120       3124       3128       3132       3136       3140       3144       3148       3152       3156       3160       3164       3168       3172       3176       3180       3184       3188       3192       3196       3200       3204       3208       3212       3216       3220       3224       3228       3232       3236       3240       3244       3248       3252       3256       3260       3264       3268       3272       3276       3280       3284       3288       3292       3296       3300       3304       3308       3312       3316       3320       3324       3328       3332       3336       3340       3344       3348       3352       3356       3360       3364       3368       3372       3376       3380       3384       3388       3392       3396       3400       3404       3408       3412       3416       3420       3424       3428       3432       3436       3440       3444       3448       3452       3456       3460       3464       3468       3472       3476       3480       3484       3488       3492       3496       3500       3504       3508       3512       3516       3520       3524       3528       3532       3536       3540       3544       3548       3552       3556       3560       3564       3568       3572       3576       3580       3584       3588       3592       3596       3600       3604       3608       3612       3616       3620       3624       3628       3632       3636       3640       3644       3648       3652       3656       3660       3664       3668       3672       3676       3680       3684       3688       3692       3696       3700       3704       3708       3712       3716       3720       3724       3728       3732       3736       3740       3744       3748       3752       3756       3760       3764       3768       3772       3776       3780       3784       3788       3792       3796       3800       3804       3808       3812       3816       3820       3824       3828       3832       3836       3840       3844       3848       3852       3856       3860       3864       3868       3872       3876       3880       3884       3888       3892       3896       3900       3904       3908       3912       3916       3920       3924       3928       3932       3936       3940       3944       3948       3952       3956       3960       3964       3968       3972       3976       3980       3984       3988       3992       3996       4000       4004       4008       4012       4016       4020       4024       4028       4032       4036       4040       4044       4048       4052       4056       4060       4064       4068       4072       4076       4080       4084       4088       4092       4096 </DataArray>
<DataArray type="UInt8"                                    Name="types"                                                      NumberOfComponents=" 1" format="ascii">
         9          9          9          9          9          9          9          9          9          9          9          9          9          9          9          9          9          9          9          9          9          9          9          9          9          9          9          9          9          9          9          9          9          9          9          9          9          9          9          9          9          9          9          9          9          9          9          9          9          9          9          9          9          9          9          9          9          9          9          9          9          9          9          9          9          9          9          9          9          9          9          9          9          9          9          9          9          9          9          9          9          9          9          9          9          9          9          9          9          9          9          9          9          9          9          9          9          9          9          9          9          9          9          9          9          9          9          9          9          9          9          9          9          9          9          9          9          9          9          9          9          9          9          9          9          9          9          9          9          9          9          9          9          9          9          9          9          9          9          9          9          9          9          9          9          9          9          9          9          9          9          9          9          9          9          9          9          9          9          9          9          9          9          9          9          9          9          9          9          9          9          9          9          9          9          9          9          9          9          9          9          9          9          9          9          9          9          9          9          9          9          9          9          9          9          9          9          9          9          9          9          9          9          9          9          9          9          9          9          9          9          9          9          9          9          9          9          9          9          9          9          9          9          9          9          9          9          9          9          9          9          9          9          9          9          9          9          9          9          9          9          9          9          9          9          9          9          9          9          9          9          9          9          9          9          9          9          9          9          9          9          9          9          9          9          9          9          9          9          9          9          9          9          9          9          9          9          9          9          9          9          9          9          9          9          9          9          9          9          9          9          9          9          9          9          9          9          9          9          9          9          9          9          9          9          9          9          9          9          9          9          9          9          9          9          9          9          9          9          9          9          9          9          9          9          9          9          9          9          9          9          9          9          9          9          9          9          9          9          9          9          9          9          9          9          9          9          9          9          9          9          9          9          9          9          9          9          9          9          9          9          9          9          9          9          9          9          9          9          9          9          9          9          9          9          9          9          9          9          9          9          9          9          9          9          9          9          9          9          9          9          9          9          9          9          9          9          9          9          9          9          9          9          9          9          9          9          9          9          9          9          9          9          9          9          9          9          9          9          9          9          9          9          9          9          9          9          9          9          9          9          9          9          9          9          9          9          9          9          9          9          9          9          9          9          9          9          9          9          9          9          9          9          9          9          9          9          9          9          9          9          9          9          9          9          9          9          9          9          9          9          9          9          9          9          9          9          9          9          9          9          9          9          9          9          9          9          9          9          9          9          9          9          9          9          9          9          9          9          9          9          9          9          9          9          9          9          9          9          9          9          9          9          9          9          9          9          9          9          9          9          9          9          9          9          9          9          9          9          9          9          9          9          9          9          9          9          9          9          9          9          9          9          9          9          9          9          9          9          9          9          9          9          9          9          9          9          9          9          9          9          9          9          9          9          9          9          9          9          9          9          9          9          9          9          9          9          9          9          9          9          9          9          9          9          9          9          9          9          9          9          9          9          9          9          9          9          9          9          9          9          9          9          9          9          9          9          9          9          9          9          9          9          9          9          9          9          9          9          9          9          9          9          9          9          9          9          9          9          9          9          9          9          9          9          9          9          9          9          9          9          9          9          9          9          9          9          9          9          9          9          9          9          9          9          9          9          9          9          9          9          9          9          9          9          9          9          9          9          9          9          9          9          9          9          9          9          9          9          9          9          9          9          9          9          9          9          9          9          9          9          9          9          9          9          9          9          9          9          9          9          9          9          9          9          9          9          9          9          9          9          9          9          9          9          9          9          9          9          9          9          9          9          9          9          9          9          9          9          9          9          9          9          9          9          9          9          9          9          9          9          9          9          9          9          9          9          9          9          9          9          9          9          9          9          9          9          9          9          9          9          9          9          9          9          9          9          9          9          9          9          9          9          9          9          9          9          9          9          9          9          9          9          9          9          9          9          9          9          9          9          9          9          9          9          9          9          9          9          9          9          9          9          9          9          9          9          9          9          9          9          9          9          9          9          9          9          9          9          9          9          9          9          9          9          9          9          9          9          9          9          9          9          9          9          9          9          9          9          9          9          9          9          9          9          9          9          9          9          9          9          9          9          9          9          9          9          9          9          9          9          9          9          9          9          9          9          9          9          9          9          9          9          9          9          9          9          9          9          9          9          9          9          9          9          9          9          9          9          9          9          9          9          9          9          9          9          9          9          9          9          9          9          9          9          9          9          9          9          9          9          9          9          9          9          9          9          9          9          9          9          9          9          9          9          9          9          9          9          9          9          9          9          9          9          9          9          9          9          9          9          9          9          9          9          9          9          9          9          9          9          9          9          9          9          9          9          9          9          9          9          9          9          9          9          9          9          9          9          9          9          9          9          9          9          9          9          9          9          9          9          9          9          9          9          9          9          9          9          9          9          9          9          9          9          9          9          9          9          9          9          9          9          9          9          9          9          9          9          9          9          9          9          9          9          9          9          9          9          9          9          9          9          9 </DataArray>
</Cells>
<CellData>
<DataArray type="Int32"                                    Name="material"                                                      NumberOfComponents=" 1" format="ascii">
         1          1          1          1          1          1          1          1          1          1          1          1          1          1          1          1          1          1          1          1          1          1          1          1          1          1          1          1          1          1          1          1          1          1          1          1          1          1          1          1          1          1          1          1          1          1          1          1          1          1          1          1          1          1          1          1          1          1          1          1          1          1          1          1          1          1          1          1          1          1          1          1          1          1          1          1          1          1          1          1          1          1          1          1          1          1          1          1          1          1          1          1          1          1          1          1          1          1          1          1          1          1          1          1          1          1          1          1          1          1          1          1          1          1          1          1          1          1          1          1          1          1          1          1          1          1          1          1          1          1          1          1          1          1          1          1          1          1          1          1          1          1          1          1          1          1          1          1          1          1          1          1          1          1          1          1          1          1          1          1          1          1          1          1          1          1          1          1          1          1          1          1          1          1          1          1          1          1          1          1          1          1          1          1          1          1          1          1          1          1          1          1          1          1          1          1          1          1          1          1          1          1          1          1          1          1          1          1          1          1          1          1          1          1          1          1          1          1          1          1          1          1          1          1          1          1          1          1          1          1          1          1          1          1          1          1          1          1          1          1          1          1          1          1          1          1          1          1          1          1          1          1          1          1          1          1          1          1          1          1          1          1          1          1          1          1          1          1          1          1          1          1          1          1          1          1          1          1          1          1          1          1          1          1          1          1          1          1          1          1          1          1          1          1          1          1          1          1          1          1          1          1          1          1          1          1          1          1          1          1          1          1          1          1          1          1          1          1          1          1          1          1          1          1          1          1          1          1          1          1          1          1          1          1          1          1          1          1          1          1          1          1          1          1          1          1          1          1          1          1          1          1          1          1          1          1          1          1          1          1          1          1          1          1          1          1          1          1          1          1          1          1          1          1          1          1          1          1          1          1          1          1          1          1          1          1          1          1          1          1          1          1          1          1          1          1          1          1          1          1          1          1          1          1          1          1          1          1          1          1          1          1          1          1          1          1          1          1          1          1          1          1          1          1          1          1          1          1          1          1          1          1          1          1          1          1          1          1          1          1          1          1          1          1          1          1          1          1          1          1          1          1          1          1          1          1          1          1          1          1          1          1          1          1          1          1          1          1          1          1          1          1          1          1          1          1          1          1          1          1          1          1          1          1          1          1          1          1          1          1          1          1          1          1          1          1          1          1          1          1          1          1          1          1          1          1          1          1          1          1          1          1          1          1          1          1          1          1          1          1          1          1          1          1          1          1          1          1          1          1          1          1          1          1          1          1          1          1          1          1          1          1          1          1          1          1          1          1          1          1          1          1          1          1          1          1          1          1          1          1          1          1          1          1          1          1          1          1          1          1          1          1          1          1          1          1          1          1          1          1          1          1          1          1          1          1          1          1          1          1          1          1          1          1          1          1          1          1          1          1          1          1          1          1          1          1          1          1          1          1          1          1          1          1          1          1          1          1          1          1          1          1          1          1          1          1          1          1          1          1          1          1          1          1          1          1          1          1          1          1          1          1          1          1          1          1          1          1          1          1          1          1          1          1          1          1          1          1          1          1          1          1          1          1          1          1          1          1          1          1          1          1          1          1          1          1          1          1          1          1          1          1          1          1          1          1          1          1          1          1          1          1          1          1          1          1          1          1          1          1          1          1          1          1          1          1          1          1          1          1          1          1          1          1          1          1          1          1          1          1          1          1          1          1          1          1          1          1          1          1          1          1          1          1          1          1          1          1          1          1          1          1          1          1          1          1          1          1          1          1          1          1          1          1          1          1          1          1          1          1          1          1          1          1          1          1          1          1          1          1          1          1          1          1          1          1          1          1          1          1          1          1          1          1          1          1          1          1          1          1          1          1          1          1          1          1          1          1          1          1          1          1          1          1          1          1          1          1          1          1          1          1          1          1          1          1          1          1          1          1          1          1          1          1          1          1          1          1          1          1          1          1          1          1          1          1          1          1          1          1          1          1          1          1          1          1          1          1          1          1          1          1          1          1          1          1          1          1          1          1          1          1          1          1          1          1          1          1          1          1          1          1          1          1          1          1          1          1          1          1          1          1          1          1          1          1          1          1          1          1          1          1          1          1          1          1          1          1          1          1          1          1          1          1          1          1          1          1          1          1          1          1          1          1          1          1          1          1          1          1          1          1          1          1          1          1          1          1          1          1          1          1          1          1          1          1          1          1          1          1          1          1          1          1          1          1          1          1          1          1          1          1          1          1          1          1          1          1          1          1          1          1          1          1          1          1          1          1          1          1          1          1          1          1          1          1          1          1          1          1          1          1          1          1          1          1          1          1          1          1          1          1          1          1          1          1          1          1          1          1          1          1          1          1          1          1          1          1          1          1          1          1          1          1          1          1          1          1          1          1          1          1          1          1 </DataArray>
</CellData>
<PointData>
<DataArray type="Float64"                                    Name="u"                                                      NumberOfComponents=" 3" format="ascii">
              0.000008756              -0.000000000               0.999999999               0.000000808              -0.000000000               0.999999999              -0.000002900              -0.000000000               0.999999999              -0.000004823               0.000000000               0.999999999              -0.000006061               0.000000000               0.999999999              -0.000007209               0.000000000               0.999999999              -0.000008566              -0.000000000               0.999999999              -0.000010247              -0.000000000               0.999999999              -0.000012371               0.000000000               0.999999999              -0.000014980              -0.000000000               0.999999999              -0.000018058              -0.000000000               0.999999999              -0.000021668              -0.000000000               0.999999999              -0.000025909              -0.000000000               0.999999999              -0.000030670              -0.000000000               0.999999999              -0.000035870              -0.000000000               0.999999999              -0.000041499              -0.000000000               0.999999999              -0.000047508              -0.000000000               0.999999999               0.000008655               0.000019763               0.999999999               0.000000982               0.000017817               0.999999999              -0.000002583               0.000017344               0.999999999              -0.000004490               0.000017750               0.999999999              -0.000005778               0.000018756               0.999999999              -0.000006988               0.000020203               0.999999999              -0.000008460               0.000022015               0.999999999              -0.000010289               0.000024055               0.999999999              -0.000012572               0.000026318               0.999999999              -0.000015353               0.000028771               0.999999999              -0.000018631               0.000031423               0.999999999              -0.000022457               0.000034278               0.999999999              -0.000026799               0.000037419               0.999999999              -0.000031669               0.000040664               0.999999999              -0.000037048               0.000044006               0.999999999              -0.000042839               0.000047361               0.999999999              -0.000049012               0.000050880               0.999999999               0.000008375               0.000039319               0.999999999               0.000001494               0.000035426               0.999999999              -0.000001704               0.000034547               0.999999999              -0.000003516               0.000035449               0.999999999              -0.000004936               0.000037532               0.999999999              -0.000006458               0.000040479               0.999999999              -0.000008291               0.000044059               0.999999999              -0.000010545               0.000048182               0.999999999              -0.000013299               0.000052735               0.999999999              -0.000016560               0.000057619               0.999999999              -0.000020349               0.000062927               0.999999999              -0.000024697               0.000068653               0.999999999              -0.000029616               0.000074811               0.999999999              -0.000035083               0.000081220               0.999999999              -0.000040936               0.000087765               0.999999999              -0.000047125               0.000094449               0.999999999              -0.000053696               0.000101404               0.999999999               0.000007994               0.000058519               0.999999999               0.000002363               0.000052655               0.999999999              -0.000000297               0.000051529               0.999999999              -0.000002062               0.000053081               0.999999999              -0.000003779               0.000056366               0.999999999              -0.000005809               0.000060858               0.999999999              -0.000008298               0.000066307               0.999999999              -0.000011291               0.000072491               0.999999999              -0.000014772               0.000079249               0.999999999              -0.000018794               0.000086605               0.999999999              -0.000023355               0.000094532               0.999999999              -0.000028515               0.000103115               0.999999999              -0.000034255               0.000112274               0.999999999              -0.000040422               0.000121623               0.999999999              -0.000046954               0.000131071               0.999999999              -0.000053792               0.000140746               0.999999999              -0.000060927               0.000150888               0.999999999               0.000007518               0.000077204               0.999999999               0.000003559               0.000069360               0.999999999               0.000001512               0.000068207               0.999999999              -0.000000364               0.000070620               0.999999999              -0.000002594               0.000075199               0.999999999              -0.000005374               0.000081355               0.999999999              -0.000008738               0.000088629               0.999999999              -0.000012610               0.000096838               0.999999999              -0.000017071               0.000105839               0.999999999              -0.000022052               0.000115615               0.999999999              -0.000027618               0.000126197               0.999999999              -0.000033816               0.000137633               0.999999999              -0.000040436               0.000149560               0.999999999              -0.000047411               0.000161610               0.999999999              -0.000054646               0.000173710               0.999999999              -0.000062143               0.000186257               0.999999999              -0.000069950               0.000199350               0.999999999               0.000006972               0.000095166               0.999999999               0.000005064               0.000085492               0.999999999               0.000003497               0.000084533               0.999999999               0.000001292               0.000087934               0.999999999              -0.000001641               0.000093932               0.999999999              -0.000005318               0.000101768               0.999999999              -0.000009654               0.000110968               0.999999999              -0.000014636               0.000121292               0.999999999              -0.000020132               0.000132550               0.999999999              -0.000026172               0.000144818               0.999999999              -0.000032818               0.000158071               0.999999999              -0.000039926               0.000172187               0.999999999              -0.000047377               0.000186668               0.999999999              -0.000055040               0.000201380               0.999999999              -0.000062995               0.000216165               0.999999999              -0.000071279               0.000231535               0.999999999              -0.000079841               0.000247478               0.999999999               0.000006411               0.000112203               0.999999999               0.000006722               0.000100983               0.999999999               0.000005427               0.000100405               0.999999999               0.000002715               0.000104905               0.999999999              -0.000001104               0.000112453               0.999999999              -0.000005760               0.000122072               0.999999999              -0.000011193               0.000133253               0.999999999              -0.000017178               0.000145679               0.999999999              -0.000023678               0.000159261               0.999999999              -0.000030805               0.000174078               0.999999999              -0.000038429               0.000190050               0.999999999              -0.000046395               0.000206712               0.999999999              -0.000054565               0.000223765               0.999999999              -0.000062972               0.000241139               0.999999999              -0.000071747               0.000258888               0.999999999              -0.000080914               0.000277352               0.999999999              -0.000090436               0.000296327               0.999999999               0.000005845               0.000128129               0.999999999               0.000008372               0.000115741               0.999999999               0.000007126               0.000115706               0.999999999               0.000003695               0.000121425               0.999999999              -0.000001067               0.000130574               0.999999999              -0.000006717               0.000142016               0.999999999              -0.000013082               0.000155272               0.999999999              -0.000019991               0.000169955               0.999999999              -0.000027517               0.000186086               0.999999999              -0.000035611               0.000203573               0.999999999              -0.000044131               0.000222299               0.999999999              -0.000052853               0.000241593               0.999999999              -0.000061829               0.000261294               0.999999999              -0.000071151               0.000281557               0.999999999              -0.000080852               0.000302546               0.999999999              -0.000090901               0.000324361               0.999999999              -0.000101353               0.000346739               0.999999999               0.000005179               0.000142636               0.999999999               0.000009938               0.000129758               0.999999999               0.000008395               0.000130346               0.999999999               0.000004169               0.000137322               0.999999999              -0.000001501               0.000148075               0.999999999              -0.000008073               0.000161461               0.999999999              -0.000015214               0.000176898               0.999999999              -0.000022960               0.000194088               0.999999999              -0.000031401               0.000212982               0.999999999              -0.000040365               0.000233405               0.999999999              -0.000049616               0.000254841               0.999999999              -0.000059120               0.000276950               0.999999999              -0.000068827               0.000299777               0.999999999              -0.000078799               0.000323659               0.999999999              -0.000089138               0.000348692               0.999999999              -0.000099882               0.000374800               0.999999999              -0.000110937               0.000401625               0.999999999               0.000004243               0.000156149               0.999999999               0.000010766               0.000144249               0.999999999               0.000010111               0.000143490               0.999999999               0.000006536               0.000148893               0.999999999               0.000001491               0.000158021               0.999999999              -0.000004389               0.000169812               0.999999999              -0.000010724               0.000183626               0.999999999              -0.000017455               0.000199143               0.999999999              -0.000024672               0.000216256               0.999999999              -0.000032500               0.000234807               0.999999999              -0.000040705               0.000254498               0.999999999              -0.000049051               0.000275130               0.999999999              -0.000057450               0.000296421               0.999999999              -0.000065856               0.000318680               0.999999999              -0.000074445               0.000342025               0.999999999              -0.000083546               0.000366757               0.999999999              -0.000093030               0.000392604               0.999999999               0.000003419               0.000168335               0.999999999               0.000010896               0.000158078               0.999999999               0.000011208               0.000156661               0.999999999               0.000008362               0.000160737               0.999999999               0.000004061               0.000168473               0.999999999              -0.000001088               0.000178780               0.999999999              -0.000006629               0.000191107               0.999999999              -0.000012440               0.000205077               0.999999999              -0.000018534               0.000220508               0.999999999              -0.000025138               0.000237317               0.999999999              -0.000032202               0.000255322               0.999999999              -0.000039292               0.000274382               0.999999999              -0.000046472               0.000294310               0.999999999              -0.000053549               0.000315046               0.999999999              -0.000060705               0.000336759               0.999999999              -0.000068217               0.000359696               0.999999999              -0.000076127               0.000383973               0.999999999               0.000002669               0.000179008               0.999999999               0.000010351               0.000170855               0.999999999               0.000011435               0.000169328               0.999999999               0.000009436               0.000172546               0.999999999               0.000005901               0.000179114               0.999999999               0.000001542               0.000188158               0.999999999              -0.000003159               0.000199168               0.999999999              -0.000008050               0.000211745               0.999999999              -0.000013121               0.000225714               0.999999999              -0.000018589               0.000240931               0.999999999              -0.000024316               0.000257392               0.999999999              -0.000030095               0.000274950               0.999999999              -0.000036007               0.000293495               0.999999999              -0.000042082               0.000312832               0.999999999              -0.000048044               0.000333013               0.999999999              -0.000053847               0.000354416               0.999999999              -0.000059818               0.000377203               0.999999999               0.000001992               0.000188013               0.999999999               0.000009175               0.000182155               0.999999999               0.000010716               0.000181015               0.999999999               0.000009505               0.000183739               0.999999999               0.000006793               0.000189474               0.999999999               0.000003293               0.000197559               0.999999999              -0.000000546               0.000207502               0.999999999              -0.000004447               0.000218938               0.999999999              -0.000008489               0.000231693               0.999999999              -0.000012805               0.000245655               0.999999999              -0.000017267               0.000260776               0.999999999              -0.000021759               0.000276985               0.999999999              -0.000026575               0.000294194               0.999999999              -0.000031550               0.000312394               0.999999999              -0.000036227               0.000331485               0.999999999              -0.000040444               0.000351622               0.999999999              -0.000044428               0.000373027               0.999999999               0.000001391               0.000195180               0.999999999               0.000007420               0.000191528               0.999999999               0.000009071               0.000191075               0.999999999               0.000008462               0.000193649               0.999999999               0.000006572               0.000198871               0.999999999               0.000003974               0.000206333               0.999999999               0.000001077               0.000215477               0.999999999              -0.000001854               0.000226052               0.999999999              -0.000004890               0.000237905               0.999999999              -0.000008009               0.000250874               0.999999999              -0.000011303               0.000264968               0.999999999              -0.000014786               0.000280057               0.999999999              -0.000018341               0.000296176               0.999999999              -0.000021966               0.000313461               0.999999999              -0.000025382               0.000331863               0.999999999              -0.000028239               0.000351290               0.999999999              -0.000030446               0.000371806               0.999999999               0.000000889               0.000200390               0.999999999               0.000005202               0.000198593               0.999999999               0.000006587               0.000198816               0.999999999               0.000006360               0.000201503               0.999999999               0.000005223               0.000206498               0.999999999               0.000003483               0.000213519               0.999999999               0.000001602               0.000222199               0.999999999              -0.000000391               0.000232181               0.999999999              -0.000002377               0.000243357               0.999999999              -0.000004506               0.000255635               0.999999999              -0.000006665               0.000268986               0.999999999              -0.000009011               0.000283442               0.999999999              -0.000011323               0.000299021               0.999999999              -0.000013566               0.000315721               0.999999999              -0.000015699               0.000333681               0.999999999              -0.000017460               0.000352767               0.999999999              -0.000018367               0.000372842               0.999999999               0.000000436               0.000203510               0.999999999               0.000002668               0.000202954               0.999999999               0.000003469               0.000203730               0.999999999               0.000003411               0.000206571               0.999999999               0.000002880               0.000211481               0.999999999               0.000002048               0.000218281               0.999999999               0.000001076               0.000226688               0.999999999               0.000000124               0.000236380               0.999999999              -0.000000920               0.000247186               0.999999999              -0.000002002               0.000259046               0.999999999              -0.000003094               0.000271963               0.999999999              -0.000004079               0.000286114               0.999999999              -0.000005294               0.000301482               0.999999999              -0.000006500               0.000317986               0.999999999              -0.000007408               0.000335803               0.999999999              -0.000008172               0.000354774               0.999999999              -0.000008528               0.000374676               0.999999999              -0.000000000               0.000204571               0.999999999              -0.000000000               0.000204451               0.999999999               0.000000000               0.000205420               0.999999999               0.000000000               0.000208308               0.999999999              -0.000000000               0.000213221               0.999999999               0.000000000               0.000219960               0.999999999               0.000000000               0.000228265               0.999999999               0.000000000               0.000237847               0.999999999              -0.000000000               0.000248552               0.999999999               0.000000000               0.000260350               0.999999999               0.000000000               0.000273218               0.999999999              -0.000000000               0.000287127               0.999999999              -0.000000000               0.000302319               0.999999999              -0.000000000               0.000318955               0.999999999               0.000000000               0.000336764               0.999999999              -0.000000000               0.000355643               0.999999999              -0.000000000               0.000375545               0.999999999               0.000008756              -0.000000000               0.999999999               0.000000808              -0.000000000               0.999999999              -0.000002900              -0.000000000               0.999999999              -0.000004823               0.000000000               0.999999999              -0.000006061               0.000000000               0.999999999              -0.000007209               0.000000000               0.999999999              -0.000008566              -0.000000000               0.999999999              -0.000010247              -0.000000000               0.999999999              -0.000012371               0.000000000               0.999999999              -0.000014980              -0.000000000               0.999999999              -0.000018058              -0.000000000               0.999999999              -0.000021668              -0.000000000               0.999999999              -0.000025909              -0.000000000               0.999999999              -0.000030670              -0.000000000               0.999999999              -0.000035870              -0.000000000               0.999999999              -0.000041499              -0.000000000               0.999999999              -0.000047508              -0.000000000               0.999999999               0.000008655              -0.000019763               0.999999999               0.000000982              -0.000017817               0.999999999              -0.000002583              -0.000017344               0.999999999              -0.000004490              -0.000017750               0.999999999              -0.000005778              -0.000018756               0.999999999              -0.000006988              -0.000020203               0.999999999              -0.000008460              -0.000022015               0.999999999              -0.000010289              -0.000024055               0.999999999              -0.000012572              -0.000026318               0.999999999              -0.000015353              -0.000028771               0.999999999              -0.000018631              -0.000031423               0.999999999              -0.000022457              -0.000034278               0.999999999              -0.000026799              -0.000037419               0.999999999              -0.000031669              -0.000040664               0.999999999              -0.000037048              -0.000044006               0.999999999              -0.000042839              -0.000047361               0.999999999              -0.000049012              -0.000050880               0.999999999               0.000008375              -0.000039319               0.999999999               0.000001494              -0.000035426               0.999999999              -0.000001704              -0.000034547               0.999999999              -0.000003516              -0.000035449               0.999999999              -0.000004936              -0.000037532               0.999999999              -0.000006458              -0.000040479               0.999999999              -0.000008291              -0.000044059               0.999999999              -0.000010545              -0.000048182               0.999999999              -0.000013299              -0.000052735               0.999999999              -0.000016560              -0.000057619               0.999999999              -0.000020349              -0.000062927               0.999999999              -0.000024697              -0.000068653               0.999999999              -0.000029616              -0.000074811               0.999999999              -0.000035083              -0.000081220               0.999999999              -0.000040936              -0.000087765               0.999999999              -0.000047125              -0.000094449               0.999999999              -0.000053696              -0.000101404               0.999999999               0.000007994              -0.000058519               0.999999999               0.000002363              -0.000052655               0.999999999              -0.000000297              -0.000051529               0.999999999              -0.000002062              -0.000053081               0.999999999              -0.000003779              -0.000056366               0.999999999              -0.000005809              -0.000060858               0.999999999              -0.000008298              -0.000066307               0.999999999              -0.000011291              -0.000072491               0.999999999              -0.000014772              -0.000079249               0.999999999              -0.000018794              -0.000086605               0.999999999              -0.000023355              -0.000094532               0.999999999              -0.000028515              -0.000103115               0.999999999              -0.000034255              -0.000112274               0.999999999              -0.000040422              -0.000121623               0.999999999              -0.000046954              -0.000131071               0.999999999              -0.000053792              -0.000140746               0.999999999              -0.000060927              -0.000150888               0.999999999               0.000007518              -0.000077204               0.999999999               0.000003559              -0.000069360               0.999999999               0.000001512              -0.000068207               0.999999999              -0.000000364              -0.000070620               0.999999999              -0.000002594              -0.000075199               0.999999999              -0.000005374              -0.000081355               0.999999999              -0.000008738              -0.000088629               0.999999999              -0.000012610              -0.000096838               0.999999999              -0.000017071              -0.000105839               0.999999999              -0.000022052              -0.000115615               0.999999999              -0.000027618              -0.000126197               0.999999999              -0.000033816              -0.000137633               0.999999999              -0.000040436              -0.000149560               0.999999999              -0.000047411              -0.000161610               0.999999999              -0.000054646              -0.000173710               0.999999999              -0.000062143              -0.000186257               0.999999999              -0.000069950              -0.000199350               0.999999999               0.000006972              -0.000095166               0.999999999               0.000005064              -0.000085492               0.999999999               0.000003497              -0.000084533               0.999999999               0.000001292              -0.000087934               0.999999999              -0.000001641              -0.000093932               0.999999999              -0.000005318              -0.000101768               0.999999999              -0.000009654              -0.000110968               0.999999999              -0.000014636              -0.000121292               0.999999999              -0.000020132              -0.000132550               0.999999999              -0.000026172              -0.000144818               0.999999999              -0.000032818              -0.000158071               0.999999999              -0.000039926              -0.000172187               0.999999999              -0.000047377              -0.000186668               0.999999999              -0.000055040              -0.000201380               0.999999999              -0.000062995              -0.000216165               0.999999999              -0.000071279              -0.000231535               0.999999999              -0.000079841              -0.000247478               0.999999999               0.000006411              -0.000112203               0.999999999               0.000006722              -0.000100983               0.999999999               0.000005427              -0.000100405               0.999999999               0.000002715              -0.000104905               0.999999999              -0.000001104              -0.000112453               0.999999999              -0.000005760              -0.000122072               0.999999999              -0.000011193              -0.000133253               0.999999999              -0.000017178              -0.000145679               0.999999999              -0.000023678              -0.000159261               0.999999999              -0.000030805              -0.000174078               0.999999999              -0.000038429              -0.000190050               0.999999999              -0.000046395              -0.000206712               0.999999999              -0.000054565              -0.000223765               0.999999999              -0.000062972              -0.000241139               0.999999999              -0.000071747              -0.000258888               0.999999999              -0.000080914              -0.000277352               0.999999999              -0.000090436              -0.000296327               0.999999999               0.000005845              -0.000128129               0.999999999               0.000008372              -0.000115741               0.999999999               0.000007126              -0.000115706               0.999999999               0.000003695              -0.000121425               0.999999999              -0.000001067              -0.000130574               0.999999999              -0.000006717              -0.000142016               0.999999999              -0.000013082              -0.000155272               0.999999999              -0.000019991              -0.000169955               0.999999999              -0.000027517              -0.000186086               0.999999999              -0.000035611              -0.000203573               0.999999999              -0.000044131              -0.000222299               0.999999999              -0.000052853              -0.000241593               0.999999999              -0.000061829              -0.000261294               0.999999999              -0.000071151              -0.000281557               0.999999999              -0.000080852              -0.000302546               0.999999999              -0.000090901              -0.000324361               0.999999999              -0.000101353              -0.000346739               0.999999999               0.000005179              -0.000142636               0.999999999               0.000009938              -0.000129758               0.999999999               0.000008395              -0.000130346               0.999999999               0.000004169              -0.000137322               0.999999999              -0.000001501              -0.000148075               0.999999999              -0.000008073              -0.000161461               0.999999999              -0.000015214              -0.000176898               0.999999999              -0.000022960              -0.000194088               0.999999999              -0.000031401              -0.000212982               0.999999999              -0.000040365              -0.000233405               0.999999999              -0.000049616              -0.000254841               0.999999999              -0.000059120              -0.000276950               0.999999999              -0.000068827              -0.000299777               0.999999999              -0.000078799              -0.000323659               0.999999999              -0.000089138              -0.000348692               0.999999999              -0.000099882              -0.000374800               0.999999999              -0.000110937              -0.000401625               0.999999999               0.000004243              -0.000156149               0.999999999               0.000010766              -0.000144249               0.999999999               0.000010111              -0.000143490               0.999999999               0.000006536              -0.000148893               0.999999999               0.000001491              -0.000158021               0.999999999              -0.000004389              -0.000169812               0.999999999              -0.000010724              -0.000183626               0.999999999              -0.000017455              -0.000199143               0.999999999              -0.000024672              -0.000216256               0.999999999              -0.000032500              -0.000234807               0.999999999              -0.000040705              -0.000254498               0.999999999              -0.000049051              -0.000275130               0.999999999              -0.000057450              -0.000296421               0.999999999              -0.000065856              -0.000318680               0.999999999              -0.000074445              -0.000342025               0.999999999              -0.000083546              -0.000366757               0.999999999              -0.000093030              -0.000392604               0.999999999               0.000003419              -0.000168335               0.999999999               0.000010896              -0.000158078               0.999999999               0.000011208              -0.000156661               0.999999999               0.000008362              -0.000160737               0.999999999               0.000004061              -0.000168473               0.999999999              -0.000001088              -0.000178780               0.999999999              -0.000006629              -0.000191107               0.999999999              -0.000012440              -0.000205077               0.999999999              -0.000018534              -0.000220508               0.999999999              -0.000025138              -0.000237317               0.999999999              -0.000032202              -0.000255322               0.999999999              -0.000039292              -0.000274382               0.999999999              -0.000046472              -0.000294310               0.999999999              -0.000053549              -0.000315046               0.999999999              -0.000060705              -0.000336759               0.999999999              -0.000068217              -0.000359696               0.999999999              -0.000076127              -0.000383973               0.999999999               0.000002669              -0.000179008               0.999999999               0.000010351              -0.000170855               0.999999999               0.000011435              -0.000169328               0.999999999               0.000009436              -0.000172546               0.999999999               0.000005901              -0.000179114               0.999999999               0.000001542              -0.000188158               0.999999999              -0.000003159              -0.000199168               0.999999999              -0.000008050              -0.000211745               0.999999999              -0.000013121              -0.000225714               0.999999999              -0.000018589              -0.000240931               0.999999999              -0.000024316              -0.000257392               0.999999999              -0.000030095              -0.000274950               0.999999999              -0.000036007              -0.000293495               0.999999999              -0.000042082              -0.000312832               0.999999999              -0.000048044              -0.000333013               0.999999999              -0.000053847              -0.000354416               0.999999999              -0.000059818              -0.000377203               0.999999999               0.000001992              -0.000188013               0.999999999               0.000009175              -0.000182155               0.999999999               0.000010716              -0.000181015               0.999999999               0.000009505              -0.000183739               0.999999999               0.000006793              -0.000189474               0.999999999               0.000003293              -0.000197559               0.999999999              -0.000000546              -0.000207502               0.999999999              -0.000004447              -0.000218938               0.999999999              -0.000008489              -0.000231693               0.999999999              -0.000012805              -0.000245655               0.999999999              -0.000017267              -0.000260776               0.999999999              -0.000021759              -0.000276985               0.999999999              -0.000026575              -0.000294194               0.999999999              -0.000031550              -0.000312394               0.999999999              -0.000036227              -0.000331485               0.999999999              -0.000040444              -0.000351622               0.999999999              -0.000044428              -0.000373027               0.999999999               0.000001391              -0.000195180               0.999999999               0.000007420              -0.000191528               0.999999999               0.000009071              -0.000191075               0.999999999               0.000008462              -0.000193649               0.999999999               0.000006572              -0.000198871               0.999999999               0.000003974              -0.000206333               0.999999999               0.000001077              -0.000215477               0.999999999              -0.000001854              -0.000226052               0.999999999              -0.000004890              -0.000237905               0.999999999              -0.000008009              -0.000250874               0.999999999              -0.000011303              -0.000264968               0.999999999              -0.000014786              -0.000280057               0.999999999              -0.000018341              -0.000296176               0.999999999              -0.000021966              -0.000313461               0.999999999              -0.000025382              -0.000331863               0.999999999              -0.000028239              -0.000351290               0.999999999              -0.000030446              -0.000371806               0.999999999               0.000000889              -0.000200390               0.999999999               0.000005202              -0.000198593               0.999999999               0.000006587              -0.000198816               0.999999999               0.000006360              -0.000201503               0.999999999               0.000005223              -0.000206498               0.999999999               0.000003483              -0.000213519               0.999999999               0.000001602              -0.000222199               0.999999999              -0.000000391              -0.000232181               0.999999999              -0.000002377              -0.000243357               0.999999999              -0.000004506              -0.000255635               0.999999999              -0.000006665              -0.000268986               0.999999999              -0.000009011              -0.000283442               0.999999999              -0.000011323              -0.000299021               0.999999999              -0.000013566              -0.000315721               0.999999999              -0.000015699              -0.000333681               0.999999999              -0.000017460              -0.000352767               0.999999999              -0.000018367              -0.000372842               0.999999999               0.000000436              -0.000203510               0.999999999               0.000002668              -0.000202954               0.999999999               0.000003469              -0.000203730               0.999999999               0.000003411              -0.000206571               0.999999999               0.000002880              -0.000211481               0.999999999               0.000002048              -0.000218281               0.999999999               0.000001076              -0.000226688               0.999999999               0.000000124              -0.000236380               0.999999999              -0.000000920              -0.000247186               0.999999999              -0.000002002              -0.000259046               0.999999999              -0.000003094              -0.000271963               0.999999999              -0.000004079              -0.000286114               0.999999999              -0.000005294              -0.000301482               0.999999999              -0.000006500              -0.000317986               0.999999999              -0.000007408              -0.000335803               0.999999999              -0.000008172              -0.000354774               0.999999999              -0.000008528              -0.000374676               0.999999999               0.000000000              -0.000204571               0.999999999              -0.000000000              -0.000204451               0.999999999              -0.000000000              -0.000205420               0.999999999              -0.000000000              -0.000208308               0.999999999               0.000000000              -0.000213221               0.999999999               0.000000000              -0.000219960               0.999999999              -0.000000000              -0.000228265               0.999999999               0.000000000              -0.000237847               0.999999999              -0.000000000              -0.000248552               0.999999999              -0.000000000              -0.000260350               0.999999999               0.000000000              -0.000273218               0.999999999               0.000000000              -0.000287127               0.999999999              -0.000000000              -0.000302319               0.999999999              -0.000000000              -0.000318955               0.999999999              -0.000000000              -0.000336764               0.999999999              -0.000000000              -0.000355643               0.999999999              -0.000000000              -0.000375545               0.999999999              -0.000008756              -0.000000000               0.999999999              -0.000000808               0.000000000               0.999999999               0.000002900               0.000000000               0.999999999               0.000004823               0.000000000               0.999999999               0.000006061               0.000000000               0.999999999               0.000007209               0.000000000               0.999999999               0.000008566               0.000000000               0.999999999               0.000010247               0.000000000               0.999999999               0.000012371               0.000000000               0.999999999               0.000014980               0.000000000               0.999999999               0.000018058               0.000000000               0.999999999               0.000021668               0.000000000               0.999999999               0.000025909               0.000000000               0.999999999               0.000030670               0.000000000               0.999999999               0.000035870               0.000000000               0.999999999               0.000041499               0.000000000               0.999999999               0.000047508               0.000000000               0.999999999              -0.000008655              -0.000019763               0.999999999              -0.000000982              -0.000017817               0.999999999               0.000002583              -0.000017344               0.999999999               0.000004490              -0.000017750               0.999999999               0.000005778              -0.000018756               0.999999999               0.000006988              -0.000020203               0.999999999               0.000008460              -0.000022015               0.999999999               0.000010289              -0.000024055               0.999999999               0.000012572              -0.000026318               0.999999999               0.000015353              -0.000028771               0.999999999               0.000018631              -0.000031423               0.999999999               0.000022457              -0.000034278               0.999999999               0.000026799              -0.000037419               0.999999999               0.000031669              -0.000040664               0.999999999               0.000037048              -0.000044006               0.999999999               0.000042839              -0.000047361               0.999999999               0.000049012              -0.000050880               0.999999999              -0.000008375              -0.000039319               0.999999999              -0.000001494              -0.000035426               0.999999999               0.000001704              -0.000034547               0.999999999               0.000003516              -0.000035449               0.999999999               0.000004936              -0.000037532               0.999999999               0.000006458              -0.000040479               0.999999999               0.000008291              -0.000044059               0.999999999               0.000010545              -0.000048182               0.999999999               0.000013299              -0.000052735               0.999999999               0.000016560              -0.000057619               0.999999999               0.000020349              -0.000062927               0.999999999               0.000024697              -0.000068653               0.999999999               0.000029616              -0.000074811               0.999999999               0.000035083              -0.000081220               0.999999999               0.000040936              -0.000087765               0.999999999               0.000047125              -0.000094449               0.999999999               0.000053696              -0.000101404               0.999999999              -0.000007994              -0.000058519               0.999999999              -0.000002363              -0.000052655               0.999999999               0.000000297              -0.000051529               0.999999999               0.000002062              -0.000053081               0.999999999               0.000003779              -0.000056366               0.999999999               0.000005809              -0.000060858               0.999999999               0.000008298              -0.000066307               0.999999999               0.000011291              -0.000072491               0.999999999               0.000014772              -0.000079249               0.999999999               0.000018794              -0.000086605               0.999999999               0.000023355              -0.000094532               0.999999999               0.000028515              -0.000103115               0.999999999               0.000034255              -0.000112274               0.999999999               0.000040422              -0.000121623               0.999999999               0.000046954              -0.000131071               0.999999999               0.000053792              -0.000140746               0.999999999               0.000060927              -0.000150888               0.999999999              -0.000007518              -0.000077204               0.999999999              -0.000003559              -0.000069360               0.999999999              -0.000001512              -0.000068207               0.999999999               0.000000364              -0.000070620               0.999999999               0.000002594              -0.000075199               0.999999999               0.000005374              -0.000081355               0.999999999               0.000008738              -0.000088629               0.999999999               0.000012610              -0.000096838               0.999999999               0.000017071              -0.000105839               0.999999999               0.000022052              -0.000115615               0.999999999               0.000027618              -0.000126197               0.999999999               0.000033816              -0.000137633               0.999999999               0.000040436              -0.000149560               0.999999999               0.000047411              -0.000161610               0.999999999               0.000054646              -0.000173710               0.999999999               0.000062143              -0.000186257               0.999999999               0.000069950              -0.000199350               0.999999999              -0.000006972              -0.000095166               0.999999999              -0.000005064              -0.000085492               0.999999999              -0.000003497              -0.000084533               0.999999999              -0.000001292              -0.000087934               0.999999999               0.000001641              -0.000093932               0.999999999               0.000005318              -0.000101768               0.999999999               0.000009654              -0.000110968               0.999999999               0.000014636              -0.000121292               0.999999999               0.000020132              -0.000132550               0.999999999               0.000026172              -0.000144818               0.999999999               0.000032818              -0.000158071               0.999999999               0.000039926              -0.000172187               0.999999999               0.000047377              -0.000186668               0.999999999               0.000055040              -0.000201380               0.999999999               0.000062995              -0.000216165               0.999999999               0.000071279              -0.000231535               0.999999999               0.000079841              -0.000247478               0.999999999              -0.000006411              -0.000112203               0.999999999              -0.000006722              -0.000100983               0.999999999              -0.000005427              -0.000100405               0.999999999              -0.000002715              -0.000104905               0.999999999               0.000001104              -0.000112453               0.999999999               0.000005760              -0.000122072               0.999999999               0.000011193              -0.000133253               0.999999999               0.000017178              -0.000145679               0.999999999               0.000023678              -0.000159261               0.999999999               0.000030805              -0.000174078               0.999999999               0.000038429              -0.000190050               0.999999999               0.000046395              -0.000206712               0.999999999               0.000054565              -0.000223765               0.999999999               0.000062972              -0.000241139               0.999999999               0.000071747              -0.000258888               0.999999999               0.000080914              -0.000277352               0.999999999               0.000090436              -0.000296327               0.999999999              -0.000005845              -0.000128129               0.999999999              -0.000008372              -0.000115741               0.999999999              -0.000007126              -0.000115706               0.999999999              -0.000003695              -0.000121425               0.999999999               0.000001067              -0.000130574               0.999999999               0.000006717              -0.000142016               0.999999999               0.000013082              -0.000155272               0.999999999               0.000019991              -0.000169955               0.999999999               0.000027517              -0.000186086               0.999999999               0.000035611              -0.000203573               0.999999999               0.000044131              -0.000222299               0.999999999               0.000052853              -0.000241593               0.999999999               0.000061829              -0.000261294               0.999999999               0.000071151              -0.000281557               0.999999999               0.000080852              -0.000302546               0.999999999               0.000090901              -0.000324361               0.999999999               0.000101353              -0.000346739               0.999999999              -0.000005179              -0.000142636               0.999999999              -0.000009938              -0.000129758               0.999999999              -0.000008395              -0.000130346               0.999999999              -0.000004169              -0.000137322               0.999999999               0.000001501              -0.000148075               0.999999999               0.000008073              -0.000161461               0.999999999               0.000015214              -0.000176898               0.999999999               0.000022960              -0.000194088               0.999999999               0.000031401              -0.000212982               0.999999999               0.000040365              -0.000233405               0.999999999               0.000049616              -0.000254841               0.999999999               0.000059120              -0.000276950               0.999999999               0.000068827              -0.000299777               0.999999999               0.000078799              -0.000323659               0.999999999               0.000089138              -0.000348692               0.999999999               0.000099882              -0.000374800               0.999999999               0.000110937              -0.000401625               0.999999999              -0.000004243              -0.000156149               0.999999999              -0.000010766              -0.000144249               0.999999999              -0.000010111              -0.000143490               0.999999999              -0.000006536              -0.000148893               0.999999999              -0.000001491              -0.000158021               0.999999999               0.000004389              -0.000169812               0.999999999               0.000010724              -0.000183626               0.999999999               0.000017455              -0.000199143               0.999999999               0.000024672              -0.000216256               0.999999999               0.000032500              -0.000234807               0.999999999               0.000040705              -0.000254498               0.999999999               0.000049051              -0.000275130               0.999999999               0.000057450              -0.000296421               0.999999999               0.000065856              -0.000318680               0.999999999               0.000074445              -0.000342025               0.999999999               0.000083546              -0.000366757               0.999999999               0.000093030              -0.000392604               0.999999999              -0.000003419              -0.000168335               0.999999999              -0.000010896              -0.000158078               0.999999999              -0.000011208              -0.000156661               0.999999999              -0.000008362              -0.000160737               0.999999999              -0.000004061              -0.000168473               0.999999999               0.000001088              -0.000178780               0.999999999               0.000006629              -0.000191107               0.999999999               0.000012440              -0.000205077               0.999999999               0.000018534              -0.000220508               0.999999999               0.000025138              -0.000237317               0.999999999               0.000032202              -0.000255322               0.999999999               0.000039292              -0.000274382               0.999999999               0.000046472              -0.000294310               0.999999999               0.000053549              -0.000315046               0.999999999               0.000060705              -0.000336759               0.999999999               0.000068217              -0.000359696               0.999999999               0.000076127              -0.000383973               0.999999999              -0.000002669              -0.000179008               0.999999999              -0.000010351              -0.000170855               0.999999999              -0.000011435              -0.000169328               0.999999999              -0.000009436              -0.000172546               0.999999999              -0.000005901              -0.000179114               0.999999999              -0.000001542              -0.000188158               0.999999999               0.000003159              -0.000199168               0.999999999               0.000008050              -0.000211745               0.999999999               0.000013121              -0.000225714               0.999999999               0.000018589              -0.000240931               0.999999999               0.000024316              -0.000257392               0.999999999               0.000030095              -0.000274950               0.999999999               0.000036007              -0.000293495               0.999999999               0.000042082              -0.000312832               0.999999999               0.000048044              -0.000333013               0.999999999               0.000053847              -0.000354416               0.999999999               0.000059818              -0.000377203               0.999999999              -0.000001992              -0.000188013               0.999999999              -0.000009175              -0.000182155               0.999999999              -0.000010716              -0.000181015               0.999999999              -0.000009505              -0.000183739               0.999999999              -0.000006793              -0.000189474               0.999999999              -0.000003293              -0.000197559               0.999999999               0.000000546              -0.000207502               0.999999999               0.000004447              -0.000218938               0.999999999               0.000008489              -0.000231693               0.999999999               0.000012805              -0.000245655               0.999999999               0.000017267              -0.000260776               0.999999999               0.000021759              -0.000276985               0.999999999               0.000026575              -0.000294194               0.999999999               0.000031550              -0.000312394               0.999999999               0.000036227              -0.000331485               0.999999999               0.000040444              -0.000351622               0.999999999               0.000044428              -0.000373027               0.999999999              -0.000001391              -0.000195180               0.999999999              -0.000007420              -0.000191528               0.999999999              -0.000009071              -0.000191075               0.999999999              -0.000008462              -0.000193649               0.999999999              -0.000006572              -0.000198871               0.999999999              -0.000003974              -0.000206333               0.999999999              -0.000001077              -0.000215477               0.999999999               0.000001854              -0.000226052               0.999999999               0.000004890              -0.000237905               0.999999999               0.000008009              -0.000250874               0.999999999               0.000011303              -0.000264968               0.999999999               0.000014786              -0.000280057               0.999999999               0.000018341              -0.000296176               0.999999999               0.000021966              -0.000313461               0.999999999               0.000025382              -0.000331863               0.999999999               0.000028239              -0.000351290               0.999999999               0.000030446              -0.000371806               0.999999999              -0.000000889              -0.000200390               0.999999999              -0.000005202              -0.000198593               0.999999999              -0.000006587              -0.000198816               0.999999999              -0.000006360              -0.000201503               0.999999999              -0.000005223              -0.000206498               0.999999999              -0.000003483              -0.000213519               0.999999999              -0.000001602              -0.000222199               0.999999999               0.000000391              -0.000232181               0.999999999               0.000002377              -0.000243357               0.999999999               0.000004506              -0.000255635               0.999999999               0.000006665              -0.000268986               0.999999999               0.000009011              -0.000283442               0.999999999               0.000011323              -0.000299021               0.999999999               0.000013566              -0.000315721               0.999999999               0.000015699              -0.000333681               0.999999999               0.000017460              -0.000352767               0.999999999               0.000018367              -0.000372842               0.999999999              -0.000000436              -0.000203510               0.999999999              -0.000002668              -0.000202954               0.999999999              -0.000003469              -0.000203730               0.999999999              -0.000003411              -0.000206571               0.999999999              -0.000002880              -0.000211481               0.999999999              -0.000002048              -0.000218281               0.999999999              -0.000001076              -0.000226688               0.999999999              -0.000000124              -0.000236380               0.999999999               0.000000920              -0.000247186               0.999999999               0.000002002              -0.000259046               0.999999999               0.000003094              -0.000271963               0.999999999               0.000004079              -0.000286114               0.999999999               0.000005294              -0.000301482               0.999999999               0.000006500              -0.000317986               0.999999999               0.000007408              -0.000335803               0.999999999               0.000008172              -0.000354774               0.999999999               0.000008528              -0.000374676               0.999999999               0.000000000              -0.000204571               0.999999999              -0.000000000              -0.000204451               0.999999999              -0.000000000              -0.000205420               0.999999999              -0.000000000              -0.000208308               0.999999999               0.000000000              -0.000213221               0.999999999               0.000000000              -0.000219960               0.999999999              -0.000000000              -0.000228265               0.999999999               0.000000000              -0.000237847               0.999999999              -0.000000000              -0.000248552               0.999999999              -0.000000000              -0.000260350               0.999999999               0.000000000              -0.000273218               0.999999999               0.000000000              -0.000287127               0.999999999              -0.000000000              -0.000302319               0.999999999              -0.000000000              -0.000318955               0.999999999              -0.000000000              -0.000336764               0.999999999              -0.000000000              -0.000355643               0.999999999              -0.000000000              -0.000375545               0.999999999              -0.000008756              -0.000000000               0.999999999              -0.000000808               0.000000000               0.999999999               0.000002900               0.000000000               0.999999999               0.000004823               0.000000000               0.999999999               0.000006061               0.000000000               0.999999999               0.000007209               0.000000000               0.999999999               0.000008566               0.000000000               0.999999999               0.000010247               0.000000000               0.999999999               0.000012371               0.000000000               0.999999999               0.000014980               0.000000000               0.999999999               0.000018058               0.000000000               0.999999999               0.000021668               0.000000000               0.999999999               0.000025909               0.000000000               0.999999999               0.000030670               0.000000000               0.999999999               0.000035870               0.000000000               0.999999999               0.000041499               0.000000000               0.999999999               0.000047508               0.000000000               0.999999999              -0.000008655               0.000019763               0.999999999              -0.000000982               0.000017817               0.999999999               0.000002583               0.000017344               0.999999999               0.000004490               0.000017750               0.999999999               0.000005778               0.000018756               0.999999999               0.000006988               0.000020203               0.999999999               0.000008460               0.000022015               0.999999999               0.000010289               0.000024055               0.999999999               0.000012572               0.000026318               0.999999999               0.000015353               0.000028771               0.999999999               0.000018631               0.000031423               0.999999999               0.000022457               0.000034278               0.999999999               0.000026799               0.000037419               0.999999999               0.000031669               0.000040664               0.999999999               0.000037048               0.000044006               0.999999999               0.000042839               0.000047361               0.999999999               0.000049012               0.000050880               0.999999999              -0.000008375               0.000039319               0.999999999              -0.000001494               0.000035426               0.999999999               0.000001704               0.000034547               0.999999999               0.000003516               0.000035449               0.999999999               0.000004936               0.000037532               0.999999999               0.000006458               0.000040479               0.999999999               0.000008291               0.000044059               0.999999999               0.000010545               0.000048182               0.999999999               0.000013299               0.000052735               0.999999999               0.000016560               0.000057619               0.999999999               0.000020349               0.000062927               0.999999999               0.000024697               0.000068653               0.999999999               0.000029616               0.000074811               0.999999999               0.000035083               0.000081220               0.999999999               0.000040936               0.000087765               0.999999999               0.000047125               0.000094449               0.999999999               0.000053696               0.000101404               0.999999999              -0.000007994               0.000058519               0.999999999              -0.000002363               0.000052655               0.999999999               0.000000297               0.000051529               0.999999999               0.000002062               0.000053081               0.999999999               0.000003779               0.000056366               0.999999999               0.000005809               0.000060858               0.999999999               0.000008298               0.000066307               0.999999999               0.000011291               0.000072491               0.999999999               0.000014772               0.000079249               0.999999999               0.000018794               0.000086605               0.999999999               0.000023355               0.000094532               0.999999999               0.000028515               0.000103115               0.999999999               0.000034255               0.000112274               0.999999999               0.000040422               0.000121623               0.999999999               0.000046954               0.000131071               0.999999999               0.000053792               0.000140746               0.999999999               0.000060927               0.000150888               0.999999999              -0.000007518               0.000077204               0.999999999              -0.000003559               0.000069360               0.999999999              -0.000001512               0.000068207               0.999999999               0.000000364               0.000070620               0.999999999               0.000002594               0.000075199               0.999999999               0.000005374               0.000081355               0.999999999               0.000008738               0.000088629               0.999999999               0.000012610               0.000096838               0.999999999               0.000017071               0.000105839               0.999999999               0.000022052               0.000115615               0.999999999               0.000027618               0.000126197               0.999999999               0.000033816               0.000137633               0.999999999               0.000040436               0.000149560               0.999999999               0.000047411               0.000161610               0.999999999               0.000054646               0.000173710               0.999999999               0.000062143               0.000186257               0.999999999               0.000069950               0.000199350               0.999999999              -0.000006972               0.000095166               0.999999999              -0.000005064               0.000085492               0.999999999              -0.000003497               0.000084533               0.999999999              -0.000001292               0.000087934               0.999999999               0.000001641               0.000093932               0.999999999               0.000005318               0.000101768               0.999999999               0.000009654               0.000110968               0.999999999               0.000014636               0.000121292               0.999999999               0.000020132               0.000132550               0.999999999               0.000026172               0.000144818               0.999999999               0.000032818               0.000158071               0.999999999               0.000039926               0.000172187               0.999999999               0.000047377               0.000186668               0.999999999               0.000055040               0.000201380               0.999999999               0.000062995               0.000216165               0.999999999               0.000071279               0.000231535               0.999999999               0.000079841               0.000247478               0.999999999              -0.000006411               0.000112203               0.999999999              -0.000006722               0.000100983               0.999999999              -0.000005427               0.000100405               0.999999999              -0.000002715               0.000104905               0.999999999               0.000001104               0.000112453               0.999999999               0.000005760               0.000122072               0.999999999               0.000011193               0.000133253               0.999999999               0.000017178               0.000145679               0.999999999               0.000023678               0.000159261               0.999999999               0.000030805               0.000174078               0.999999999               0.000038429               0.000190050               0.999999999               0.000046395               0.000206712               0.999999999               0.000054565               0.000223765               0.999999999               0.000062972               0.000241139               0.999999999               0.000071747               0.000258888               0.999999999               0.000080914               0.000277352               0.999999999               0.000090436               0.000296327               0.999999999              -0.000005845               0.000128129               0.999999999              -0.000008372               0.000115741               0.999999999              -0.000007126               0.000115706               0.999999999              -0.000003695               0.000121425               0.999999999               0.000001067               0.000130574               0.999999999               0.000006717               0.000142016               0.999999999               0.000013082               0.000155272               0.999999999               0.000019991               0.000169955               0.999999999               0.000027517               0.000186086               0.999999999               0.000035611               0.000203573               0.999999999               0.000044131               0.000222299               0.999999999               0.000052853               0.000241593               0.999999999               0.000061829               0.000261294               0.999999999               0.000071151               0.000281557               0.999999999               0.000080852               0.000302546               0.999999999               0.000090901               0.000324361               0.999999999               0.000101353               0.000346739               0.999999999              -0.000005179               0.000142636               0.999999999              -0.000009938               0.000129758               0.999999999              -0.000008395               0.000130346               0.999999999              -0.000004169               0.000137322               0.999999999               0.000001501               0.000148075               0.999999999               0.000008073               0.000161461               0.999999999               0.000015214               0.000176898               0.999999999               0.000022960               0.000194088               0.999999999               0.000031401               0.000212982               0.999999999               0.000040365               0.000233405               0.999999999               0.000049616               0.000254841               0.999999999               0.000059120               0.000276950               0.999999999               0.000068827               0.000299777               0.999999999               0.000078799               0.000323659               0.999999999               0.000089138               0.000348692               0.999999999               0.000099882               0.000374800               0.999999999               0.000110937               0.000401625               0.999999999              -0.000004243               0.000156149               0.999999999              -0.000010766               0.000144249               0.999999999              -0.000010111               0.000143490               0.999999999              -0.000006536               0.000148893               0.999999999              -0.000001491               0.000158021               0.999999999               0.000004389               0.000169812               0.999999999               0.000010724               0.000183626               0.999999999               0.000017455               0.000199143               0.999999999               0.000024672               0.000216256               0.999999999               0.000032500               0.000234807               0.999999999               0.000040705               0.000254498               0.999999999               0.000049051               0.000275130               0.999999999               0.000057450               0.000296421               0.999999999               0.000065856               0.000318680               0.999999999               0.000074445               0.000342025               0.999999999               0.000083546               0.000366757               0.999999999               0.000093030               0.000392604               0.999999999              -0.000003419               0.000168335               0.999999999              -0.000010896               0.000158078               0.999999999              -0.000011208               0.000156661               0.999999999              -0.000008362               0.000160737               0.999999999              -0.000004061               0.000168473               0.999999999               0.000001088               0.000178780               0.999999999               0.000006629               0.000191107               0.999999999               0.000012440               0.000205077               0.999999999               0.000018534               0.000220508               0.999999999               0.000025138               0.000237317               0.999999999               0.000032202               0.000255322               0.999999999               0.000039292               0.000274382               0.999999999               0.000046472               0.000294310               0.999999999               0.000053549               0.000315046               0.999999999               0.000060705               0.000336759               0.999999999               0.000068217               0.000359696               0.999999999               0.000076127               0.000383973               0.999999999              -0.000002669               0.000179008               0.999999999              -0.000010351               0.000170855               0.999999999              -0.000011435               0.000169328               0.999999999              -0.000009436               0.000172546               0.999999999              -0.000005901               0.000179114               0.999999999              -0.000001542               0.000188158               0.999999999               0.000003159               0.000199168               0.999999999               0.000008050               0.000211745               0.999999999               0.000013121               0.000225714               0.999999999               0.000018589               0.000240931               0.999999999               0.000024316               0.000257392               0.999999999               0.000030095               0.000274950               0.999999999               0.000036007               0.000293495               0.999999999               0.000042082               0.000312832               0.999999999               0.000048044               0.000333013               0.999999999               0.000053847               0.000354416               0.999999999               0.000059818               0.000377203               0.999999999              -0.000001992               0.000188013               0.999999999              -0.000009175               0.000182155               0.999999999              -0.000010716               0.000181015               0.999999999              -0.000009505               0.000183739               0.999999999              -0.000006793               0.000189474               0.999999999              -0.000003293               0.000197559               0.999999999               0.000000546               0.000207502               0.999999999               0.000004447               0.000218938               0.999999999               0.000008489               0.000231693               0.999999999               0.000012805               0.000245655               0.999999999               0.000017267               0.000260776               0.999999999               0.000021759               0.000276985               0.999999999               0.000026575               0.000294194               0.999999999               0.000031550               0.000312394               0.999999999               0.000036227               0.000331485               0.999999999               0.000040444               0.000351622               0.999999999               0.000044428               0.000373027               0.999999999              -0.000001391               0.000195180               0.999999999              -0.000007420               0.000191528               0.999999999              -0.000009071               0.000191075               0.999999999              -0.000008462               0.000193649               0.999999999              -0.000006572               0.000198871               0.999999999              -0.000003974               0.000206333               0.999999999              -0.000001077               0.000215477               0.999999999               0.000001854               0.000226052               0.999999999               0.000004890               0.000237905               0.999999999               0.000008009               0.000250874               0.999999999               0.000011303               0.000264968               0.999999999               0.000014786               0.000280057               0.999999999               0.000018341               0.000296176               0.999999999               0.000021966               0.000313461               0.999999999               0.000025382               0.000331863               0.999999999               0.000028239               0.000351290               0.999999999               0.000030446               0.000371806               0.999999999              -0.000000889               0.000200390               0.999999999              -0.000005202               0.000198593               0.999999999              -0.000006587               0.000198816               0.999999999              -0.000006360               0.000201503               0.999999999              -0.000005223               0.000206498               0.999999999              -0.000003483               0.000213519               0.999999999              -0.000001602               0.000222199               0.999999999               0.000000391               0.000232181               0.999999999               0.000002377               0.000243357               0.999999999               0.000004506               0.000255635               0.999999999               0.000006665               0.000268986               0.999999999               0.000009011               0.000283442               0.999999999               0.000011323               0.000299021               0.999999999               0.000013566               0.000315721               0.999999999               0.000015699               0.000333681               0.999999999               0.000017460               0.000352767               0.999999999               0.000018367               0.000372842               0.999999999              -0.000000436               0.000203510               0.999999999              -0.000002668               0.000202954               0.999999999              -0.000003469               0.000203730               0.999999999              -0.000003411               0.000206571               0.999999999              -0.000002880               0.000211481               0.999999999              -0.000002048               0.000218281               0.999999999              -0.000001076               0.000226688               0.999999999              -0.000000124               0.000236380               0.999999999               0.000000920               0.000247186               0.999999999               0.000002002               0.000259046               0.999999999               0.000003094               0.000271963               0.999999999               0.000004079               0.000286114               0.999999999               0.000005294               0.000301482               0.999999999               0.000006500               0.000317986               0.999999999               0.000007408               0.000335803               0.999999999               0.000008172               0.000354774               0.999999999               0.000008528               0.000374676               0.999999999              -0.000000000               0.000204571               0.999999999              -0.000000000               0.000204451               0.999999999               0.000000000               0.000205420               0.999999999               0.000000000               0.000208308               0.999999999              -0.000000000               0.000213221               0.999999999               0.000000000               0.000219960               0.999999999               0.000000000               0.000228265               0.999999999               0.000000000               0.000237847               0.999999999              -0.000000000               0.000248552               0.999999999               0.000000000               0.000260350               0.999999999               0.000000000               0.000273218               0.999999999              -0.000000000               0.000287127               0.999999999              -0.000000000               0.000302319               0.999999999              -0.000000000               0.000318955               0.999999999               0.000000000               0.000336764               0.999999999              -0.000000000               0.000355643               0.999999999              -0.000000000               0.000375545               0.999999999 </DataArray>
<DataArray type="Float64"                                    Name="defo"                                                      NumberOfComponents=" 3" format="ascii">
              0.000008756              -0.000000000               0.999999999               0.000000808              -0.000000000               0.999999999              -0.000002900              -0.000000000               0.999999999              -0.000004823               0.000000000               0.999999999              -0.000006061               0.000000000               0.999999999              -0.000007209               0.000000000               0.999999999              -0.000008566              -0.000000000               0.999999999              -0.000010247              -0.000000000               0.999999999              -0.000012371               0.000000000               0.999999999              -0.000014980              -0.000000000               0.999999999              -0.000018058              -0.000000000               0.999999999              -0.000021668              -0.000000000               0.999999999              -0.000025909              -0.000000000               0.999999999              -0.000030670              -0.000000000               0.999999999              -0.000035870              -0.000000000               0.999999999              -0.000041499              -0.000000000               0.999999999              -0.000047508              -0.000000000               0.999999999               0.000008655               0.000019763               0.999999999               0.000000982               0.000017817               0.999999999              -0.000002583               0.000017344               0.999999999              -0.000004490               0.000017750               0.999999999              -0.000005778               0.000018756               0.999999999              -0.000006988               0.000020203               0.999999999              -0.000008460               0.000022015               0.999999999              -0.000010289               0.000024055               0.999999999              -0.000012572               0.000026318               0.999999999              -0.000015353               0.000028771               0.999999999              -0.000018631               0.000031423               0.999999999              -0.000022457               0.000034278               0.999999999              -0.000026799               0.000037419               0.999999999              -0.000031669               0.000040664               0.999999999              -0.000037048               0.000044006               0.999999999              -0.000042839               0.000047361               0.999999999              -0.000049012               0.000050880               0.999999999               0.000008375               0.000039319               0.999999999               0.000001494               0.000035426               0.999999999              -0.000001704               0.000034547               0.999999999              -0.000003516               0.000035449               0.999999999              -0.000004936               0.000037532               0.999999999              -0.000006458               0.000040479               0.999999999              -0.000008291               0.000044059               0.999999999              -0.000010545               0.000048182               0.999999999              -0.000013299               0.000052735               0.999999999              -0.000016560               0.000057619               0.999999999              -0.000020349               0.000062927               0.999999999              -0.000024697               0.000068653               0.999999999              -0.000029616               0.000074811               0.999999999              -0.000035083               0.000081220               0.999999999              -0.000040936               0.000087765               0.999999999              -0.000047125               0.000094449               0.999999999              -0.000053696               0.000101404               0.999999999               0.000007994               0.000058519               0.999999999               0.000002363               0.000052655               0.999999999              -0.000000297               0.000051529               0.999999999              -0.000002062               0.000053081               0.999999999              -0.000003779               0.000056366               0.999999999              -0.000005809               0.000060858               0.999999999              -0.000008298               0.000066307               0.999999999              -0.000011291               0.000072491               0.999999999              -0.000014772               0.000079249               0.999999999              -0.000018794               0.000086605               0.999999999              -0.000023355               0.000094532               0.999999999              -0.000028515               0.000103115               0.999999999              -0.000034255               0.000112274               0.999999999              -0.000040422               0.000121623               0.999999999              -0.000046954               0.000131071               0.999999999              -0.000053792               0.000140746               0.999999999              -0.000060927               0.000150888               0.999999999               0.000007518               0.000077204               0.999999999               0.000003559               0.000069360               0.999999999               0.000001512               0.000068207               0.999999999              -0.000000364               0.000070620               0.999999999              -0.000002594               0.000075199               0.999999999              -0.000005374               0.000081355               0.999999999              -0.000008738               0.000088629               0.999999999              -0.000012610               0.000096838               0.999999999              -0.000017071               0.000105839               0.999999999              -0.000022052               0.000115615               0.999999999              -0.000027618               0.000126197               0.999999999              -0.000033816               0.000137633               0.999999999              -0.000040436               0.000149560               0.999999999              -0.000047411               0.000161610               0.999999999              -0.000054646               0.000173710               0.999999999              -0.000062143               0.000186257               0.999999999              -0.000069950               0.000199350               0.999999999               0.000006972               0.000095166               0.999999999               0.000005064               0.000085492               0.999999999               0.000003497               0.000084533               0.999999999               0.000001292               0.000087934               0.999999999              -0.000001641               0.000093932               0.999999999              -0.000005318               0.000101768               0.999999999              -0.000009654               0.000110968               0.999999999              -0.000014636               0.000121292               0.999999999              -0.000020132               0.000132550               0.999999999              -0.000026172               0.000144818               0.999999999              -0.000032818               0.000158071               0.999999999              -0.000039926               0.000172187               0.999999999              -0.000047377               0.000186668               0.999999999              -0.000055040               0.000201380               0.999999999              -0.000062995               0.000216165               0.999999999              -0.000071279               0.000231535               0.999999999              -0.000079841               0.000247478               0.999999999               0.000006411               0.000112203               0.999999999               0.000006722               0.000100983               0.999999999               0.000005427               0.000100405               0.999999999               0.000002715               0.000104905               0.999999999              -0.000001104               0.000112453               0.999999999              -0.000005760               0.000122072               0.999999999              -0.000011193               0.000133253               0.999999999              -0.000017178               0.000145679               0.999999999              -0.000023678               0.000159261               0.999999999              -0.000030805               0.000174078               0.999999999              -0.000038429               0.000190050               0.999999999              -0.000046395               0.000206712               0.999999999              -0.000054565               0.000223765               0.999999999              -0.000062972               0.000241139               0.999999999              -0.000071747               0.000258888               0.999999999              -0.000080914               0.000277352               0.999999999              -0.000090436               0.000296327               0.999999999               0.000005845               0.000128129               0.999999999               0.000008372               0.000115741               0.999999999               0.000007126               0.000115706               0.999999999               0.000003695               0.000121425               0.999999999              -0.000001067               0.000130574               0.999999999              -0.000006717               0.000142016               0.999999999              -0.000013082               0.000155272               0.999999999              -0.000019991               0.000169955               0.999999999              -0.000027517               0.000186086               0.999999999              -0.000035611               0.000203573               0.999999999              -0.000044131               0.000222299               0.999999999              -0.000052853               0.000241593               0.999999999              -0.000061829               0.000261294               0.999999999              -0.000071151               0.000281557               0.999999999              -0.000080852               0.000302546               0.999999999              -0.000090901               0.000324361               0.999999999              -0.000101353               0.000346739               0.999999999               0.000005179               0.000142636               0.999999999               0.000009938               0.000129758               0.999999999               0.000008395               0.000130346               0.999999999               0.000004169               0.000137322               0.999999999              -0.000001501               0.000148075               0.999999999              -0.000008073               0.000161461               0.999999999              -0.000015214               0.000176898               0.999999999              -0.000022960               0.000194088               0.999999999              -0.000031401               0.000212982               0.999999999              -0.000040365               0.000233405               0.999999999              -0.000049616               0.000254841               0.999999999              -0.000059120               0.000276950               0.999999999              -0.000068827               0.000299777               0.999999999              -0.000078799               0.000323659               0.999999999              -0.000089138               0.000348692               0.999999999              -0.000099882               0.000374800               0.999999999              -0.000110937               0.000401625               0.999999999               0.000004243               0.000156149               0.999999999               0.000010766               0.000144249               0.999999999               0.000010111               0.000143490               0.999999999               0.000006536               0.000148893               0.999999999               0.000001491               0.000158021               0.999999999              -0.000004389               0.000169812               0.999999999              -0.000010724               0.000183626               0.999999999              -0.000017455               0.000199143               0.999999999              -0.000024672               0.000216256               0.999999999              -0.000032500               0.000234807               0.999999999              -0.000040705               0.000254498               0.999999999              -0.000049051               0.000275130               0.999999999              -0.000057450               0.000296421               0.999999999              -0.000065856               0.000318680               0.999999999              -0.000074445               0.000342025               0.999999999              -0.000083546               0.000366757               0.999999999              -0.000093030               0.000392604               0.999999999               0.000003419               0.000168335               0.999999999               0.000010896               0.000158078               0.999999999               0.000011208               0.000156661               0.999999999               0.000008362               0.000160737               0.999999999               0.000004061               0.000168473               0.999999999              -0.000001088               0.000178780               0.999999999              -0.000006629               0.000191107               0.999999999              -0.000012440               0.000205077               0.999999999              -0.000018534               0.000220508               0.999999999              -0.000025138               0.000237317               0.999999999              -0.000032202               0.000255322               0.999999999              -0.000039292               0.000274382               0.999999999              -0.000046472               0.000294310               0.999999999              -0.000053549               0.000315046               0.999999999              -0.000060705               0.000336759               0.999999999              -0.000068217               0.000359696               0.999999999              -0.000076127               0.000383973               0.999999999               0.000002669               0.000179008               0.999999999               0.000010351               0.000170855               0.999999999               0.000011435               0.000169328               0.999999999               0.000009436               0.000172546               0.999999999               0.000005901               0.000179114               0.999999999               0.000001542               0.000188158               0.999999999              -0.000003159               0.000199168               0.999999999              -0.000008050               0.000211745               0.999999999              -0.000013121               0.000225714               0.999999999              -0.000018589               0.000240931               0.999999999              -0.000024316               0.000257392               0.999999999              -0.000030095               0.000274950               0.999999999              -0.000036007               0.000293495               0.999999999              -0.000042082               0.000312832               0.999999999              -0.000048044               0.000333013               0.999999999              -0.000053847               0.000354416               0.999999999              -0.000059818               0.000377203               0.999999999               0.000001992               0.000188013               0.999999999               0.000009175               0.000182155               0.999999999               0.000010716               0.000181015               0.999999999               0.000009505               0.000183739               0.999999999               0.000006793               0.000189474               0.999999999               0.000003293               0.000197559               0.999999999              -0.000000546               0.000207502               0.999999999              -0.000004447               0.000218938               0.999999999              -0.000008489               0.000231693               0.999999999              -0.000012805               0.000245655               0.999999999              -0.000017267               0.000260776               0.999999999              -0.000021759               0.000276985               0.999999999              -0.000026575               0.000294194               0.999999999              -0.000031550               0.000312394               0.999999999              -0.000036227               0.000331485               0.999999999              -0.000040444               0.000351622               0.999999999              -0.000044428               0.000373027               0.999999999               0.000001391               0.000195180               0.999999999               0.000007420               0.000191528               0.999999999               0.000009071               0.000191075               0.999999999               0.000008462               0.000193649               0.999999999               0.000006572               0.000198871               0.999999999               0.000003974               0.000206333               0.999999999               0.000001077               0.000215477               0.999999999              -0.000001854               0.000226052               0.999999999              -0.000004890               0.000237905               0.999999999              -0.000008009               0.000250874               0.999999999              -0.000011303               0.000264968               0.999999999              -0.000014786               0.000280057               0.999999999              -0.000018341               0.000296176               0.999999999              -0.000021966               0.000313461               0.999999999              -0.000025382               0.000331863               0.999999999              -0.000028239               0.000351290               0.999999999              -0.000030446               0.000371806               0.999999999               0.000000889               0.000200390               0.999999999               0.000005202               0.000198593               0.999999999               0.000006587               0.000198816               0.999999999               0.000006360               0.000201503               0.999999999               0.000005223               0.000206498               0.999999999               0.000003483               0.000213519               0.999999999               0.000001602               0.000222199               0.999999999              -0.000000391               0.000232181               0.999999999              -0.000002377               0.000243357               0.999999999              -0.000004506               0.000255635               0.999999999              -0.000006665               0.000268986               0.999999999              -0.000009011               0.000283442               0.999999999              -0.000011323               0.000299021               0.999999999              -0.000013566               0.000315721               0.999999999              -0.000015699               0.000333681               0.999999999              -0.000017460               0.000352767               0.999999999              -0.000018367               0.000372842               0.999999999               0.000000436               0.000203510               0.999999999               0.000002668               0.000202954               0.999999999               0.000003469               0.000203730               0.999999999               0.000003411               0.000206571               0.999999999               0.000002880               0.000211481               0.999999999               0.000002048               0.000218281               0.999999999               0.000001076               0.000226688               0.999999999               0.000000124               0.000236380               0.999999999              -0.000000920               0.000247186               0.999999999              -0.000002002               0.000259046               0.999999999              -0.000003094               0.000271963               0.999999999              -0.000004079               0.000286114               0.999999999              -0.000005294               0.000301482               0.999999999              -0.000006500               0.000317986               0.999999999              -0.000007408               0.000335803               0.999999999              -0.000008172               0.000354774               0.999999999              -0.000008528               0.000374676               0.999999999              -0.000000000               0.000204571               0.999999999              -0.000000000               0.000204451               0.999999999               0.000000000               0.000205420               0.999999999               0.000000000               0.000208308               0.999999999              -0.000000000               0.000213221               0.999999999               0.000000000               0.000219960               0.999999999               0.000000000               0.000228265               0.999999999               0.000000000               0.000237847               0.999999999              -0.000000000               0.000248552               0.999999999               0.000000000               0.000260350               0.999999999               0.000000000               0.000273218               0.999999999              -0.000000000               0.000287127               0.999999999              -0.000000000               0.000302319               0.999999999              -0.000000000               0.000318955               0.999999999               0.000000000               0.000336764               0.999999999              -0.000000000               0.000355643               0.999999999              -0.000000000               0.000375545               0.999999999               0.000008756              -0.000000000               0.999999999               0.000000808              -0.000000000               0.999999999              -0.000002900              -0.000000000               0.999999999              -0.000004823               0.000000000               0.999999999              -0.000006061               0.000000000               0.999999999              -0.000007209               0.000000000               0.999999999              -0.000008566              -0.000000000               0.999999999              -0.000010247              -0.000000000               0.999999999              -0.000012371               0.000000000               0.999999999              -0.000014980              -0.000000000               0.999999999              -0.000018058              -0.000000000               0.999999999              -0.000021668              -0.000000000               0.999999999              -0.000025909              -0.000000000               0.999999999              -0.000030670              -0.000000000               0.999999999              -0.000035870              -0.000000000               0.999999999              -0.000041499              -0.000000000               0.999999999              -0.000047508              -0.000000000               0.999999999               0.000008655              -0.000019763               0.999999999               0.000000982              -0.000017817               0.999999999              -0.000002583              -0.000017344               0.999999999              -0.000004490              -0.000017750               0.999999999              -0.000005778              -0.000018756               0.999999999              -0.000006988              -0.000020203               0.999999999              -0.000008460              -0.000022015               0.999999999              -0.000010289              -0.000024055               0.999999999              -0.000012572              -0.000026318               0.999999999              -0.000015353              -0.000028771               0.999999999              -0.000018631              -0.000031423               0.999999999              -0.000022457              -0.000034278               0.999999999              -0.000026799              -0.000037419               0.999999999              -0.000031669              -0.000040664               0.999999999              -0.000037048              -0.000044006               0.999999999              -0.000042839              -0.000047361               0.999999999              -0.000049012              -0.000050880               0.999999999               0.000008375              -0.000039319               0.999999999               0.000001494              -0.000035426               0.999999999              -0.000001704              -0.000034547               0.999999999              -0.000003516              -0.000035449               0.999999999              -0.000004936              -0.000037532               0.999999999              -0.000006458              -0.000040479               0.999999999              -0.000008291              -0.000044059               0.999999999              -0.000010545              -0.000048182               0.999999999              -0.000013299              -0.000052735               0.999999999              -0.000016560              -0.000057619               0.999999999              -0.000020349              -0.000062927               0.999999999              -0.000024697              -0.000068653               0.999999999              -0.000029616              -0.000074811               0.999999999              -0.000035083              -0.000081220               0.999999999              -0.000040936              -0.000087765               0.999999999              -0.000047125              -0.000094449               0.999999999              -0.000053696              -0.000101404               0.999999999               0.000007994              -0.000058519               0.999999999               0.000002363              -0.000052655               0.999999999              -0.000000297              -0.000051529               0.999999999              -0.000002062              -0.000053081               0.999999999              -0.000003779              -0.000056366               0.999999999              -0.000005809              -0.000060858               0.999999999              -0.000008298              -0.000066307               0.999999999              -0.000011291              -0.000072491               0.999999999              -0.000014772              -0.000079249               0.999999999              -0.000018794              -0.000086605               0.999999999              -0.000023355              -0.000094532               0.999999999              -0.000028515              -0.000103115               0.999999999              -0.000034255              -0.000112274               0.999999999              -0.000040422              -0.000121623               0.999999999              -0.000046954              -0.000131071               0.999999999              -0.000053792              -0.000140746               0.999999999              -0.000060927              -0.000150888               0.999999999               0.000007518              -0.000077204               0.999999999               0.000003559              -0.000069360               0.999999999               0.000001512              -0.000068207               0.999999999              -0.000000364              -0.000070620               0.999999999              -0.000002594              -0.000075199               0.999999999              -0.000005374              -0.000081355               0.999999999              -0.000008738              -0.000088629               0.999999999              -0.000012610              -0.000096838               0.999999999              -0.000017071              -0.000105839               0.999999999              -0.000022052              -0.000115615               0.999999999              -0.000027618              -0.000126197               0.999999999              -0.000033816              -0.000137633               0.999999999              -0.000040436              -0.000149560               0.999999999              -0.000047411              -0.000161610               0.999999999              -0.000054646              -0.000173710               0.999999999              -0.000062143              -0.000186257               0.999999999              -0.000069950              -0.000199350               0.999999999               0.000006972              -0.000095166               0.999999999               0.000005064              -0.000085492               0.999999999               0.000003497              -0.000084533               0.999999999               0.000001292              -0.000087934               0.999999999              -0.000001641              -0.000093932               0.999999999              -0.000005318              -0.000101768               0.999999999              -0.000009654              -0.000110968               0.999999999              -0.000014636              -0.000121292               0.999999999              -0.000020132              -0.000132550               0.999999999              -0.000026172              -0.000144818               0.999999999              -0.000032818              -0.000158071               0.999999999              -0.000039926              -0.000172187               0.999999999              -0.000047377              -0.000186668               0.999999999              -0.000055040              -0.000201380               0.999999999              -0.000062995              -0.000216165               0.999999999              -0.000071279              -0.000231535               0.999999999              -0.000079841              -0.000247478               0.999999999               0.000006411              -0.000112203               0.999999999               0.000006722              -0.000100983               0.999999999               0.000005427              -0.000100405               0.999999999               0.000002715              -0.000104905               0.999999999              -0.000001104              -0.000112453               0.999999999              -0.000005760              -0.000122072               0.999999999              -0.000011193              -0.000133253               0.999999999              -0.000017178              -0.000145679               0.999999999              -0.000023678              -0.000159261               0.999999999              -0.000030805              -0.000174078               0.999999999              -0.000038429              -0.000190050               0.999999999              -0.000046395              -0.000206712               0.999999999              -0.000054565              -0.000223765               0.999999999              -0.000062972              -0.000241139               0.999999999              -0.000071747              -0.000258888               0.999999999              -0.000080914              -0.000277352               0.999999999              -0.000090436              -0.000296327               0.999999999               0.000005845              -0.000128129               0.999999999               0.000008372              -0.000115741               0.999999999               0.000007126              -0.000115706               0.999999999               0.000003695              -0.000121425               0.999999999              -0.000001067              -0.000130574               0.999999999              -0.000006717              -0.000142016               0.999999999              -0.000013082              -0.000155272               0.999999999              -0.000019991              -0.000169955               0.999999999              -0.000027517              -0.000186086               0.999999999              -0.000035611              -0.000203573               0.999999999              -0.000044131              -0.000222299               0.999999999              -0.000052853              -0.000241593               0.999999999              -0.000061829              -0.000261294               0.999999999              -0.000071151              -0.000281557               0.999999999              -0.000080852              -0.000302546               0.999999999              -0.000090901              -0.000324361               0.999999999              -0.000101353              -0.000346739               0.999999999               0.000005179              -0.000142636               0.999999999               0.000009938              -0.000129758               0.999999999               0.000008395              -0.000130346               0.999999999               0.000004169              -0.000137322               0.999999999              -0.000001501              -0.000148075               0.999999999              -0.000008073              -0.000161461               0.999999999              -0.000015214              -0.000176898               0.999999999              -0.000022960              -0.000194088               0.999999999              -0.000031401              -0.000212982               0.999999999              -0.000040365              -0.000233405               0.999999999              -0.000049616              -0.000254841               0.999999999              -0.000059120              -0.000276950               0.999999999              -0.000068827              -0.000299777               0.999999999              -0.000078799              -0.000323659               0.999999999              -0.000089138              -0.000348692               0.999999999              -0.000099882              -0.000374800               0.999999999              -0.000110937              -0.000401625               0.999999999               0.000004243              -0.000156149               0.999999999               0.000010766              -0.000144249               0.999999999               0.000010111              -0.000143490               0.999999999               0.000006536              -0.000148893               0.999999999               0.000001491              -0.000158021               0.999999999              -0.000004389              -0.000169812               0.999999999              -0.000010724              -0.000183626               0.999999999              -0.000017455              -0.000199143               0.999999999              -0.000024672              -0.000216256               0.999999999              -0.000032500              -0.000234807               0.999999999              -0.000040705              -0.000254498               0.999999999              -0.000049051              -0.000275130               0.999999999              -0.000057450              -0.000296421               0.999999999              -0.000065856              -0.000318680               0.999999999              -0.000074445              -0.000342025               0.999999999              -0.000083546              -0.000366757               0.999999999              -0.000093030              -0.000392604               0.999999999               0.000003419              -0.000168335               0.999999999               0.000010896              -0.000158078               0.999999999               0.000011208              -0.000156661               0.999999999               0.000008362              -0.000160737               0.999999999               0.000004061              -0.000168473               0.999999999              -0.000001088              -0.000178780               0.999999999              -0.000006629              -0.000191107               0.999999999              -0.000012440              -0.000205077               0.999999999              -0.000018534              -0.000220508               0.999999999              -0.000025138              -0.000237317               0.999999999              -0.000032202              -0.000255322               0.999999999              -0.000039292              -0.000274382               0.999999999              -0.000046472              -0.000294310               0.999999999              -0.000053549              -0.000315046               0.999999999              -0.000060705              -0.000336759               0.999999999              -0.000068217              -0.000359696               0.999999999              -0.000076127              -0.000383973               0.999999999               0.000002669              -0.000179008               0.999999999               0.000010351              -0.000170855               0.999999999               0.000011435              -0.000169328               0.999999999               0.000009436              -0.000172546               0.999999999               0.000005901              -0.000179114               0.999999999               0.000001542              -0.000188158               0.999999999              -0.000003159              -0.000199168               0.999999999              -0.000008050              -0.000211745               0.999999999              -0.000013121              -0.000225714               0.999999999              -0.000018589              -0.000240931               0.999999999              -0.000024316              -0.000257392               0.999999999              -0.000030095              -0.000274950               0.999999999              -0.000036007              -0.000293495               0.999999999              -0.000042082              -0.000312832               0.999999999              -0.000048044              -0.000333013               0.999999999              -0.000053847              -0.000354416               0.999999999              -0.000059818              -0.000377203               0.999999999               0.000001992              -0.000188013               0.999999999               0.000009175              -0.000182155               0.999999999               0.000010716              -0.000181015               0.999999999               0.000009505              -0.000183739               0.999999999               0.000006793              -0.000189474               0.999999999               0.000003293              -0.000197559               0.999999999              -0.000000546              -0.000207502               0.999999999              -0.000004447              -0.000218938               0.999999999              -0.000008489              -0.000231693               0.999999999              -0.000012805              -0.000245655               0.999999999              -0.000017267              -0.000260776               0.999999999              -0.000021759              -0.000276985               0.999999999              -0.000026575              -0.000294194               0.999999999              -0.000031550              -0.000312394               0.999999999              -0.000036227              -0.000331485               0.999999999              -0.000040444              -0.000351622               0.999999999              -0.000044428              -0.000373027               0.999999999               0.000001391              -0.000195180               0.999999999               0.000007420              -0.000191528               0.999999999               0.000009071              -0.000191075               0.999999999               0.000008462              -0.000193649               0.999999999               0.000006572              -0.000198871               0.999999999               0.000003974              -0.000206333               0.999999999               0.000001077              -0.000215477               0.999999999              -0.000001854              -0.000226052               0.999999999              -0.000004890              -0.000237905               0.999999999              -0.000008009              -0.000250874               0.999999999              -0.000011303              -0.000264968               0.999999999              -0.000014786              -0.000280057               0.999999999              -0.000018341              -0.000296176               0.999999999              -0.000021966              -0.000313461               0.999999999              -0.000025382              -0.000331863               0.999999999              -0.000028239              -0.000351290               0.999999999              -0.000030446              -0.000371806               0.999999999               0.000000889              -0.000200390               0.999999999               0.000005202              -0.000198593               0.999999999               0.000006587              -0.000198816               0.999999999               0.000006360              -0.000201503               0.999999999               0.000005223              -0.000206498               0.999999999               0.000003483              -0.000213519               0.999999999               0.000001602              -0.000222199               0.999999999              -0.000000391              -0.000232181               0.999999999              -0.000002377              -0.000243357               0.999999999              -0.000004506              -0.000255635               0.999999999              -0.000006665              -0.000268986               0.999999999              -0.000009011              -0.000283442               0.999999999              -0.000011323              -0.000299021               0.999999999              -0.000013566              -0.000315721               0.999999999              -0.000015699              -0.000333681               0.999999999              -0.000017460              -0.000352767               0.999999999              -0.000018367              -0.000372842               0.999999999               0.000000436              -0.000203510               0.999999999               0.000002668              -0.000202954               0.999999999               0.000003469              -0.000203730               0.999999999               0.000003411              -0.000206571               0.999999999               0.000002880              -0.000211481               0.999999999               0.000002048              -0.000218281               0.999999999               0.000001076              -0.000226688               0.999999999               0.000000124              -0.000236380               0.999999999              -0.000000920              -0.000247186               0.999999999              -0.000002002              -0.000259046               0.999999999              -0.000003094              -0.000271963               0.999999999              -0.000004079              -0.000286114               0.999999999              -0.000005294              -0.000301482               0.999999999              -0.000006500              -0.000317986               0.999999999              -0.000007408              -0.000335803               0.999999999              -0.000008172              -0.000354774               0.999999999              -0.000008528              -0.000374676               0.999999999               0.000000000              -0.000204571               0.999999999              -0.000000000              -0.000204451               0.999999999              -0.000000000              -0.000205420               0.999999999              -0.000000000              -0.000208308               0.999999999               0.000000000              -0.000213221               0.999999999               0.000000000              -0.000219960               0.999999999              -0.000000000              -0.000228265               0.999999999               0.000000000              -0.000237847               0.999999999              -0.000000000              -0.000248552               0.999999999              -0.000000000              -0.000260350               0.999999999               0.000000000              -0.000273218               0.999999999               0.000000000              -0.000287127               0.999999999              -0.000000000              -0.000302319               0.999999999              -0.000000000              -0.000318955               0.999999999              -0.000000000              -0.000336764               0.999999999              -0.000000000              -0.000355643               0.999999999              -0.000000000              -0.000375545               0.999999999              -0.000008756              -0.000000000               0.999999999              -0.000000808               0.000000000               0.999999999               0.000002900               0.000000000               0.999999999               0.000004823               0.000000000               0.999999999               0.000006061               0.000000000               0.999999999               0.000007209               0.000000000               0.999999999               0.000008566               0.000000000               0.999999999               0.000010247               0.000000000               0.999999999               0.000012371               0.000000000               0.999999999               0.000014980               0.000000000               0.999999999               0.000018058               0.000000000               0.999999999               0.000021668               0.000000000               0.999999999               0.000025909               0.000000000               0.999999999               0.000030670               0.000000000               0.999999999               0.000035870               0.000000000               0.999999999               0.000041499               0.000000000               0.999999999               0.000047508               0.000000000               0.999999999              -0.000008655              -0.000019763               0.999999999              -0.000000982              -0.000017817               0.999999999               0.000002583              -0.000017344               0.999999999               0.000004490              -0.000017750               0.999999999               0.000005778              -0.000018756               0.999999999               0.000006988              -0.000020203               0.999999999               0.000008460              -0.000022015               0.999999999               0.000010289              -0.000024055               0.999999999               0.000012572              -0.000026318               0.999999999               0.000015353              -0.000028771               0.999999999               0.000018631              -0.000031423               0.999999999               0.000022457              -0.000034278               0.999999999               0.000026799              -0.000037419               0.999999999               0.000031669              -0.000040664               0.999999999               0.000037048              -0.000044006               0.999999999               0.000042839              -0.000047361               0.999999999               0.000049012              -0.000050880               0.999999999              -0.000008375              -0.000039319               0.999999999              -0.000001494              -0.000035426               0.999999999               0.000001704              -0.000034547               0.999999999               0.000003516              -0.000035449               0.999999999               0.000004936              -0.000037532               0.999999999               0.000006458              -0.000040479               0.999999999               0.000008291              -0.000044059               0.999999999               0.000010545              -0.000048182               0.999999999               0.000013299              -0.000052735               0.999999999               0.000016560              -0.000057619               0.999999999               0.000020349              -0.000062927               0.999999999               0.000024697              -0.000068653               0.999999999               0.000029616              -0.000074811               0.999999999               0.000035083              -0.000081220               0.999999999               0.000040936              -0.000087765               0.999999999               0.000047125              -0.000094449               0.999999999               0.000053696              -0.000101404               0.999999999              -0.000007994              -0.000058519               0.999999999              -0.000002363              -0.000052655               0.999999999               0.000000297              -0.000051529               0.999999999               0.000002062              -0.000053081               0.999999999               0.000003779              -0.000056366               0.999999999               0.000005809              -0.000060858               0.999999999               0.000008298              -0.000066307               0.999999999               0.000011291              -0.000072491               0.999999999               0.000014772              -0.000079249               0.999999999               0.000018794              -0.000086605               0.999999999               0.000023355              -0.000094532               0.999999999               0.000028515              -0.000103115               0.999999999               0.000034255              -0.000112274               0.999999999               0.000040422              -0.000121623               0.999999999               0.000046954              -0.000131071               0.999999999               0.000053792              -0.000140746               0.999999999               0.000060927              -0.000150888               0.999999999              -0.000007518              -0.000077204               0.999999999              -0.000003559              -0.000069360               0.999999999              -0.000001512              -0.000068207               0.999999999               0.000000364              -0.000070620               0.999999999               0.000002594              -0.000075199               0.999999999               0.000005374              -0.000081355               0.999999999               0.000008738              -0.000088629               0.999999999               0.000012610              -0.000096838               0.999999999               0.000017071              -0.000105839               0.999999999               0.000022052              -0.000115615               0.999999999               0.000027618              -0.000126197               0.999999999               0.000033816              -0.000137633               0.999999999               0.000040436              -0.000149560               0.999999999               0.000047411              -0.000161610               0.999999999               0.000054646              -0.000173710               0.999999999               0.000062143              -0.000186257               0.999999999               0.000069950              -0.000199350               0.999999999              -0.000006972              -0.000095166               0.999999999              -0.000005064              -0.000085492               0.999999999              -0.000003497              -0.000084533               0.999999999              -0.000001292              -0.000087934               0.999999999               0.000001641              -0.000093932               0.999999999               0.000005318              -0.000101768               0.999999999               0.000009654              -0.000110968               0.999999999               0.000014636              -0.000121292               0.999999999               0.000020132              -0.000132550               0.999999999               0.000026172              -0.000144818               0.999999999               0.000032818              -0.000158071               0.999999999               0.000039926              -0.000172187               0.999999999               0.000047377              -0.000186668               0.999999999               0.000055040              -0.000201380               0.999999999               0.000062995              -0.000216165               0.999999999               0.000071279              -0.000231535               0.999999999               0.000079841              -0.000247478               0.999999999              -0.000006411              -0.000112203               0.999999999              -0.000006722              -0.000100983               0.999999999              -0.000005427              -0.000100405               0.999999999              -0.000002715              -0.000104905               0.999999999               0.000001104              -0.000112453               0.999999999               0.000005760              -0.000122072               0.999999999               0.000011193              -0.000133253               0.999999999               0.000017178              -0.000145679               0.999999999               0.000023678              -0.000159261               0.999999999               0.000030805              -0.000174078               0.999999999               0.000038429              -0.000190050               0.999999999               0.000046395              -0.000206712               0.999999999               0.000054565              -0.000223765               0.999999999               0.000062972              -0.000241139               0.999999999               0.000071747              -0.000258888               0.999999999               0.000080914              -0.000277352               0.999999999               0.000090436              -0.000296327               0.999999999              -0.000005845              -0.000128129               0.999999999              -0.000008372              -0.000115741               0.999999999              -0.000007126              -0.000115706               0.999999999              -0.000003695              -0.000121425               0.999999999               0.000001067              -0.000130574               0.999999999               0.000006717              -0.000142016               0.999999999               0.000013082              -0.000155272               0.999999999               0.000019991              -0.000169955               0.999999999               0.000027517              -0.000186086               0.999999999               0.000035611              -0.000203573               0.999999999               0.000044131              -0.000222299               0.999999999               0.000052853              -0.000241593               0.999999999               0.000061829              -0.000261294               0.999999999               0.000071151              -0.000281557               0.999999999               0.000080852              -0.000302546               0.999999999               0.000090901              -0.000324361               0.999999999               0.000101353              -0.000346739               0.999999999              -0.000005179              -0.000142636               0.999999999              -0.000009938              -0.000129758               0.999999999              -0.000008395              -0.000130346               0.999999999              -0.000004169              -0.000137322               0.999999999               0.000001501              -0.000148075               0.999999999               0.000008073              -0.000161461               0.999999999               0.000015214              -0.000176898               0.999999999               0.000022960              -0.000194088               0.999999999               0.000031401              -0.000212982               0.999999999               0.000040365              -0.000233405               0.999999999               0.000049616              -0.000254841               0.999999999               0.000059120              -0.000276950               0.999999999               0.000068827              -0.000299777               0.999999999               0.000078799              -0.000323659               0.999999999               0.000089138              -0.000348692               0.999999999               0.000099882              -0.000374800               0.999999999               0.000110937              -0.000401625               0.999999999              -0.000004243              -0.000156149               0.999999999              -0.000010766              -0.000144249               0.999999999              -0.000010111              -0.000143490               0.999999999              -0.000006536              -0.000148893               0.999999999              -0.000001491              -0.000158021               0.999999999               0.000004389              -0.000169812               0.999999999               0.000010724              -0.000183626               0.999999999               0.000017455              -0.000199143               0.999999999               0.000024672              -0.000216256               0.999999999               0.000032500              -0.000234807               0.999999999               0.000040705              -0.000254498               0.999999999               0.000049051              -0.000275130               0.999999999               0.000057450              -0.000296421               0.999999999               0.000065856              -0.000318680               0.999999999               0.000074445              -0.000342025               0.999999999               0.000083546              -0.000366757               0.999999999               0.000093030              -0.000392604               0.999999999              -0.000003419              -0.000168335               0.999999999              -0.000010896              -0.000158078               0.999999999              -0.000011208              -0.000156661               0.999999999              -0.000008362              -0.000160737               0.999999999              -0.000004061              -0.000168473               0.999999999               0.000001088              -0.000178780               0.999999999               0.000006629              -0.000191107               0.999999999               0.000012440              -0.000205077               0.999999999               0.000018534              -0.000220508               0.999999999               0.000025138              -0.000237317               0.999999999               0.000032202              -0.000255322               0.999999999               0.000039292              -0.000274382               0.999999999               0.000046472              -0.000294310               0.999999999               0.000053549              -0.000315046               0.999999999               0.000060705              -0.000336759               0.999999999               0.000068217              -0.000359696               0.999999999               0.000076127              -0.000383973               0.999999999              -0.000002669              -0.000179008               0.999999999              -0.000010351              -0.000170855               0.999999999              -0.000011435              -0.000169328               0.999999999              -0.000009436              -0.000172546               0.999999999              -0.000005901              -0.000179114               0.999999999              -0.000001542              -0.000188158               0.999999999               0.000003159              -0.000199168               0.999999999               0.000008050              -0.000211745               0.999999999               0.000013121              -0.000225714               0.999999999               0.000018589              -0.000240931               0.999999999               0.000024316              -0.000257392               0.999999999               0.000030095              -0.000274950               0.999999999               0.000036007              -0.000293495               0.999999999               0.000042082              -0.000312832               0.999999999               0.000048044              -0.000333013               0.999999999               0.000053847              -0.000354416               0.999999999               0.000059818              -0.000377203               0.999999999              -0.000001992              -0.000188013               0.999999999              -0.000009175              -0.000182155               0.999999999              -0.000010716              -0.000181015               0.999999999              -0.000009505              -0.000183739               0.999999999              -0.000006793              -0.000189474               0.999999999              -0.000003293              -0.000197559               0.999999999               0.000000546              -0.000207502               0.999999999               0.000004447              -0.000218938               0.999999999               0.000008489              -0.000231693               0.999999999               0.000012805              -0.000245655               0.999999999               0.000017267              -0.000260776               0.999999999               0.000021759              -0.000276985               0.999999999               0.000026575              -0.000294194               0.999999999               0.000031550              -0.000312394               0.999999999               0.000036227              -0.000331485               0.999999999               0.000040444              -0.000351622               0.999999999               0.000044428              -0.000373027               0.999999999              -0.000001391              -0.000195180               0.999999999              -0.000007420              -0.000191528               0.999999999              -0.000009071              -0.000191075               0.999999999              -0.000008462              -0.000193649               0.999999999              -0.000006572              -0.000198871               0.999999999              -0.000003974              -0.000206333               0.999999999              -0.000001077              -0.000215477               0.999999999               0.000001854              -0.000226052               0.999999999               0.000004890              -0.000237905               0.999999999               0.000008009              -0.000250874               0.999999999               0.000011303              -0.000264968               0.999999999               0.000014786              -0.000280057               0.999999999               0.000018341              -0.000296176               0.999999999               0.000021966              -0.000313461               0.999999999               0.000025382              -0.000331863               0.999999999               0.000028239              -0.000351290               0.999999999               0.000030446              -0.000371806               0.999999999              -0.000000889              -0.000200390               0.999999999              -0.000005202              -0.000198593               0.999999999              -0.000006587              -0.000198816               0.999999999              -0.000006360              -0.000201503               0.999999999              -0.000005223              -0.000206498               0.999999999              -0.000003483              -0.000213519               0.999999999              -0.000001602              -0.000222199               0.999999999               0.000000391              -0.000232181               0.999999999               0.000002377              -0.000243357               0.999999999               0.000004506              -0.000255635               0.999999999               0.000006665              -0.000268986               0.999999999               0.000009011              -0.000283442               0.999999999               0.000011323              -0.000299021               0.999999999               0.000013566              -0.000315721               0.999999999               0.000015699              -0.000333681               0.999999999               0.000017460              -0.000352767               0.999999999               0.000018367              -0.000372842               0.999999999              -0.000000436              -0.000203510               0.999999999              -0.000002668              -0.000202954               0.999999999              -0.000003469              -0.000203730               0.999999999              -0.000003411              -0.000206571               0.999999999              -0.000002880              -0.000211481               0.999999999              -0.000002048              -0.000218281               0.999999999              -0.000001076              -0.000226688               0.999999999              -0.000000124              -0.000236380               0.999999999               0.000000920              -0.000247186               0.999999999               0.000002002              -0.000259046               0.999999999               0.000003094              -0.000271963               0.999999999               0.000004079              -0.000286114               0.999999999               0.000005294              -0.000301482               0.999999999               0.000006500              -0.000317986               0.999999999               0.000007408              -0.000335803               0.999999999               0.000008172              -0.000354774               0.999999999               0.000008528              -0.000374676               0.999999999               0.000000000              -0.000204571               0.999999999              -0.000000000              -0.000204451               0.999999999              -0.000000000              -0.000205420               0.999999999              -0.000000000              -0.000208308               0.999999999               0.000000000              -0.000213221               0.999999999               0.000000000              -0.000219960               0.999999999              -0.000000000              -0.000228265               0.999999999               0.000000000              -0.000237847               0.999999999              -0.000000000              -0.000248552               0.999999999              -0.000000000              -0.000260350               0.999999999               0.000000000              -0.000273218               0.999999999               0.000000000              -0.000287127               0.999999999              -0.000000000              -0.000302319               0.999999999              -0.000000000              -0.000318955               0.999999999              -0.000000000              -0.000336764               0.999999999              -0.000000000              -0.000355643               0.999999999              -0.000000000              -0.000375545               0.999999999              -0.000008756              -0.000000000               0.999999999              -0.000000808               0.000000000               0.999999999               0.000002900               0.000000000               0.999999999               0.000004823               0.000000000               0.999999999               0.000006061               0.000000000               0.999999999               0.000007209               0.000000000               0.999999999               0.000008566               0.000000000               0.999999999               0.000010247               0.000000000               0.999999999               0.000012371               0.000000000               0.999999999               0.000014980               0.000000000               0.999999999               0.000018058               0.000000000               0.999999999               0.000021668               0.000000000               0.999999999               0.000025909               0.000000000               0.999999999               0.000030670               0.000000000               0.999999999               0.000035870               0.000000000               0.999999999               0.000041499               0.000000000               0.999999999               0.000047508               0.000000000               0.999999999              -0.000008655               0.000019763               0.999999999              -0.000000982               0.000017817               0.999999999               0.000002583               0.000017344               0.999999999               0.000004490               0.000017750               0.999999999               0.000005778               0.000018756               0.999999999               0.000006988               0.000020203               0.999999999               0.000008460               0.000022015               0.999999999               0.000010289               0.000024055               0.999999999               0.000012572               0.000026318               0.999999999               0.000015353               0.000028771               0.999999999               0.000018631               0.000031423               0.999999999               0.000022457               0.000034278               0.999999999               0.000026799               0.000037419               0.999999999               0.000031669               0.000040664               0.999999999               0.000037048               0.000044006               0.999999999               0.000042839               0.000047361               0.999999999               0.000049012               0.000050880               0.999999999              -0.000008375               0.000039319               0.999999999              -0.000001494               0.000035426               0.999999999               0.000001704               0.000034547               0.999999999               0.000003516               0.000035449               0.999999999               0.000004936               0.000037532               0.999999999               0.000006458               0.000040479               0.999999999               0.000008291               0.000044059               0.999999999               0.000010545               0.000048182               0.999999999               0.000013299               0.000052735               0.999999999               0.000016560               0.000057619               0.999999999               0.000020349               0.000062927               0.999999999               0.000024697               0.000068653               0.999999999               0.000029616               0.000074811               0.999999999               0.000035083               0.000081220               0.999999999               0.000040936               0.000087765               0.999999999               0.000047125               0.000094449               0.999999999               0.000053696               0.000101404               0.999999999              -0.000007994               0.000058519               0.999999999              -0.000002363               0.000052655               0.999999999               0.000000297               0.000051529               0.999999999               0.000002062               0.000053081               0.999999999               0.000003779               0.000056366               0.999999999               0.000005809               0.000060858               0.999999999               0.000008298               0.000066307               0.999999999               0.000011291               0.000072491               0.999999999               0.000014772               0.000079249               0.999999999               0.000018794               0.000086605               0.999999999               0.000023355               0.000094532               0.999999999               0.000028515               0.000103115               0.999999999               0.000034255               0.000112274               0.999999999               0.000040422               0.000121623               0.999999999               0.000046954               0.000131071               0.999999999               0.000053792               0.000140746               0.999999999               0.000060927               0.000150888               0.999999999              -0.000007518               0.000077204               0.999999999              -0.000003559               0.000069360               0.999999999              -0.000001512               0.000068207               0.999999999               0.000000364               0.000070620               0.999999999               0.000002594               0.000075199               0.999999999               0.000005374               0.000081355               0.999999999               0.000008738               0.000088629               0.999999999               0.000012610               0.000096838               0.999999999               0.000017071               0.000105839               0.999999999               0.000022052               0.000115615               0.999999999               0.000027618               0.000126197               0.999999999               0.000033816               0.000137633               0.999999999               0.000040436               0.000149560               0.999999999               0.000047411               0.000161610               0.999999999               0.000054646               0.000173710               0.999999999               0.000062143               0.000186257               0.999999999               0.000069950               0.000199350               0.999999999              -0.000006972               0.000095166               0.999999999              -0.000005064               0.000085492               0.999999999              -0.000003497               0.000084533               0.999999999              -0.000001292               0.000087934               0.999999999               0.000001641               0.000093932               0.999999999               0.000005318               0.000101768               0.999999999               0.000009654               0.000110968               0.999999999               0.000014636               0.000121292               0.999999999               0.000020132               0.000132550               0.999999999               0.000026172               0.000144818               0.999999999               0.000032818               0.000158071               0.999999999               0.000039926               0.000172187               0.999999999               0.000047377               0.000186668               0.999999999               0.000055040               0.000201380               0.999999999               0.000062995               0.000216165               0.999999999               0.000071279               0.000231535               0.999999999               0.000079841               0.000247478               0.999999999              -0.000006411               0.000112203               0.999999999              -0.000006722               0.000100983               0.999999999              -0.000005427               0.000100405               0.999999999              -0.000002715               0.000104905               0.999999999               0.000001104               0.000112453               0.999999999               0.000005760               0.000122072               0.999999999               0.000011193               0.000133253               0.999999999               0.000017178               0.000145679               0.999999999               0.000023678               0.000159261               0.999999999               0.000030805               0.000174078               0.999999999               0.000038429               0.000190050               0.999999999               0.000046395               0.000206712               0.999999999               0.000054565               0.000223765               0.999999999               0.000062972               0.000241139               0.999999999               0.000071747               0.000258888               0.999999999               0.000080914               0.000277352               0.999999999               0.000090436               0.000296327               0.999999999              -0.000005845               0.000128129               0.999999999              -0.000008372               0.000115741               0.999999999              -0.000007126               0.000115706               0.999999999              -0.000003695               0.000121425               0.999999999               0.000001067               0.000130574               0.999999999               0.000006717               0.000142016               0.999999999               0.000013082               0.000155272               0.999999999               0.000019991               0.000169955               0.999999999               0.000027517               0.000186086               0.999999999               0.000035611               0.000203573               0.999999999               0.000044131               0.000222299               0.999999999               0.000052853               0.000241593               0.999999999               0.000061829               0.000261294               0.999999999               0.000071151               0.000281557               0.999999999               0.000080852               0.000302546               0.999999999               0.000090901               0.000324361               0.999999999               0.000101353               0.000346739               0.999999999              -0.000005179               0.000142636               0.999999999              -0.000009938               0.000129758               0.999999999              -0.000008395               0.000130346               0.999999999              -0.000004169               0.000137322               0.999999999               0.000001501               0.000148075               0.999999999               0.000008073               0.000161461               0.999999999               0.000015214               0.000176898               0.999999999               0.000022960               0.000194088               0.999999999               0.000031401               0.000212982               0.999999999               0.000040365               0.000233405               0.999999999               0.000049616               0.000254841               0.999999999               0.000059120               0.000276950               0.999999999               0.000068827               0.000299777               0.999999999               0.000078799               0.000323659               0.999999999               0.000089138               0.000348692               0.999999999               0.000099882               0.000374800               0.999999999               0.000110937               0.000401625               0.999999999              -0.000004243               0.000156149               0.999999999              -0.000010766               0.000144249               0.999999999              -0.000010111               0.000143490               0.999999999              -0.000006536               0.000148893               0.999999999              -0.000001491               0.000158021               0.999999999               0.000004389               0.000169812               0.999999999               0.000010724               0.000183626               0.999999999               0.000017455               0.000199143               0.999999999               0.000024672               0.000216256               0.999999999               0.000032500               0.000234807               0.999999999               0.000040705               0.000254498               0.999999999               0.000049051               0.000275130               0.999999999               0.000057450               0.000296421               0.999999999               0.000065856               0.000318680               0.999999999               0.000074445               0.000342025               0.999999999               0.000083546               0.000366757               0.999999999               0.000093030               0.000392604               0.999999999              -0.000003419               0.000168335               0.999999999              -0.000010896               0.000158078               0.999999999              -0.000011208               0.000156661               0.999999999              -0.000008362               0.000160737               0.999999999              -0.000004061               0.000168473               0.999999999               0.000001088               0.000178780               0.999999999               0.000006629               0.000191107               0.999999999               0.000012440               0.000205077               0.999999999               0.000018534               0.000220508               0.999999999               0.000025138               0.000237317               0.999999999               0.000032202               0.000255322               0.999999999               0.000039292               0.000274382               0.999999999               0.000046472               0.000294310               0.999999999               0.000053549               0.000315046               0.999999999               0.000060705               0.000336759               0.999999999               0.000068217               0.000359696               0.999999999               0.000076127               0.000383973               0.999999999              -0.000002669               0.000179008               0.999999999              -0.000010351               0.000170855               0.999999999              -0.000011435               0.000169328               0.999999999              -0.000009436               0.000172546               0.999999999              -0.000005901               0.000179114               0.999999999              -0.000001542               0.000188158               0.999999999               0.000003159               0.000199168               0.999999999               0.000008050               0.000211745               0.999999999               0.000013121               0.000225714               0.999999999               0.000018589               0.000240931               0.999999999               0.000024316               0.000257392               0.999999999               0.000030095               0.000274950               0.999999999               0.000036007               0.000293495               0.999999999               0.000042082               0.000312832               0.999999999               0.000048044               0.000333013               0.999999999               0.000053847               0.000354416               0.999999999               0.000059818               0.000377203               0.999999999              -0.000001992               0.000188013               0.999999999              -0.000009175               0.000182155               0.999999999              -0.000010716               0.000181015               0.999999999              -0.000009505               0.000183739               0.999999999              -0.000006793               0.000189474               0.999999999              -0.000003293               0.000197559               0.999999999               0.000000546               0.000207502               0.999999999               0.000004447               0.000218938               0.999999999               0.000008489               0.000231693               0.999999999               0.000012805               0.000245655               0.999999999               0.000017267               0.000260776               0.999999999               0.000021759               0.000276985               0.999999999               0.000026575               0.000294194               0.999999999               0.000031550               0.000312394               0.999999999               0.000036227               0.000331485               0.999999999               0.000040444               0.000351622               0.999999999               0.000044428               0.000373027               0.999999999              -0.000001391               0.000195180               0.999999999              -0.000007420               0.000191528               0.999999999              -0.000009071               0.000191075               0.999999999              -0.000008462               0.000193649               0.999999999              -0.000006572               0.000198871               0.999999999              -0.000003974               0.000206333               0.999999999              -0.000001077               0.000215477               0.999999999               0.000001854               0.000226052               0.999999999               0.000004890               0.000237905               0.999999999               0.000008009               0.000250874               0.999999999               0.000011303               0.000264968               0.999999999               0.000014786               0.000280057               0.999999999               0.000018341               0.000296176               0.999999999               0.000021966               0.000313461               0.999999999               0.000025382               0.000331863               0.999999999               0.000028239               0.000351290               0.999999999               0.000030446               0.000371806               0.999999999              -0.000000889               0.000200390               0.999999999              -0.000005202               0.000198593               0.999999999              -0.000006587               0.000198816               0.999999999              -0.000006360               0.000201503               0.999999999              -0.000005223               0.000206498               0.999999999              -0.000003483               0.000213519               0.999999999              -0.000001602               0.000222199               0.999999999               0.000000391               0.000232181               0.999999999               0.000002377               0.000243357               0.999999999               0.000004506               0.000255635               0.999999999               0.000006665               0.000268986               0.999999999               0.000009011               0.000283442               0.999999999               0.000011323               0.000299021               0.999999999               0.000013566               0.000315721               0.999999999               0.000015699               0.000333681               0.999999999               0.000017460               0.000352767               0.999999999               0.000018367               0.000372842               0.999999999              -0.000000436               0.000203510               0.999999999              -0.000002668               0.000202954               0.999999999              -0.000003469               0.000203730               0.999999999              -0.000003411               0.000206571               0.999999999              -0.000002880               0.000211481               0.999999999              -0.000002048               0.000218281               0.999999999              -0.000001076               0.000226688               0.999999999              -0.000000124               0.000236380               0.999999999               0.000000920               0.000247186               0.999999999               0.000002002               0.000259046               0.999999999               0.000003094               0.000271963               0.999999999               0.000004079               0.000286114               0.999999999               0.000005294               0.000301482               0.999999999               0.000006500               0.000317986               0.999999999               0.000007408               0.000335803               0.999999999               0.000008172               0.000354774               0.999999999               0.000008528               0.000374676               0.999999999              -0.000000000               0.000204571               0.999999999              -0.000000000               0.000204451               0.999999999               0.000000000               0.000205420               0.999999999               0.000000000               0.000208308               0.999999999              -0.000000000               0.000213221               0.999999999               0.000000000               0.000219960               0.999999999               0.000000000               0.000228265               0.999999999               0.000000000               0.000237847               0.999999999              -0.000000000               0.000248552               0.999999999               0.000000000               0.000260350               0.999999999               0.000000000               0.000273218               0.999999999              -0.000000000               0.000287127               0.999999999              -0.000000000               0.000302319               0.999999999              -0.000000000               0.000318955               0.999999999               0.000000000               0.000336764               0.999999999              -0.000000000               0.000355643               0.999999999              -0.000000000               0.000375545               0.999999999 </DataArray>
<DataArray type="Float64"                                    Name="stress"                                                      NumberOfComponents="10" format="ascii">
              0.000330032               0.003722977              -0.000000000              -0.000341609               0.001354849               0.001013240               0.000000000               0.000000000               0.000000000               0.000000000               0.000382208               0.003107188              -0.000000000              -0.000245070               0.001117409               0.000872339               0.000000000               0.000000000               0.000000000               0.000000000               0.000548791               0.002606482               0.000000000              -0.000120013               0.000908823               0.000788810               0.000000000               0.000000000               0.000000000               0.000000000               0.000592390               0.002329378              -0.000000000              -0.000069026               0.000799460               0.000730434               0.000000000               0.000000000               0.000000000               0.000000000               0.000581447               0.002169720               0.000000000              -0.000053172               0.000740957               0.000687784               0.000000000               0.000000000               0.000000000               0.000000000               0.000542032               0.002076781              -0.000000000              -0.000056335               0.000711032               0.000654697               0.000000000               0.000000000               0.000000000               0.000000000               0.000492869               0.002026049              -0.000000000              -0.000068430               0.000698153               0.000629723               0.000000000               0.000000000               0.000000000               0.000000000               0.000438848               0.001998996               0.000000000              -0.000085306               0.000694761               0.000609454               0.000000000               0.000000000               0.000000000               0.000000000               0.000381140               0.001987599               0.000000000              -0.000105522               0.000697700               0.000592178               0.000000000               0.000000000               0.000000000               0.000000000               0.000325776               0.001988606               0.000000000              -0.000126409               0.000704998               0.000578589               0.000000000               0.000000000               0.000000000               0.000000000               0.000270621               0.001998947              -0.000000000              -0.000148385               0.000715771               0.000567386               0.000000000               0.000000000               0.000000000               0.000000000               0.000211140               0.002016317              -0.000000000              -0.000172862               0.000729719               0.000556858               0.000000000               0.000000000               0.000000000               0.000000000               0.000155621               0.002043264               0.000000000              -0.000197050               0.000746765               0.000549715               0.000000000               0.000000000               0.000000000               0.000000000               0.000109070               0.002074568              -0.000000000              -0.000218419               0.000764322               0.000545903               0.000000000               0.000000000               0.000000000               0.000000000               0.000068644               0.002106768              -0.000000000              -0.000237604               0.000781450               0.000543846               0.000000000               0.000000000               0.000000000               0.000000000               0.000032592               0.002138032               0.000000000              -0.000255031               0.000797681               0.000542649               0.000000000               0.000000000               0.000000000               0.000000000               0.000019209               0.002162823              -0.000000000              -0.000263149               0.000808650               0.000545501               0.000000000               0.000000000               0.000000000               0.000000000               0.000353964               0.003664513              -0.000292765              -0.000325327               0.001329934               0.001004607               0.000000000               0.000000000               0.000000000               0.000000000               0.000391927               0.003065241              -0.000197531              -0.000236182               0.001100464               0.000864282               0.000000000               0.000000000               0.000000000               0.000000000               0.000542260               0.002582793              -0.000098458              -0.000119501               0.000900756               0.000781255               0.000000000               0.000000000               0.000000000               0.000000000               0.000578201               0.002316867              -0.000050404              -0.000072783               0.000796542               0.000723759               0.000000000               0.000000000               0.000000000               0.000000000               0.000565455               0.002164343              -0.000026218              -0.000058497               0.000740940               0.000682442               0.000000000               0.000000000               0.000000000               0.000000000               0.000526309               0.002075048              -0.000013774              -0.000062015               0.000712347               0.000650332               0.000000000               0.000000000               0.000000000               0.000000000               0.000476746               0.002024150              -0.000008032              -0.000074239               0.000699456               0.000625217               0.000000000               0.000000000               0.000000000               0.000000000               0.000424045               0.001998651              -0.000006142              -0.000090814               0.000696482               0.000605667               0.000000000               0.000000000               0.000000000               0.000000000               0.000368427               0.001988486              -0.000005758              -0.000110400               0.000699622               0.000589222               0.000000000               0.000000000               0.000000000               0.000000000               0.000313907               0.001989124              -0.000005370              -0.000130925               0.000706676               0.000575751               0.000000000               0.000000000               0.000000000               0.000000000               0.000259390               0.001999397              -0.000004452              -0.000152653               0.000717344               0.000564690               0.000000000               0.000000000               0.000000000               0.000000000               0.000204639               0.002017740              -0.000001889              -0.000175477               0.000731066               0.000555588               0.000000000               0.000000000               0.000000000               0.000000000               0.000152955               0.002043098              -0.000000636              -0.000198028               0.000747035               0.000549007               0.000000000               0.000000000               0.000000000               0.000000000               0.000105982               0.002071528              -0.000002591              -0.000219197               0.000763568               0.000544371               0.000000000               0.000000000               0.000000000               0.000000000               0.000066274               0.002101176              -0.000005277              -0.000237794               0.000779650               0.000541856               0.000000000               0.000000000               0.000000000               0.000000000               0.000031908               0.002131739              -0.000005462              -0.000254501               0.000795406               0.000540905               0.000000000               0.000000000               0.000000000               0.000000000               0.000018608               0.002155581              -0.000004815              -0.000262469               0.000806010               0.000543541               0.000000000               0.000000000               0.000000000               0.000000000               0.000417596               0.003498641              -0.000554670              -0.000280731               0.001259779               0.000979048               0.000000000               0.000000000               0.000000000               0.000000000               0.000415803               0.002946106              -0.000375201              -0.000212337               0.001052804               0.000840468               0.000000000               0.000000000               0.000000000               0.000000000               0.000523937               0.002518389              -0.000188840              -0.000118322               0.000878895               0.000760573               0.000000000               0.000000000               0.000000000               0.000000000               0.000540882               0.002284650              -0.000099760              -0.000082750               0.000789126               0.000706376               0.000000000               0.000000000               0.000000000               0.000000000               0.000519254               0.002149908              -0.000055915              -0.000074018               0.000741302               0.000667284               0.000000000               0.000000000               0.000000000               0.000000000               0.000479988               0.002070009              -0.000034591              -0.000078755               0.000716248               0.000637492               0.000000000               0.000000000               0.000000000               0.000000000               0.000434583               0.002024428              -0.000024225              -0.000090085               0.000704831               0.000614746               0.000000000               0.000000000               0.000000000               0.000000000               0.000386249               0.002000915              -0.000019750              -0.000105271               0.000702055               0.000596784               0.000000000               0.000000000               0.000000000               0.000000000               0.000335789               0.001990597              -0.000018258              -0.000122903               0.000704494               0.000581590               0.000000000               0.000000000               0.000000000               0.000000000               0.000285919               0.001991900              -0.000016233              -0.000141767               0.000711216               0.000569448               0.000000000               0.000000000               0.000000000               0.000000000               0.000234722               0.002001865              -0.000012214              -0.000162212               0.000721352               0.000559140               0.000000000               0.000000000               0.000000000               0.000000000               0.000183156               0.002019535              -0.000007469              -0.000183758               0.000734424               0.000550666               0.000000000               0.000000000               0.000000000               0.000000000               0.000134310               0.002040907              -0.000006459              -0.000204747               0.000748545               0.000543798               0.000000000               0.000000000               0.000000000               0.000000000               0.000093449               0.002062864              -0.000009825              -0.000222814               0.000761886               0.000539072               0.000000000               0.000000000               0.000000000               0.000000000               0.000061535               0.002084989              -0.000012569              -0.000237548               0.000774172               0.000536624               0.000000000               0.000000000               0.000000000               0.000000000               0.000030948               0.002108456              -0.000010308              -0.000251951               0.000786795               0.000534844               0.000000000               0.000000000               0.000000000               0.000000000               0.000017828               0.002127686              -0.000008341              -0.000259274               0.000795646               0.000536372               0.000000000               0.000000000               0.000000000               0.000000000               0.000504210               0.003244822              -0.000765498              -0.000216524               0.001153771               0.000937247               0.000000000               0.000000000               0.000000000               0.000000000               0.000445579               0.002765564              -0.000518796              -0.000178603               0.000981380               0.000802777               0.000000000               0.000000000               0.000000000               0.000000000               0.000492518               0.002424016              -0.000265155              -0.000118307               0.000847433               0.000729126               0.000000000               0.000000000               0.000000000               0.000000000               0.000484067               0.002238226              -0.000149217              -0.000098253               0.000778819               0.000680566               0.000000000               0.000000000               0.000000000               0.000000000               0.000453460               0.002128187              -0.000093273              -0.000095976               0.000741381               0.000645405               0.000000000               0.000000000               0.000000000               0.000000000               0.000414706               0.002062246              -0.000065266              -0.000102266               0.000721497               0.000619231               0.000000000               0.000000000               0.000000000               0.000000000               0.000374384               0.002022930              -0.000050707              -0.000112472               0.000711794               0.000599322               0.000000000               0.000000000               0.000000000               0.000000000               0.000333615               0.002000615              -0.000043239              -0.000124971               0.000708522               0.000583551               0.000000000               0.000000000               0.000000000               0.000000000               0.000292040               0.001991303              -0.000038228              -0.000139398               0.000710227               0.000570829               0.000000000               0.000000000               0.000000000               0.000000000               0.000249323               0.001993736              -0.000032343              -0.000155720               0.000716479               0.000560758               0.000000000               0.000000000               0.000000000               0.000000000               0.000203345               0.002004257              -0.000024508              -0.000174277               0.000726171               0.000551894               0.000000000               0.000000000               0.000000000               0.000000000               0.000157159               0.002020872              -0.000016884              -0.000193674               0.000738175               0.000544501               0.000000000               0.000000000               0.000000000               0.000000000               0.000116828               0.002036835              -0.000015725              -0.000210793               0.000749203               0.000538409               0.000000000               0.000000000               0.000000000               0.000000000               0.000083331               0.002048750              -0.000019946              -0.000224844               0.000757858               0.000533014               0.000000000               0.000000000               0.000000000               0.000000000               0.000054483               0.002058987              -0.000020255              -0.000236942               0.000765303               0.000528361               0.000000000               0.000000000               0.000000000               0.000000000               0.000027653               0.002073114              -0.000012237              -0.000248769               0.000773954               0.000525185               0.000000000               0.000000000               0.000000000               0.000000000               0.000016430               0.002086413              -0.000007176              -0.000254640               0.000780344               0.000525704               0.000000000               0.000000000               0.000000000               0.000000000               0.000596627               0.002925591              -0.000913469              -0.000141964               0.001022508               0.000880544               0.000000000               0.000000000               0.000000000               0.000000000               0.000473616               0.002545769              -0.000622401              -0.000140615               0.000895453               0.000754838               0.000000000               0.000000000               0.000000000               0.000000000               0.000450137               0.002311445              -0.000328105              -0.000120129               0.000810517               0.000690388               0.000000000               0.000000000               0.000000000               0.000000000               0.000415175               0.002178653              -0.000199815              -0.000116641               0.000765091               0.000648450               0.000000000               0.000000000               0.000000000               0.000000000               0.000378836               0.002096850              -0.000137242              -0.000120043               0.000738957               0.000618915               0.000000000               0.000000000               0.000000000               0.000000000               0.000342938               0.002046406              -0.000104187              -0.000127199               0.000724528               0.000597329               0.000000000               0.000000000               0.000000000               0.000000000               0.000310634               0.002015853              -0.000085206              -0.000135494               0.000717109               0.000581615               0.000000000               0.000000000               0.000000000               0.000000000               0.000279157               0.001999740              -0.000073068              -0.000145283               0.000715001               0.000569718               0.000000000               0.000000000               0.000000000               0.000000000               0.000246285               0.001994801              -0.000062487              -0.000156993               0.000717258               0.000560265               0.000000000               0.000000000               0.000000000               0.000000000               0.000210948               0.001999826              -0.000050512              -0.000170872               0.000723559               0.000552687               0.000000000               0.000000000               0.000000000               0.000000000               0.000170108               0.002010906              -0.000036798              -0.000187572               0.000732819               0.000545247               0.000000000               0.000000000               0.000000000               0.000000000               0.000132722               0.002023076              -0.000026098              -0.000203113               0.000742056               0.000538943               0.000000000               0.000000000               0.000000000               0.000000000               0.000102499               0.002030248              -0.000024175              -0.000215343               0.000748524               0.000533180               0.000000000               0.000000000               0.000000000               0.000000000               0.000076034               0.002035601              -0.000027574              -0.000225937               0.000753839               0.000527902               0.000000000               0.000000000               0.000000000               0.000000000               0.000051205               0.002041158              -0.000023355              -0.000235942               0.000759027               0.000523084               0.000000000               0.000000000               0.000000000               0.000000000               0.000026002               0.002050715              -0.000009495              -0.000246588               0.000765761               0.000519173               0.000000000               0.000000000               0.000000000               0.000000000               0.000014740               0.002059454              -0.000002625              -0.000251904               0.000770446               0.000518542               0.000000000               0.000000000               0.000000000               0.000000000               0.000678592               0.002568453              -0.000992110              -0.000066586               0.000878337               0.000811752               0.000000000               0.000000000               0.000000000               0.000000000               0.000493370               0.002307437              -0.000686880              -0.000103416               0.000803610               0.000700194               0.000000000               0.000000000               0.000000000               0.000000000               0.000401216               0.002189174              -0.000381230              -0.000123191               0.000770781               0.000647590               0.000000000               0.000000000               0.000000000               0.000000000               0.000345997               0.002109572              -0.000250228              -0.000133948               0.000747833               0.000613885               0.000000000               0.000000000               0.000000000               0.000000000               0.000310526               0.002059809              -0.000184769              -0.000141029               0.000733606               0.000592577               0.000000000               0.000000000               0.000000000               0.000000000               0.000280566               0.002027412              -0.000146584              -0.000148214               0.000725202               0.000576988               0.000000000               0.000000000               0.000000000               0.000000000               0.000254574               0.002008732              -0.000122091              -0.000155626               0.000721446               0.000565820               0.000000000               0.000000000               0.000000000               0.000000000               0.000230839               0.001999895              -0.000103295              -0.000163422               0.000721099               0.000557677               0.000000000               0.000000000               0.000000000               0.000000000               0.000205165               0.002000466              -0.000084473              -0.000173121               0.000724522               0.000551401               0.000000000               0.000000000               0.000000000               0.000000000               0.000174767               0.002009853              -0.000064920              -0.000185694               0.000731842               0.000546148               0.000000000               0.000000000               0.000000000               0.000000000               0.000143727               0.002022429              -0.000046158              -0.000198906               0.000740438               0.000541533               0.000000000               0.000000000               0.000000000               0.000000000               0.000116185               0.002028523              -0.000033196              -0.000209996               0.000746166               0.000536171               0.000000000               0.000000000               0.000000000               0.000000000               0.000094121               0.002030980              -0.000027920              -0.000218577               0.000749845               0.000531269               0.000000000               0.000000000               0.000000000               0.000000000               0.000071788               0.002035695              -0.000027230              -0.000227541               0.000754405               0.000526864               0.000000000               0.000000000               0.000000000               0.000000000               0.000046350               0.002044997              -0.000020493              -0.000238243               0.000761073               0.000522830               0.000000000               0.000000000               0.000000000               0.000000000               0.000023187               0.002058088              -0.000005927              -0.000248565               0.000768878               0.000520312               0.000000000               0.000000000               0.000000000               0.000000000               0.000015109               0.002068110              -0.000000308              -0.000252847               0.000773646               0.000520798               0.000000000               0.000000000               0.000000000               0.000000000               0.000733940               0.002199116              -0.001007099               0.000000337               0.000732919               0.000733255               0.000000000               0.000000000               0.000000000               0.000000000               0.000502031               0.002064413              -0.000717535              -0.000069790               0.000711394               0.000641604               0.000000000               0.000000000               0.000000000               0.000000000               0.000354468               0.002063570              -0.000425531              -0.000125021               0.000729523               0.000604502               0.000000000               0.000000000               0.000000000               0.000000000               0.000289012               0.002038080              -0.000298292              -0.000146380               0.000728147               0.000581766               0.000000000               0.000000000               0.000000000               0.000000000               0.000257708               0.002019112              -0.000230292              -0.000155748               0.000724947               0.000569198               0.000000000               0.000000000               0.000000000               0.000000000               0.000233115               0.002004947              -0.000186490              -0.000163200               0.000722709               0.000559509               0.000000000               0.000000000               0.000000000               0.000000000               0.000212205               0.001998505              -0.000154653              -0.000170236               0.000722907               0.000552671               0.000000000               0.000000000               0.000000000               0.000000000               0.000193523               0.001999594              -0.000127160              -0.000177378               0.000725651               0.000548273               0.000000000               0.000000000               0.000000000               0.000000000               0.000170427               0.002010113              -0.000100862              -0.000187354               0.000732482               0.000545129               0.000000000               0.000000000               0.000000000               0.000000000               0.000144776               0.002025671              -0.000073983              -0.000198917               0.000741523               0.000542605               0.000000000               0.000000000               0.000000000               0.000000000               0.000124613               0.002040978              -0.000052894              -0.000208392               0.000749783               0.000541392               0.000000000               0.000000000               0.000000000               0.000000000               0.000107518               0.002046730              -0.000040042              -0.000215522               0.000754077               0.000538556               0.000000000               0.000000000               0.000000000               0.000000000               0.000091014               0.002050496              -0.000031947              -0.000222181               0.000757552               0.000535371               0.000000000               0.000000000               0.000000000               0.000000000               0.000070115               0.002059466              -0.000026162              -0.000231140               0.000763528               0.000532389               0.000000000               0.000000000               0.000000000               0.000000000               0.000045816               0.002077811              -0.000015954              -0.000242545               0.000773445               0.000530900               0.000000000               0.000000000               0.000000000               0.000000000               0.000022257               0.002099033              -0.000003400              -0.000254032               0.000784348               0.000530316               0.000000000               0.000000000               0.000000000               0.000000000               0.000014628               0.002114317              -0.000000912              -0.000258804               0.000791033               0.000532230               0.000000000               0.000000000               0.000000000               0.000000000               0.000760192               0.001838297              -0.000968520               0.000055283               0.000594332               0.000649615               0.000000000               0.000000000               0.000000000               0.000000000               0.000500446               0.001832404              -0.000719989              -0.000041384               0.000624590               0.000583206               0.000000000               0.000000000               0.000000000               0.000000000               0.000317956               0.001942340              -0.000462267              -0.000123559               0.000688627               0.000565067               0.000000000               0.000000000               0.000000000               0.000000000               0.000251339               0.001965712              -0.000341028              -0.000151462               0.000705718               0.000554256               0.000000000               0.000000000               0.000000000               0.000000000               0.000223049               0.001971893              -0.000268324              -0.000162843               0.000711572               0.000548729               0.000000000               0.000000000               0.000000000               0.000000000               0.000204725               0.001977141              -0.000216897              -0.000170370               0.000715830               0.000545460               0.000000000               0.000000000               0.000000000               0.000000000               0.000185671               0.001986160              -0.000175832              -0.000178643               0.000721594               0.000542951               0.000000000               0.000000000               0.000000000               0.000000000               0.000165772               0.002003474              -0.000141472              -0.000188269               0.000730574               0.000542305               0.000000000               0.000000000               0.000000000               0.000000000               0.000144699               0.002029186              -0.000110387              -0.000199386               0.000742851               0.000543465               0.000000000               0.000000000               0.000000000               0.000000000               0.000125602               0.002054642              -0.000080463              -0.000209729               0.000754783               0.000545054               0.000000000               0.000000000               0.000000000               0.000000000               0.000111726               0.002070657              -0.000058040              -0.000216934               0.000762524               0.000545589               0.000000000               0.000000000               0.000000000               0.000000000               0.000100262               0.002081400              -0.000045974              -0.000222576               0.000767985               0.000545409               0.000000000               0.000000000               0.000000000               0.000000000               0.000084156               0.002096652              -0.000035223              -0.000230522               0.000775718               0.000545195               0.000000000               0.000000000               0.000000000               0.000000000               0.000063892               0.002124368              -0.000023114              -0.000241586               0.000788644               0.000547058               0.000000000               0.000000000               0.000000000               0.000000000               0.000043719               0.002164022              -0.000009596              -0.000254107               0.000806036               0.000551928               0.000000000               0.000000000               0.000000000               0.000000000               0.000023146               0.002206683               0.000000053              -0.000267155               0.000824605               0.000557450               0.000000000               0.000000000               0.000000000               0.000000000               0.000015621               0.002236575              -0.000000562              -0.000273713               0.000836755               0.000563042               0.000000000               0.000000000               0.000000000               0.000000000               0.000772297               0.001516332              -0.000892166               0.000100068               0.000472083               0.000572151               0.000000000               0.000000000               0.000000000               0.000000000               0.000506545               0.001624901              -0.000708358              -0.000013159               0.000546014               0.000532855               0.000000000               0.000000000               0.000000000               0.000000000               0.000305178               0.001830042              -0.000501351              -0.000114314               0.000648112               0.000533799               0.000000000               0.000000000               0.000000000               0.000000000               0.000239048               0.001895770              -0.000383705              -0.000147328               0.000681026               0.000533698               0.000000000               0.000000000               0.000000000               0.000000000               0.000212274               0.001926828              -0.000305095              -0.000161250               0.000696020               0.000534769               0.000000000               0.000000000               0.000000000               0.000000000               0.000199125               0.001953365              -0.000245637              -0.000169498               0.000707614               0.000538116               0.000000000               0.000000000               0.000000000               0.000000000               0.000183403               0.001979609              -0.000196814              -0.000178675               0.000719421               0.000540747               0.000000000               0.000000000               0.000000000               0.000000000               0.000161484               0.002012966              -0.000156873              -0.000191064               0.000734670               0.000543606               0.000000000               0.000000000               0.000000000               0.000000000               0.000139118               0.002052176              -0.000122099              -0.000204352               0.000752169               0.000547817               0.000000000               0.000000000               0.000000000               0.000000000               0.000123659               0.002084214              -0.000092313              -0.000214154               0.000766116               0.000551962               0.000000000               0.000000000               0.000000000               0.000000000               0.000110702               0.002101225              -0.000068787              -0.000221139               0.000774114               0.000552975               0.000000000               0.000000000               0.000000000               0.000000000               0.000099358               0.002119603              -0.000051560              -0.000227690               0.000782424               0.000554734               0.000000000               0.000000000               0.000000000               0.000000000               0.000087536               0.002154641              -0.000033290              -0.000236504               0.000797041               0.000560537               0.000000000               0.000000000               0.000000000               0.000000000               0.000072229               0.002209791              -0.000013999              -0.000249137               0.000819635               0.000570498               0.000000000               0.000000000               0.000000000               0.000000000               0.000056451               0.002277938               0.000001121              -0.000263572               0.000847162               0.000583590               0.000000000               0.000000000               0.000000000               0.000000000               0.000046415               0.002350927               0.000007318              -0.000276460               0.000875788               0.000599328               0.000000000               0.000000000               0.000000000               0.000000000               0.000042007               0.002391605               0.000006656              -0.000283197               0.000891593               0.000608396               0.000000000               0.000000000               0.000000000               0.000000000               0.000763707               0.001203226              -0.000796144               0.000135985               0.000355743               0.000491727               0.000000000               0.000000000               0.000000000               0.000000000               0.000527003               0.001381570              -0.000690255               0.000024929               0.000452209               0.000477138               0.000000000               0.000000000               0.000000000               0.000000000               0.000322329               0.001651921              -0.000547541              -0.000085617               0.000579174               0.000493557               0.000000000               0.000000000               0.000000000               0.000000000               0.000253016               0.001765470              -0.000437197              -0.000125803               0.000630418               0.000504615               0.000000000               0.000000000               0.000000000               0.000000000               0.000224622               0.001829789              -0.000354949              -0.000144490               0.000658087               0.000513597               0.000000000               0.000000000               0.000000000               0.000000000               0.000211211               0.001879058              -0.000288766              -0.000155678               0.000678239               0.000522561               0.000000000               0.000000000               0.000000000               0.000000000               0.000199531               0.001923026              -0.000233646              -0.000165554               0.000696187               0.000530633               0.000000000               0.000000000               0.000000000               0.000000000               0.000182090               0.001968916              -0.000188189              -0.000177830               0.000715576               0.000537745               0.000000000               0.000000000               0.000000000               0.000000000               0.000158883               0.002015837              -0.000151202              -0.000192398               0.000736072               0.000543673               0.000000000               0.000000000               0.000000000               0.000000000               0.000138616               0.002055209              -0.000120688              -0.000204920               0.000753370               0.000548450               0.000000000               0.000000000               0.000000000               0.000000000               0.000125545               0.002088877              -0.000092797              -0.000214030               0.000767628               0.000553599               0.000000000               0.000000000               0.000000000               0.000000000               0.000111563               0.002118675              -0.000067290              -0.000222998               0.000780551               0.000557553               0.000000000               0.000000000               0.000000000               0.000000000               0.000100643               0.002162097              -0.000043316              -0.000232520               0.000798198               0.000565678               0.000000000               0.000000000               0.000000000               0.000000000               0.000092154               0.002228009              -0.000020610              -0.000243943               0.000823977               0.000580034               0.000000000               0.000000000               0.000000000               0.000000000               0.000088144               0.002317275              -0.000006804              -0.000256605               0.000857952               0.000601347               0.000000000               0.000000000               0.000000000               0.000000000               0.000090097               0.002417798              -0.000001042              -0.000268438               0.000895404               0.000626966               0.000000000               0.000000000               0.000000000               0.000000000               0.000086650               0.002462689               0.000002641              -0.000275342               0.000912669               0.000637327               0.000000000               0.000000000               0.000000000               0.000000000               0.000721547               0.000910627              -0.000682675               0.000156750               0.000251289               0.000408039               0.000000000               0.000000000               0.000000000               0.000000000               0.000548629               0.001133459              -0.000652919               0.000064052               0.000356465               0.000420517               0.000000000               0.000000000               0.000000000               0.000000000               0.000364525               0.001445754              -0.000580564              -0.000044023               0.000496587               0.000452565               0.000000000               0.000000000               0.000000000               0.000000000               0.000290974               0.001608652              -0.000488467              -0.000091966               0.000566867               0.000474901               0.000000000               0.000000000               0.000000000               0.000000000               0.000258861               0.001709660              -0.000407840              -0.000116635               0.000608759               0.000492125               0.000000000               0.000000000               0.000000000               0.000000000               0.000242623               0.001783608              -0.000338756              -0.000131967               0.000638519               0.000506552               0.000000000               0.000000000               0.000000000               0.000000000               0.000230973               0.001845551              -0.000278629              -0.000144079               0.000663204               0.000519125               0.000000000               0.000000000               0.000000000               0.000000000               0.000216136               0.001900909              -0.000227741              -0.000156562               0.000685817               0.000529255               0.000000000               0.000000000               0.000000000               0.000000000               0.000195994               0.001954730              -0.000187552              -0.000170843               0.000708518               0.000537675               0.000000000               0.000000000               0.000000000               0.000000000               0.000173746               0.002005465              -0.000155454              -0.000185528               0.000730324               0.000544796               0.000000000               0.000000000               0.000000000               0.000000000               0.000154625               0.002054538              -0.000122176              -0.000198833               0.000751117               0.000552284               0.000000000               0.000000000               0.000000000               0.000000000               0.000138141               0.002100143              -0.000090437              -0.000210714               0.000770279               0.000559564               0.000000000               0.000000000               0.000000000               0.000000000               0.000128116               0.002148541              -0.000064213              -0.000220523               0.000789681               0.000569158               0.000000000               0.000000000               0.000000000               0.000000000               0.000127026               0.002210044              -0.000040434              -0.000228620               0.000812881               0.000584261               0.000000000               0.000000000               0.000000000               0.000000000               0.000129565               0.002296580              -0.000022600              -0.000238485               0.000845014               0.000606529               0.000000000               0.000000000               0.000000000               0.000000000               0.000129682               0.002403388              -0.000009616              -0.000251792               0.000885052               0.000633260               0.000000000               0.000000000               0.000000000               0.000000000               0.000121201               0.002452848              -0.000000815              -0.000261155               0.000904659               0.000643505               0.000000000               0.000000000               0.000000000               0.000000000               0.000646794               0.000648886              -0.000554839               0.000161435               0.000162481               0.000323916               0.000000000               0.000000000               0.000000000               0.000000000               0.000554021               0.000889770              -0.000587531               0.000096535               0.000264408               0.000360943               0.000000000               0.000000000               0.000000000               0.000000000               0.000419586               0.001220156              -0.000579232               0.000004824               0.000405106               0.000409930               0.000000000               0.000000000               0.000000000               0.000000000               0.000347919               0.001421331              -0.000513320              -0.000047197               0.000489504               0.000442307               0.000000000               0.000000000               0.000000000               0.000000000               0.000310182               0.001556598              -0.000442123              -0.000078257               0.000544946               0.000466690               0.000000000               0.000000000               0.000000000               0.000000000               0.000288342               0.001659265              -0.000375211              -0.000099280               0.000586176               0.000486896               0.000000000               0.000000000               0.000000000               0.000000000               0.000271929               0.001741039              -0.000313675              -0.000115657               0.000618893               0.000503236               0.000000000               0.000000000               0.000000000               0.000000000               0.000253476               0.001809840              -0.000260211              -0.000131176               0.000646999               0.000515823               0.000000000               0.000000000               0.000000000               0.000000000               0.000233590               0.001874434              -0.000218805              -0.000146708               0.000673707               0.000527000               0.000000000               0.000000000               0.000000000               0.000000000               0.000212377               0.001939167              -0.000184249              -0.000162754               0.000700634               0.000537880               0.000000000               0.000000000               0.000000000               0.000000000               0.000191017               0.002003878              -0.000147767              -0.000178853               0.000727570               0.000548717               0.000000000               0.000000000               0.000000000               0.000000000               0.000174227               0.002065495              -0.000115762              -0.000192851               0.000752775               0.000559924               0.000000000               0.000000000               0.000000000               0.000000000               0.000166185               0.002124521              -0.000092769              -0.000203245               0.000775915               0.000572670               0.000000000               0.000000000               0.000000000               0.000000000               0.000167125               0.002188632              -0.000070092              -0.000210907               0.000799839               0.000588932               0.000000000               0.000000000               0.000000000               0.000000000               0.000170384               0.002277059              -0.000042759              -0.000220738               0.000832591               0.000611853               0.000000000               0.000000000               0.000000000               0.000000000               0.000169023               0.002392283              -0.000018273              -0.000235651               0.000875970               0.000640319               0.000000000               0.000000000               0.000000000               0.000000000               0.000155106               0.002445710              -0.000004004              -0.000247548               0.000897745               0.000650196               0.000000000               0.000000000               0.000000000               0.000000000               0.000548536               0.000429598              -0.000422328               0.000152000               0.000092531               0.000244531               0.000000000               0.000000000               0.000000000               0.000000000               0.000545043               0.000666301              -0.000497432               0.000121102               0.000181730               0.000302832               0.000000000               0.000000000               0.000000000               0.000000000               0.000476552               0.000990070              -0.000537765               0.000054947               0.000311704               0.000366651               0.000000000               0.000000000               0.000000000               0.000000000               0.000418555               0.001214628              -0.000499377               0.000005129               0.000403162               0.000408291               0.000000000               0.000000000               0.000000000               0.000000000               0.000376240               0.001381955              -0.000443074              -0.000031655               0.000471199               0.000439544               0.000000000               0.000000000               0.000000000               0.000000000               0.000345899               0.001512354              -0.000384607              -0.000059332               0.000523890               0.000464558               0.000000000               0.000000000               0.000000000               0.000000000               0.000321415               0.001613796              -0.000326413              -0.000081194               0.000564991               0.000483797               0.000000000               0.000000000               0.000000000               0.000000000               0.000298192               0.001699624              -0.000274838              -0.000100631               0.000600079               0.000499448               0.000000000               0.000000000               0.000000000               0.000000000               0.000275940               0.001778969              -0.000234735              -0.000118893               0.000632615               0.000513721               0.000000000               0.000000000               0.000000000               0.000000000               0.000252781               0.001856662              -0.000200126              -0.000137290               0.000664645               0.000527355               0.000000000               0.000000000               0.000000000               0.000000000               0.000234555               0.001934624              -0.000166180              -0.000153869               0.000696158               0.000542289               0.000000000               0.000000000               0.000000000               0.000000000               0.000223250               0.002010790              -0.000139191              -0.000167630               0.000726133               0.000558503               0.000000000               0.000000000               0.000000000               0.000000000               0.000216471               0.002089959              -0.000119133              -0.000180068               0.000756668               0.000576601               0.000000000               0.000000000               0.000000000               0.000000000               0.000213519               0.002173915              -0.000094546              -0.000191669               0.000788521               0.000596852               0.000000000               0.000000000               0.000000000               0.000000000               0.000214663               0.002269763              -0.000061909              -0.000203221               0.000824321               0.000621099               0.000000000               0.000000000               0.000000000               0.000000000               0.000215648               0.002385194              -0.000028853              -0.000217281               0.000867484               0.000650203               0.000000000               0.000000000               0.000000000               0.000000000               0.000202636               0.002439299              -0.000009744              -0.000228923               0.000889399               0.000660476               0.000000000               0.000000000               0.000000000               0.000000000               0.000439222               0.000260360              -0.000296011               0.000132162               0.000042732               0.000174893               0.000000000               0.000000000               0.000000000               0.000000000               0.000525884               0.000476539              -0.000387613               0.000137638               0.000112965               0.000250603               0.000000000               0.000000000               0.000000000               0.000000000               0.000528545               0.000773666              -0.000452379               0.000101495               0.000224054               0.000325549               0.000000000               0.000000000               0.000000000               0.000000000               0.000492540               0.001009822              -0.000437821               0.000058474               0.000317113               0.000375586               0.000000000               0.000000000               0.000000000               0.000000000               0.000450900               0.001202982              -0.000398838               0.000018714               0.000394752               0.000413466               0.000000000               0.000000000               0.000000000               0.000000000               0.000412906               0.001355319              -0.000352420              -0.000014575               0.000456627               0.000442051               0.000000000               0.000000000               0.000000000               0.000000000               0.000377409               0.001473190              -0.000303617              -0.000042620               0.000505265               0.000462645               0.000000000               0.000000000               0.000000000               0.000000000               0.000349883               0.001576333              -0.000259496              -0.000065835               0.000547384               0.000481549               0.000000000               0.000000000               0.000000000               0.000000000               0.000324814               0.001669539              -0.000223098              -0.000086887               0.000585470               0.000498583               0.000000000               0.000000000               0.000000000               0.000000000               0.000302889               0.001760144              -0.000192605              -0.000106434               0.000622187               0.000515753               0.000000000               0.000000000               0.000000000               0.000000000               0.000285934               0.001850494              -0.000167404              -0.000124086               0.000658187               0.000534101               0.000000000               0.000000000               0.000000000               0.000000000               0.000276623               0.001942808              -0.000146055              -0.000139117               0.000693968               0.000554851               0.000000000               0.000000000               0.000000000               0.000000000               0.000269351               0.002045946              -0.000126237              -0.000154736               0.000733554               0.000578817               0.000000000               0.000000000               0.000000000               0.000000000               0.000265624               0.002158152              -0.000103804              -0.000170160               0.000776096               0.000605937               0.000000000               0.000000000               0.000000000               0.000000000               0.000269765               0.002272833              -0.000074430              -0.000182942               0.000818584               0.000635642               0.000000000               0.000000000               0.000000000               0.000000000               0.000277920               0.002390799              -0.000038575              -0.000194629               0.000861801               0.000667172               0.000000000               0.000000000               0.000000000               0.000000000               0.000271771               0.002445357              -0.000016999              -0.000203755               0.000883029               0.000679274               0.000000000               0.000000000               0.000000000               0.000000000               0.000339526               0.000144886              -0.000183115               0.000109211               0.000011891               0.000121102               0.000000000               0.000000000               0.000000000               0.000000000               0.000501777               0.000330501              -0.000263978               0.000146852               0.000061215               0.000208067               0.000000000               0.000000000               0.000000000               0.000000000               0.000570682               0.000595792              -0.000327141               0.000139530               0.000152085               0.000291615               0.000000000               0.000000000               0.000000000               0.000000000               0.000559694               0.000835683              -0.000326871               0.000105424               0.000243417               0.000348841               0.000000000               0.000000000               0.000000000               0.000000000               0.000521854               0.001041312              -0.000304338               0.000065531               0.000325257               0.000390788               0.000000000               0.000000000               0.000000000               0.000000000               0.000477973               0.001210220              -0.000271910               0.000027962               0.000394082               0.000422044               0.000000000               0.000000000               0.000000000               0.000000000               0.000435861               0.001343698              -0.000237266              -0.000004514               0.000449400               0.000444885               0.000000000               0.000000000               0.000000000               0.000000000               0.000400093               0.001456584              -0.000205514              -0.000032038               0.000496203               0.000464164               0.000000000               0.000000000               0.000000000               0.000000000               0.000372643               0.001561722              -0.000178744              -0.000055474               0.000539060               0.000483586               0.000000000               0.000000000               0.000000000               0.000000000               0.000351946               0.001664878              -0.000156166              -0.000076130               0.000580330               0.000504201               0.000000000               0.000000000               0.000000000               0.000000000               0.000335357               0.001772378              -0.000137455              -0.000095788               0.000622716               0.000526928               0.000000000               0.000000000               0.000000000               0.000000000               0.000322379               0.001886856              -0.000122811              -0.000114965               0.000667267               0.000552303               0.000000000               0.000000000               0.000000000               0.000000000               0.000319384               0.002008565              -0.000108551              -0.000131301               0.000713282               0.000581981               0.000000000               0.000000000               0.000000000               0.000000000               0.000324109               0.002141305              -0.000092390              -0.000146122               0.000762468               0.000616347               0.000000000               0.000000000               0.000000000               0.000000000               0.000333868               0.002276328              -0.000072038              -0.000159340               0.000811882               0.000652542               0.000000000               0.000000000               0.000000000               0.000000000               0.000350335               0.002400490              -0.000041526              -0.000168685               0.000856384               0.000687699               0.000000000               0.000000000               0.000000000               0.000000000               0.000356884               0.002457175              -0.000021716              -0.000173315               0.000876822               0.000703507               0.000000000               0.000000000               0.000000000               0.000000000               0.000271815               0.000081497              -0.000086607               0.000091742              -0.000003416               0.000088327               0.000000000               0.000000000               0.000000000               0.000000000               0.000481654               0.000240515              -0.000133333               0.000150554               0.000029986               0.000180540               0.000000000               0.000000000               0.000000000               0.000000000               0.000598142               0.000479588              -0.000171943               0.000164353               0.000105077               0.000269430               0.000000000               0.000000000               0.000000000               0.000000000               0.000606084               0.000716589              -0.000175069               0.000137706               0.000192959               0.000330665               0.000000000               0.000000000               0.000000000               0.000000000               0.000573469               0.000927730              -0.000164926               0.000099084               0.000276212               0.000375296               0.000000000               0.000000000               0.000000000               0.000000000               0.000526390               0.001106438              -0.000149077               0.000059091               0.000349112               0.000408203               0.000000000               0.000000000               0.000000000               0.000000000               0.000480425               0.001251273              -0.000130507               0.000023750               0.000409170               0.000432920               0.000000000               0.000000000               0.000000000               0.000000000               0.000439394               0.001371519              -0.000114230              -0.000006667               0.000459391               0.000452724               0.000000000               0.000000000               0.000000000               0.000000000               0.000407303               0.001482982              -0.000101334              -0.000032634               0.000505200               0.000472566               0.000000000               0.000000000               0.000000000               0.000000000               0.000382229               0.001593686              -0.000089497              -0.000055875               0.000549848               0.000493974               0.000000000               0.000000000               0.000000000               0.000000000               0.000367182               0.001715062              -0.000077377              -0.000076689               0.000597245               0.000520555               0.000000000               0.000000000               0.000000000               0.000000000               0.000359787               0.001848322              -0.000069538              -0.000096120               0.000648141               0.000552021               0.000000000               0.000000000               0.000000000               0.000000000               0.000360130               0.001985405              -0.000065063              -0.000113127               0.000699504               0.000586377               0.000000000               0.000000000               0.000000000               0.000000000               0.000370352               0.002130729              -0.000055884              -0.000127459               0.000752722               0.000625263               0.000000000               0.000000000               0.000000000               0.000000000               0.000388103               0.002275710              -0.000044300              -0.000138925               0.000804871               0.000665946               0.000000000               0.000000000               0.000000000               0.000000000               0.000412631               0.002404180              -0.000028852              -0.000145785               0.000849980               0.000704195               0.000000000               0.000000000               0.000000000               0.000000000               0.000429371               0.002463737              -0.000018750              -0.000146953               0.000870222               0.000723269               0.000000000               0.000000000               0.000000000               0.000000000               0.000247766               0.000062110               0.000000000               0.000085148              -0.000007679               0.000077468               0.000000000               0.000000000               0.000000000               0.000000000               0.000473192               0.000209964               0.000000000               0.000151200               0.000019587               0.000170787               0.000000000               0.000000000               0.000000000               0.000000000               0.000607268               0.000438072              -0.000000000               0.000172965               0.000088368               0.000261332               0.000000000               0.000000000               0.000000000               0.000000000               0.000622198               0.000673922              -0.000000000               0.000149083               0.000174944               0.000324027               0.000000000               0.000000000               0.000000000               0.000000000               0.000592065               0.000887309               0.000000000               0.000111110               0.000258730               0.000369840               0.000000000               0.000000000               0.000000000               0.000000000               0.000545013               0.001068538              -0.000000000               0.000070812               0.000332572               0.000403384               0.000000000               0.000000000               0.000000000               0.000000000               0.000496089               0.001216426              -0.000000000               0.000033980               0.000394145               0.000428125               0.000000000               0.000000000               0.000000000               0.000000000               0.000454866               0.001340761              -0.000000000               0.000002980               0.000445923               0.000448902               0.000000000               0.000000000               0.000000000               0.000000000               0.000419562               0.001455890               0.000000000              -0.000024650               0.000493509               0.000468858               0.000000000               0.000000000               0.000000000               0.000000000               0.000392629               0.001570941               0.000000000              -0.000049132               0.000540019               0.000490887               0.000000000               0.000000000               0.000000000               0.000000000               0.000376965               0.001691381              -0.000000000              -0.000070061               0.000587141               0.000517081               0.000000000               0.000000000               0.000000000               0.000000000               0.000375752               0.001827868              -0.000000000              -0.000087576               0.000638475               0.000550899               0.000000000               0.000000000               0.000000000               0.000000000               0.000378185               0.001979452              -0.000000000              -0.000105612               0.000695015               0.000589403               0.000000000               0.000000000               0.000000000               0.000000000               0.000387126               0.002131048               0.000000000              -0.000121208               0.000750745               0.000629537               0.000000000               0.000000000               0.000000000               0.000000000               0.000407784               0.002272342               0.000000000              -0.000131124               0.000801148               0.000670024               0.000000000               0.000000000               0.000000000               0.000000000               0.000437318               0.002403266              -0.000000000              -0.000136414               0.000846552               0.000710138               0.000000000               0.000000000               0.000000000               0.000000000               0.000457354               0.002466479              -0.000000000              -0.000136802               0.000867752               0.000730950               0.000000000               0.000000000               0.000000000               0.000000000               0.000000000               0.000000000               0.000000000               0.000000000               0.000000000               0.000000000               0.000000000               0.000000000               0.000000000               0.000000000               0.000000000               0.000000000               0.000000000               0.000000000               0.000000000               0.000000000               0.000000000               0.000000000               0.000000000               0.000000000               0.000000000               0.000000000               0.000000000               0.000000000               0.000000000               0.000000000               0.000000000               0.000000000               0.000000000               0.000000000               0.000000000               0.000000000               0.000000000               0.000000000               0.000000000               0.000000000               0.000000000               0.000000000               0.000000000               0.000000000               0.000000000               0.000000000               0.000000000               0.000000000               0.000000000               0.000000000               0.000000000               0.000000000               0.000000000               0.000000000               0.000000000               0.000000000               0.000000000               0.000000000               0.000000000               0.000000000               0.000000000               0.000000000               0.000000000               0.000000000               0.000000000               0.000000000               0.000000000               0.000000000               0.000000000               0.000000000               0.000000000               0.000000000               0.000000000               0.000000000               0.000000000               0.000000000               0.000000000               0.000000000               0.000000000               0.000000000               0.000000000               0.000000000               0.000000000               0.000000000               0.000000000               0.000000000               0.000000000               0.000000000               0.000000000               0.000000000               0.000000000               0.000000000               0.000000000               0.000000000               0.000000000               0.000000000               0.000000000               0.000000000               0.000000000               0.000000000               0.000000000               0.000000000               0.000000000               0.000000000               0.000000000               0.000000000               0.000000000               0.000000000               0.000000000               0.000000000               0.000000000               0.000000000               0.000000000               0.000000000               0.000000000               0.000000000               0.000000000               0.000000000               0.000000000               0.000000000               0.000000000               0.000000000               0.000000000               0.000000000               0.000000000               0.000000000               0.000000000               0.000000000               0.000000000               0.000000000               0.000000000               0.000000000               0.000000000               0.000000000               0.000000000               0.000000000               0.000000000               0.000000000               0.000000000               0.000000000               0.000000000               0.000000000               0.000000000               0.000000000               0.000000000               0.000000000               0.000000000               0.000000000               0.000000000               0.000000000               0.000000000               0.000000000               0.000000000               0.000000000               0.000000000               0.000000000               0.000000000               0.000000000               0.000000000               0.000000000               0.000000000               0.000000000               0.000000000               0.000000000               0.000000000               0.000000000               0.000000000               0.000000000               0.000000000               0.000000000               0.000000000               0.000000000               0.000000000               0.000000000               0.000353964               0.003664513               0.000292765              -0.000325327               0.001329934               0.001004607               0.000000000               0.000000000               0.000000000               0.000000000               0.000391927               0.003065241               0.000197531              -0.000236182               0.001100464               0.000864282               0.000000000               0.000000000               0.000000000               0.000000000               0.000542260               0.002582793               0.000098458              -0.000119501               0.000900756               0.000781255               0.000000000               0.000000000               0.000000000               0.000000000               0.000578201               0.002316867               0.000050404              -0.000072783               0.000796542               0.000723759               0.000000000               0.000000000               0.000000000               0.000000000               0.000565455               0.002164343               0.000026218              -0.000058497               0.000740940               0.000682442               0.000000000               0.000000000               0.000000000               0.000000000               0.000526309               0.002075048               0.000013774              -0.000062015               0.000712347               0.000650332               0.000000000               0.000000000               0.000000000               0.000000000               0.000476746               0.002024150               0.000008032              -0.000074239               0.000699456               0.000625217               0.000000000               0.000000000               0.000000000               0.000000000               0.000424045               0.001998651               0.000006142              -0.000090814               0.000696482               0.000605667               0.000000000               0.000000000               0.000000000               0.000000000               0.000368427               0.001988486               0.000005758              -0.000110400               0.000699622               0.000589222               0.000000000               0.000000000               0.000000000               0.000000000               0.000313907               0.001989124               0.000005370              -0.000130925               0.000706676               0.000575751               0.000000000               0.000000000               0.000000000               0.000000000               0.000259390               0.001999397               0.000004452              -0.000152653               0.000717344               0.000564690               0.000000000               0.000000000               0.000000000               0.000000000               0.000204639               0.002017740               0.000001889              -0.000175477               0.000731066               0.000555588               0.000000000               0.000000000               0.000000000               0.000000000               0.000152955               0.002043098               0.000000636              -0.000198028               0.000747035               0.000549007               0.000000000               0.000000000               0.000000000               0.000000000               0.000105982               0.002071528               0.000002591              -0.000219197               0.000763568               0.000544371               0.000000000               0.000000000               0.000000000               0.000000000               0.000066274               0.002101176               0.000005277              -0.000237794               0.000779650               0.000541856               0.000000000               0.000000000               0.000000000               0.000000000               0.000031908               0.002131739               0.000005462              -0.000254501               0.000795406               0.000540905               0.000000000               0.000000000               0.000000000               0.000000000               0.000018608               0.002155581               0.000004815              -0.000262469               0.000806010               0.000543541               0.000000000               0.000000000               0.000000000               0.000000000               0.000417596               0.003498641               0.000554670              -0.000280731               0.001259779               0.000979048               0.000000000               0.000000000               0.000000000               0.000000000               0.000415803               0.002946106               0.000375201              -0.000212337               0.001052804               0.000840468               0.000000000               0.000000000               0.000000000               0.000000000               0.000523937               0.002518389               0.000188840              -0.000118322               0.000878895               0.000760573               0.000000000               0.000000000               0.000000000               0.000000000               0.000540882               0.002284650               0.000099760              -0.000082750               0.000789126               0.000706376               0.000000000               0.000000000               0.000000000               0.000000000               0.000519254               0.002149908               0.000055915              -0.000074018               0.000741302               0.000667284               0.000000000               0.000000000               0.000000000               0.000000000               0.000479988               0.002070009               0.000034591              -0.000078755               0.000716248               0.000637492               0.000000000               0.000000000               0.000000000               0.000000000               0.000434583               0.002024428               0.000024225              -0.000090085               0.000704831               0.000614746               0.000000000               0.000000000               0.000000000               0.000000000               0.000386249               0.002000915               0.000019750              -0.000105271               0.000702055               0.000596784               0.000000000               0.000000000               0.000000000               0.000000000               0.000335789               0.001990597               0.000018258              -0.000122903               0.000704494               0.000581590               0.000000000               0.000000000               0.000000000               0.000000000               0.000285919               0.001991900               0.000016233              -0.000141767               0.000711216               0.000569448               0.000000000               0.000000000               0.000000000               0.000000000               0.000234722               0.002001865               0.000012214              -0.000162212               0.000721352               0.000559140               0.000000000               0.000000000               0.000000000               0.000000000               0.000183156               0.002019535               0.000007469              -0.000183758               0.000734424               0.000550666               0.000000000               0.000000000               0.000000000               0.000000000               0.000134310               0.002040907               0.000006459              -0.000204747               0.000748545               0.000543798               0.000000000               0.000000000               0.000000000               0.000000000               0.000093449               0.002062864               0.000009825              -0.000222814               0.000761886               0.000539072               0.000000000               0.000000000               0.000000000               0.000000000               0.000061535               0.002084989               0.000012569              -0.000237548               0.000774172               0.000536624               0.000000000               0.000000000               0.000000000               0.000000000               0.000030948               0.002108456               0.000010308              -0.000251951               0.000786795               0.000534844               0.000000000               0.000000000               0.000000000               0.000000000               0.000017828               0.002127686               0.000008341              -0.000259274               0.000795646               0.000536372               0.000000000               0.000000000               0.000000000               0.000000000               0.000504210               0.003244822               0.000765498              -0.000216524               0.001153771               0.000937247               0.000000000               0.000000000               0.000000000               0.000000000               0.000445579               0.002765564               0.000518796              -0.000178603               0.000981380               0.000802777               0.000000000               0.000000000               0.000000000               0.000000000               0.000492518               0.002424016               0.000265155              -0.000118307               0.000847433               0.000729126               0.000000000               0.000000000               0.000000000               0.000000000               0.000484067               0.002238226               0.000149217              -0.000098253               0.000778819               0.000680566               0.000000000               0.000000000               0.000000000               0.000000000               0.000453460               0.002128187               0.000093273              -0.000095976               0.000741381               0.000645405               0.000000000               0.000000000               0.000000000               0.000000000               0.000414706               0.002062246               0.000065266              -0.000102266               0.000721497               0.000619231               0.000000000               0.000000000               0.000000000               0.000000000               0.000374384               0.002022930               0.000050707              -0.000112472               0.000711794               0.000599322               0.000000000               0.000000000               0.000000000               0.000000000               0.000333615               0.002000615               0.000043239              -0.000124971               0.000708522               0.000583551               0.000000000               0.000000000               0.000000000               0.000000000               0.000292040               0.001991303               0.000038228              -0.000139398               0.000710227               0.000570829               0.000000000               0.000000000               0.000000000               0.000000000               0.000249323               0.001993736               0.000032343              -0.000155720               0.000716479               0.000560758               0.000000000               0.000000000               0.000000000               0.000000000               0.000203345               0.002004257               0.000024508              -0.000174277               0.000726171               0.000551894               0.000000000               0.000000000               0.000000000               0.000000000               0.000157159               0.002020872               0.000016884              -0.000193674               0.000738175               0.000544501               0.000000000               0.000000000               0.000000000               0.000000000               0.000116828               0.002036835               0.000015725              -0.000210793               0.000749203               0.000538409               0.000000000               0.000000000               0.000000000               0.000000000               0.000083331               0.002048750               0.000019946              -0.000224844               0.000757858               0.000533014               0.000000000               0.000000000               0.000000000               0.000000000               0.000054483               0.002058987               0.000020255              -0.000236942               0.000765303               0.000528361               0.000000000               0.000000000               0.000000000               0.000000000               0.000027653               0.002073114               0.000012237              -0.000248769               0.000773954               0.000525185               0.000000000               0.000000000               0.000000000               0.000000000               0.000016430               0.002086413               0.000007176              -0.000254640               0.000780344               0.000525704               0.000000000               0.000000000               0.000000000               0.000000000               0.000596627               0.002925591               0.000913469              -0.000141964               0.001022508               0.000880544               0.000000000               0.000000000               0.000000000               0.000000000               0.000473616               0.002545769               0.000622401              -0.000140615               0.000895453               0.000754838               0.000000000               0.000000000               0.000000000               0.000000000               0.000450137               0.002311445               0.000328105              -0.000120129               0.000810517               0.000690388               0.000000000               0.000000000               0.000000000               0.000000000               0.000415175               0.002178653               0.000199815              -0.000116641               0.000765091               0.000648450               0.000000000               0.000000000               0.000000000               0.000000000               0.000378836               0.002096850               0.000137242              -0.000120043               0.000738957               0.000618915               0.000000000               0.000000000               0.000000000               0.000000000               0.000342938               0.002046406               0.000104187              -0.000127199               0.000724528               0.000597329               0.000000000               0.000000000               0.000000000               0.000000000               0.000310634               0.002015853               0.000085206              -0.000135494               0.000717109               0.000581615               0.000000000               0.000000000               0.000000000               0.000000000               0.000279157               0.001999740               0.000073068              -0.000145283               0.000715001               0.000569718               0.000000000               0.000000000               0.000000000               0.000000000               0.000246285               0.001994801               0.000062487              -0.000156993               0.000717258               0.000560265               0.000000000               0.000000000               0.000000000               0.000000000               0.000210948               0.001999826               0.000050512              -0.000170872               0.000723559               0.000552687               0.000000000               0.000000000               0.000000000               0.000000000               0.000170108               0.002010906               0.000036798              -0.000187572               0.000732819               0.000545247               0.000000000               0.000000000               0.000000000               0.000000000               0.000132722               0.002023076               0.000026098              -0.000203113               0.000742056               0.000538943               0.000000000               0.000000000               0.000000000               0.000000000               0.000102499               0.002030248               0.000024175              -0.000215343               0.000748524               0.000533180               0.000000000               0.000000000               0.000000000               0.000000000               0.000076034               0.002035601               0.000027574              -0.000225937               0.000753839               0.000527902               0.000000000               0.000000000               0.000000000               0.000000000               0.000051205               0.002041158               0.000023355              -0.000235942               0.000759027               0.000523084               0.000000000               0.000000000               0.000000000               0.000000000               0.000026002               0.002050715               0.000009495              -0.000246588               0.000765761               0.000519173               0.000000000               0.000000000               0.000000000               0.000000000               0.000014740               0.002059454               0.000002625              -0.000251904               0.000770446               0.000518542               0.000000000               0.000000000               0.000000000               0.000000000               0.000678592               0.002568453               0.000992110              -0.000066586               0.000878337               0.000811752               0.000000000               0.000000000               0.000000000               0.000000000               0.000493370               0.002307437               0.000686880              -0.000103416               0.000803610               0.000700194               0.000000000               0.000000000               0.000000000               0.000000000               0.000401216               0.002189174               0.000381230              -0.000123191               0.000770781               0.000647590               0.000000000               0.000000000               0.000000000               0.000000000               0.000345997               0.002109572               0.000250228              -0.000133948               0.000747833               0.000613885               0.000000000               0.000000000               0.000000000               0.000000000               0.000310526               0.002059809               0.000184769              -0.000141029               0.000733606               0.000592577               0.000000000               0.000000000               0.000000000               0.000000000               0.000280566               0.002027412               0.000146584              -0.000148214               0.000725202               0.000576988               0.000000000               0.000000000               0.000000000               0.000000000               0.000254574               0.002008732               0.000122091              -0.000155626               0.000721446               0.000565820               0.000000000               0.000000000               0.000000000               0.000000000               0.000230839               0.001999895               0.000103295              -0.000163422               0.000721099               0.000557677               0.000000000               0.000000000               0.000000000               0.000000000               0.000205165               0.002000466               0.000084473              -0.000173121               0.000724522               0.000551401               0.000000000               0.000000000               0.000000000               0.000000000               0.000174767               0.002009853               0.000064920              -0.000185694               0.000731842               0.000546148               0.000000000               0.000000000               0.000000000               0.000000000               0.000143727               0.002022429               0.000046158              -0.000198906               0.000740438               0.000541533               0.000000000               0.000000000               0.000000000               0.000000000               0.000116185               0.002028523               0.000033196              -0.000209996               0.000746166               0.000536171               0.000000000               0.000000000               0.000000000               0.000000000               0.000094121               0.002030980               0.000027920              -0.000218577               0.000749845               0.000531269               0.000000000               0.000000000               0.000000000               0.000000000               0.000071788               0.002035695               0.000027230              -0.000227541               0.000754405               0.000526864               0.000000000               0.000000000               0.000000000               0.000000000               0.000046350               0.002044997               0.000020493              -0.000238243               0.000761073               0.000522830               0.000000000               0.000000000               0.000000000               0.000000000               0.000023187               0.002058088               0.000005927              -0.000248565               0.000768878               0.000520312               0.000000000               0.000000000               0.000000000               0.000000000               0.000015109               0.002068110               0.000000308              -0.000252847               0.000773646               0.000520798               0.000000000               0.000000000               0.000000000               0.000000000               0.000733940               0.002199116               0.001007099               0.000000337               0.000732919               0.000733255               0.000000000               0.000000000               0.000000000               0.000000000               0.000502031               0.002064413               0.000717535              -0.000069790               0.000711394               0.000641604               0.000000000               0.000000000               0.000000000               0.000000000               0.000354468               0.002063570               0.000425531              -0.000125021               0.000729523               0.000604502               0.000000000               0.000000000               0.000000000               0.000000000               0.000289012               0.002038080               0.000298292              -0.000146380               0.000728147               0.000581766               0.000000000               0.000000000               0.000000000               0.000000000               0.000257708               0.002019112               0.000230292              -0.000155748               0.000724947               0.000569198               0.000000000               0.000000000               0.000000000               0.000000000               0.000233115               0.002004947               0.000186490              -0.000163200               0.000722709               0.000559509               0.000000000               0.000000000               0.000000000               0.000000000               0.000212205               0.001998505               0.000154653              -0.000170236               0.000722907               0.000552671               0.000000000               0.000000000               0.000000000               0.000000000               0.000193523               0.001999594               0.000127160              -0.000177378               0.000725651               0.000548273               0.000000000               0.000000000               0.000000000               0.000000000               0.000170427               0.002010113               0.000100862              -0.000187354               0.000732482               0.000545129               0.000000000               0.000000000               0.000000000               0.000000000               0.000144776               0.002025671               0.000073983              -0.000198917               0.000741523               0.000542605               0.000000000               0.000000000               0.000000000               0.000000000               0.000124613               0.002040978               0.000052894              -0.000208392               0.000749783               0.000541392               0.000000000               0.000000000               0.000000000               0.000000000               0.000107518               0.002046730               0.000040042              -0.000215522               0.000754077               0.000538556               0.000000000               0.000000000               0.000000000               0.000000000               0.000091014               0.002050496               0.000031947              -0.000222181               0.000757552               0.000535371               0.000000000               0.000000000               0.000000000               0.000000000               0.000070115               0.002059466               0.000026162              -0.000231140               0.000763528               0.000532389               0.000000000               0.000000000               0.000000000               0.000000000               0.000045816               0.002077811               0.000015954              -0.000242545               0.000773445               0.000530900               0.000000000               0.000000000               0.000000000               0.000000000               0.000022257               0.002099033               0.000003400              -0.000254032               0.000784348               0.000530316               0.000000000               0.000000000               0.000000000               0.000000000               0.000014628               0.002114317               0.000000912              -0.000258804               0.000791033               0.000532230               0.000000000               0.000000000               0.000000000               0.000000000               0.000760192               0.001838297               0.000968520               0.000055283               0.000594332               0.000649615               0.000000000               0.000000000               0.000000000               0.000000000               0.000500446               0.001832404               0.000719989              -0.000041384               0.000624590               0.000583206               0.000000000               0.000000000               0.000000000               0.000000000               0.000317956               0.001942340               0.000462267              -0.000123559               0.000688627               0.000565067               0.000000000               0.000000000               0.000000000               0.000000000               0.000251339               0.001965712               0.000341028              -0.000151462               0.000705718               0.000554256               0.000000000               0.000000000               0.000000000               0.000000000               0.000223049               0.001971893               0.000268324              -0.000162843               0.000711572               0.000548729               0.000000000               0.000000000               0.000000000               0.000000000               0.000204725               0.001977141               0.000216897              -0.000170370               0.000715830               0.000545460               0.000000000               0.000000000               0.000000000               0.000000000               0.000185671               0.001986160               0.000175832              -0.000178643               0.000721594               0.000542951               0.000000000               0.000000000               0.000000000               0.000000000               0.000165772               0.002003474               0.000141472              -0.000188269               0.000730574               0.000542305               0.000000000               0.000000000               0.000000000               0.000000000               0.000144699               0.002029186               0.000110387              -0.000199386               0.000742851               0.000543465               0.000000000               0.000000000               0.000000000               0.000000000               0.000125602               0.002054642               0.000080463              -0.000209729               0.000754783               0.000545054               0.000000000               0.000000000               0.000000000               0.000000000               0.000111726               0.002070657               0.000058040              -0.000216934               0.000762524               0.000545589               0.000000000               0.000000000               0.000000000               0.000000000               0.000100262               0.002081400               0.000045974              -0.000222576               0.000767985               0.000545409               0.000000000               0.000000000               0.000000000               0.000000000               0.000084156               0.002096652               0.000035223              -0.000230522               0.000775718               0.000545195               0.000000000               0.000000000               0.000000000               0.000000000               0.000063892               0.002124368               0.000023114              -0.000241586               0.000788644               0.000547058               0.000000000               0.000000000               0.000000000               0.000000000               0.000043719               0.002164022               0.000009596              -0.000254107               0.000806036               0.000551928               0.000000000               0.000000000               0.000000000               0.000000000               0.000023146               0.002206683              -0.000000053              -0.000267155               0.000824605               0.000557450               0.000000000               0.000000000               0.000000000               0.000000000               0.000015621               0.002236575               0.000000562              -0.000273713               0.000836755               0.000563042               0.000000000               0.000000000               0.000000000               0.000000000               0.000772297               0.001516332               0.000892166               0.000100068               0.000472083               0.000572151               0.000000000               0.000000000               0.000000000               0.000000000               0.000506545               0.001624901               0.000708358              -0.000013159               0.000546014               0.000532855               0.000000000               0.000000000               0.000000000               0.000000000               0.000305178               0.001830042               0.000501351              -0.000114314               0.000648112               0.000533799               0.000000000               0.000000000               0.000000000               0.000000000               0.000239048               0.001895770               0.000383705              -0.000147328               0.000681026               0.000533698               0.000000000               0.000000000               0.000000000               0.000000000               0.000212274               0.001926828               0.000305095              -0.000161250               0.000696020               0.000534769               0.000000000               0.000000000               0.000000000               0.000000000               0.000199125               0.001953365               0.000245637              -0.000169498               0.000707614               0.000538116               0.000000000               0.000000000               0.000000000               0.000000000               0.000183403               0.001979609               0.000196814              -0.000178675               0.000719421               0.000540747               0.000000000               0.000000000               0.000000000               0.000000000               0.000161484               0.002012966               0.000156873              -0.000191064               0.000734670               0.000543606               0.000000000               0.000000000               0.000000000               0.000000000               0.000139118               0.002052176               0.000122099              -0.000204352               0.000752169               0.000547817               0.000000000               0.000000000               0.000000000               0.000000000               0.000123659               0.002084214               0.000092313              -0.000214154               0.000766116               0.000551962               0.000000000               0.000000000               0.000000000               0.000000000               0.000110702               0.002101225               0.000068787              -0.000221139               0.000774114               0.000552975               0.000000000               0.000000000               0.000000000               0.000000000               0.000099358               0.002119603               0.000051560              -0.000227690               0.000782424               0.000554734               0.000000000               0.000000000               0.000000000               0.000000000               0.000087536               0.002154641               0.000033290              -0.000236504               0.000797041               0.000560537               0.000000000               0.000000000               0.000000000               0.000000000               0.000072229               0.002209791               0.000013999              -0.000249137               0.000819635               0.000570498               0.000000000               0.000000000               0.000000000               0.000000000               0.000056451               0.002277938              -0.000001121              -0.000263572               0.000847162               0.000583590               0.000000000               0.000000000               0.000000000               0.000000000               0.000046415               0.002350927              -0.000007318              -0.000276460               0.000875788               0.000599328               0.000000000               0.000000000               0.000000000               0.000000000               0.000042007               0.002391605              -0.000006656              -0.000283197               0.000891593               0.000608396               0.000000000               0.000000000               0.000000000               0.000000000               0.000763707               0.001203226               0.000796144               0.000135985               0.000355743               0.000491727               0.000000000               0.000000000               0.000000000               0.000000000               0.000527003               0.001381570               0.000690255               0.000024929               0.000452209               0.000477138               0.000000000               0.000000000               0.000000000               0.000000000               0.000322329               0.001651921               0.000547541              -0.000085617               0.000579174               0.000493557               0.000000000               0.000000000               0.000000000               0.000000000               0.000253016               0.001765470               0.000437197              -0.000125803               0.000630418               0.000504615               0.000000000               0.000000000               0.000000000               0.000000000               0.000224622               0.001829789               0.000354949              -0.000144490               0.000658087               0.000513597               0.000000000               0.000000000               0.000000000               0.000000000               0.000211211               0.001879058               0.000288766              -0.000155678               0.000678239               0.000522561               0.000000000               0.000000000               0.000000000               0.000000000               0.000199531               0.001923026               0.000233646              -0.000165554               0.000696187               0.000530633               0.000000000               0.000000000               0.000000000               0.000000000               0.000182090               0.001968916               0.000188189              -0.000177830               0.000715576               0.000537745               0.000000000               0.000000000               0.000000000               0.000000000               0.000158883               0.002015837               0.000151202              -0.000192398               0.000736072               0.000543673               0.000000000               0.000000000               0.000000000               0.000000000               0.000138616               0.002055209               0.000120688              -0.000204920               0.000753370               0.000548450               0.000000000               0.000000000               0.000000000               0.000000000               0.000125545               0.002088877               0.000092797              -0.000214030               0.000767628               0.000553599               0.000000000               0.000000000               0.000000000               0.000000000               0.000111563               0.002118675               0.000067290              -0.000222998               0.000780551               0.000557553               0.000000000               0.000000000               0.000000000               0.000000000               0.000100643               0.002162097               0.000043316              -0.000232520               0.000798198               0.000565678               0.000000000               0.000000000               0.000000000               0.000000000               0.000092154               0.002228009               0.000020610              -0.000243943               0.000823977               0.000580034               0.000000000               0.000000000               0.000000000               0.000000000               0.000088144               0.002317275               0.000006804              -0.000256605               0.000857952               0.000601347               0.000000000               0.000000000               0.000000000               0.000000000               0.000090097               0.002417798               0.000001042              -0.000268438               0.000895404               0.000626966               0.000000000               0.000000000               0.000000000               0.000000000               0.000086650               0.002462689              -0.000002641              -0.000275342               0.000912669               0.000637327               0.000000000               0.000000000               0.000000000               0.000000000               0.000721547               0.000910627               0.000682675               0.000156750               0.000251289               0.000408039               0.000000000               0.000000000               0.000000000               0.000000000               0.000548629               0.001133459               0.000652919               0.000064052               0.000356465               0.000420517               0.000000000               0.000000000               0.000000000               0.000000000               0.000364525               0.001445754               0.000580564              -0.000044023               0.000496587               0.000452565               0.000000000               0.000000000               0.000000000               0.000000000               0.000290974               0.001608652               0.000488467              -0.000091966               0.000566867               0.000474901               0.000000000               0.000000000               0.000000000               0.000000000               0.000258861               0.001709660               0.000407840              -0.000116635               0.000608759               0.000492125               0.000000000               0.000000000               0.000000000               0.000000000               0.000242623               0.001783608               0.000338756              -0.000131967               0.000638519               0.000506552               0.000000000               0.000000000               0.000000000               0.000000000               0.000230973               0.001845551               0.000278629              -0.000144079               0.000663204               0.000519125               0.000000000               0.000000000               0.000000000               0.000000000               0.000216136               0.001900909               0.000227741              -0.000156562               0.000685817               0.000529255               0.000000000               0.000000000               0.000000000               0.000000000               0.000195994               0.001954730               0.000187552              -0.000170843               0.000708518               0.000537675               0.000000000               0.000000000               0.000000000               0.000000000               0.000173746               0.002005465               0.000155454              -0.000185528               0.000730324               0.000544796               0.000000000               0.000000000               0.000000000               0.000000000               0.000154625               0.002054538               0.000122176              -0.000198833               0.000751117               0.000552284               0.000000000               0.000000000               0.000000000               0.000000000               0.000138141               0.002100143               0.000090437              -0.000210714               0.000770279               0.000559564               0.000000000               0.000000000               0.000000000               0.000000000               0.000128116               0.002148541               0.000064213              -0.000220523               0.000789681               0.000569158               0.000000000               0.000000000               0.000000000               0.000000000               0.000127026               0.002210044               0.000040434              -0.000228620               0.000812881               0.000584261               0.000000000               0.000000000               0.000000000               0.000000000               0.000129565               0.002296580               0.000022600              -0.000238485               0.000845014               0.000606529               0.000000000               0.000000000               0.000000000               0.000000000               0.000129682               0.002403388               0.000009616              -0.000251792               0.000885052               0.000633260               0.000000000               0.000000000               0.000000000               0.000000000               0.000121201               0.002452848               0.000000815              -0.000261155               0.000904659               0.000643505               0.000000000               0.000000000               0.000000000               0.000000000               0.000646794               0.000648886               0.000554839               0.000161435               0.000162481               0.000323916               0.000000000               0.000000000               0.000000000               0.000000000               0.000554021               0.000889770               0.000587531               0.000096535               0.000264408               0.000360943               0.000000000               0.000000000               0.000000000               0.000000000               0.000419586               0.001220156               0.000579232               0.000004824               0.000405106               0.000409930               0.000000000               0.000000000               0.000000000               0.000000000               0.000347919               0.001421331               0.000513320              -0.000047197               0.000489504               0.000442307               0.000000000               0.000000000               0.000000000               0.000000000               0.000310182               0.001556598               0.000442123              -0.000078257               0.000544946               0.000466690               0.000000000               0.000000000               0.000000000               0.000000000               0.000288342               0.001659265               0.000375211              -0.000099280               0.000586176               0.000486896               0.000000000               0.000000000               0.000000000               0.000000000               0.000271929               0.001741039               0.000313675              -0.000115657               0.000618893               0.000503236               0.000000000               0.000000000               0.000000000               0.000000000               0.000253476               0.001809840               0.000260211              -0.000131176               0.000646999               0.000515823               0.000000000               0.000000000               0.000000000               0.000000000               0.000233590               0.001874434               0.000218805              -0.000146708               0.000673707               0.000527000               0.000000000               0.000000000               0.000000000               0.000000000               0.000212377               0.001939167               0.000184249              -0.000162754               0.000700634               0.000537880               0.000000000               0.000000000               0.000000000               0.000000000               0.000191017               0.002003878               0.000147767              -0.000178853               0.000727570               0.000548717               0.000000000               0.000000000               0.000000000               0.000000000               0.000174227               0.002065495               0.000115762              -0.000192851               0.000752775               0.000559924               0.000000000               0.000000000               0.000000000               0.000000000               0.000166185               0.002124521               0.000092769              -0.000203245               0.000775915               0.000572670               0.000000000               0.000000000               0.000000000               0.000000000               0.000167125               0.002188632               0.000070092              -0.000210907               0.000799839               0.000588932               0.000000000               0.000000000               0.000000000               0.000000000               0.000170384               0.002277059               0.000042759              -0.000220738               0.000832591               0.000611853               0.000000000               0.000000000               0.000000000               0.000000000               0.000169023               0.002392283               0.000018273              -0.000235651               0.000875970               0.000640319               0.000000000               0.000000000               0.000000000               0.000000000               0.000155106               0.002445710               0.000004004              -0.000247548               0.000897745               0.000650196               0.000000000               0.000000000               0.000000000               0.000000000               0.000548536               0.000429598               0.000422328               0.000152000               0.000092531               0.000244531               0.000000000               0.000000000               0.000000000               0.000000000               0.000545043               0.000666301               0.000497432               0.000121102               0.000181730               0.000302832               0.000000000               0.000000000               0.000000000               0.000000000               0.000476552               0.000990070               0.000537765               0.000054947               0.000311704               0.000366651               0.000000000               0.000000000               0.000000000               0.000000000               0.000418555               0.001214628               0.000499377               0.000005129               0.000403162               0.000408291               0.000000000               0.000000000               0.000000000               0.000000000               0.000376240               0.001381955               0.000443074              -0.000031655               0.000471199               0.000439544               0.000000000               0.000000000               0.000000000               0.000000000               0.000345899               0.001512354               0.000384607              -0.000059332               0.000523890               0.000464558               0.000000000               0.000000000               0.000000000               0.000000000               0.000321415               0.001613796               0.000326413              -0.000081194               0.000564991               0.000483797               0.000000000               0.000000000               0.000000000               0.000000000               0.000298192               0.001699624               0.000274838              -0.000100631               0.000600079               0.000499448               0.000000000               0.000000000               0.000000000               0.000000000               0.000275940               0.001778969               0.000234735              -0.000118893               0.000632615               0.000513721               0.000000000               0.000000000               0.000000000               0.000000000               0.000252781               0.001856662               0.000200126              -0.000137290               0.000664645               0.000527355               0.000000000               0.000000000               0.000000000               0.000000000               0.000234555               0.001934624               0.000166180              -0.000153869               0.000696158               0.000542289               0.000000000               0.000000000               0.000000000               0.000000000               0.000223250               0.002010790               0.000139191              -0.000167630               0.000726133               0.000558503               0.000000000               0.000000000               0.000000000               0.000000000               0.000216471               0.002089959               0.000119133              -0.000180068               0.000756668               0.000576601               0.000000000               0.000000000               0.000000000               0.000000000               0.000213519               0.002173915               0.000094546              -0.000191669               0.000788521               0.000596852               0.000000000               0.000000000               0.000000000               0.000000000               0.000214663               0.002269763               0.000061909              -0.000203221               0.000824321               0.000621099               0.000000000               0.000000000               0.000000000               0.000000000               0.000215648               0.002385194               0.000028853              -0.000217281               0.000867484               0.000650203               0.000000000               0.000000000               0.000000000               0.000000000               0.000202636               0.002439299               0.000009744              -0.000228923               0.000889399               0.000660476               0.000000000               0.000000000               0.000000000               0.000000000               0.000439222               0.000260360               0.000296011               0.000132162               0.000042732               0.000174893               0.000000000               0.000000000               0.000000000               0.000000000               0.000525884               0.000476539               0.000387613               0.000137638               0.000112965               0.000250603               0.000000000               0.000000000               0.000000000               0.000000000               0.000528545               0.000773666               0.000452379               0.000101495               0.000224054               0.000325549               0.000000000               0.000000000               0.000000000               0.000000000               0.000492540               0.001009822               0.000437821               0.000058474               0.000317113               0.000375586               0.000000000               0.000000000               0.000000000               0.000000000               0.000450900               0.001202982               0.000398838               0.000018714               0.000394752               0.000413466               0.000000000               0.000000000               0.000000000               0.000000000               0.000412906               0.001355319               0.000352420              -0.000014575               0.000456627               0.000442051               0.000000000               0.000000000               0.000000000               0.000000000               0.000377409               0.001473190               0.000303617              -0.000042620               0.000505265               0.000462645               0.000000000               0.000000000               0.000000000               0.000000000               0.000349883               0.001576333               0.000259496              -0.000065835               0.000547384               0.000481549               0.000000000               0.000000000               0.000000000               0.000000000               0.000324814               0.001669539               0.000223098              -0.000086887               0.000585470               0.000498583               0.000000000               0.000000000               0.000000000               0.000000000               0.000302889               0.001760144               0.000192605              -0.000106434               0.000622187               0.000515753               0.000000000               0.000000000               0.000000000               0.000000000               0.000285934               0.001850494               0.000167404              -0.000124086               0.000658187               0.000534101               0.000000000               0.000000000               0.000000000               0.000000000               0.000276623               0.001942808               0.000146055              -0.000139117               0.000693968               0.000554851               0.000000000               0.000000000               0.000000000               0.000000000               0.000269351               0.002045946               0.000126237              -0.000154736               0.000733554               0.000578817               0.000000000               0.000000000               0.000000000               0.000000000               0.000265624               0.002158152               0.000103804              -0.000170160               0.000776096               0.000605937               0.000000000               0.000000000               0.000000000               0.000000000               0.000269765               0.002272833               0.000074430              -0.000182942               0.000818584               0.000635642               0.000000000               0.000000000               0.000000000               0.000000000               0.000277920               0.002390799               0.000038575              -0.000194629               0.000861801               0.000667172               0.000000000               0.000000000               0.000000000               0.000000000               0.000271771               0.002445357               0.000016999              -0.000203755               0.000883029               0.000679274               0.000000000               0.000000000               0.000000000               0.000000000               0.000339526               0.000144886               0.000183115               0.000109211               0.000011891               0.000121102               0.000000000               0.000000000               0.000000000               0.000000000               0.000501777               0.000330501               0.000263978               0.000146852               0.000061215               0.000208067               0.000000000               0.000000000               0.000000000               0.000000000               0.000570682               0.000595792               0.000327141               0.000139530               0.000152085               0.000291615               0.000000000               0.000000000               0.000000000               0.000000000               0.000559694               0.000835683               0.000326871               0.000105424               0.000243417               0.000348841               0.000000000               0.000000000               0.000000000               0.000000000               0.000521854               0.001041312               0.000304338               0.000065531               0.000325257               0.000390788               0.000000000               0.000000000               0.000000000               0.000000000               0.000477973               0.001210220               0.000271910               0.000027962               0.000394082               0.000422044               0.000000000               0.000000000               0.000000000               0.000000000               0.000435861               0.001343698               0.000237266              -0.000004514               0.000449400               0.000444885               0.000000000               0.000000000               0.000000000               0.000000000               0.000400093               0.001456584               0.000205514              -0.000032038               0.000496203               0.000464164               0.000000000               0.000000000               0.000000000               0.000000000               0.000372643               0.001561722               0.000178744              -0.000055474               0.000539060               0.000483586               0.000000000               0.000000000               0.000000000               0.000000000               0.000351946               0.001664878               0.000156166              -0.000076130               0.000580330               0.000504201               0.000000000               0.000000000               0.000000000               0.000000000               0.000335357               0.001772378               0.000137455              -0.000095788               0.000622716               0.000526928               0.000000000               0.000000000               0.000000000               0.000000000               0.000322379               0.001886856               0.000122811              -0.000114965               0.000667267               0.000552303               0.000000000               0.000000000               0.000000000               0.000000000               0.000319384               0.002008565               0.000108551              -0.000131301               0.000713282               0.000581981               0.000000000               0.000000000               0.000000000               0.000000000               0.000324109               0.002141305               0.000092390              -0.000146122               0.000762468               0.000616347               0.000000000               0.000000000               0.000000000               0.000000000               0.000333868               0.002276328               0.000072038              -0.000159340               0.000811882               0.000652542               0.000000000               0.000000000               0.000000000               0.000000000               0.000350335               0.002400490               0.000041526              -0.000168685               0.000856384               0.000687699               0.000000000               0.000000000               0.000000000               0.000000000               0.000356884               0.002457175               0.000021716              -0.000173315               0.000876822               0.000703507               0.000000000               0.000000000               0.000000000               0.000000000               0.000271815               0.000081497               0.000086607               0.000091742              -0.000003416               0.000088327               0.000000000               0.000000000               0.000000000               0.000000000               0.000481654               0.000240515               0.000133333               0.000150554               0.000029986               0.000180540               0.000000000               0.000000000               0.000000000               0.000000000               0.000598142               0.000479588               0.000171943               0.000164353               0.000105077               0.000269430               0.000000000               0.000000000               0.000000000               0.000000000               0.000606084               0.000716589               0.000175069               0.000137706               0.000192959               0.000330665               0.000000000               0.000000000               0.000000000               0.000000000               0.000573469               0.000927730               0.000164926               0.000099084               0.000276212               0.000375296               0.000000000               0.000000000               0.000000000               0.000000000               0.000526390               0.001106438               0.000149077               0.000059091               0.000349112               0.000408203               0.000000000               0.000000000               0.000000000               0.000000000               0.000480425               0.001251273               0.000130507               0.000023750               0.000409170               0.000432920               0.000000000               0.000000000               0.000000000               0.000000000               0.000439394               0.001371519               0.000114230              -0.000006667               0.000459391               0.000452724               0.000000000               0.000000000               0.000000000               0.000000000               0.000407303               0.001482982               0.000101334              -0.000032634               0.000505200               0.000472566               0.000000000               0.000000000               0.000000000               0.000000000               0.000382229               0.001593686               0.000089497              -0.000055875               0.000549848               0.000493974               0.000000000               0.000000000               0.000000000               0.000000000               0.000367182               0.001715062               0.000077377              -0.000076689               0.000597245               0.000520555               0.000000000               0.000000000               0.000000000               0.000000000               0.000359787               0.001848322               0.000069538              -0.000096120               0.000648141               0.000552021               0.000000000               0.000000000               0.000000000               0.000000000               0.000360130               0.001985405               0.000065063              -0.000113127               0.000699504               0.000586377               0.000000000               0.000000000               0.000000000               0.000000000               0.000370352               0.002130729               0.000055884              -0.000127459               0.000752722               0.000625263               0.000000000               0.000000000               0.000000000               0.000000000               0.000388103               0.002275710               0.000044300              -0.000138925               0.000804871               0.000665946               0.000000000               0.000000000               0.000000000               0.000000000               0.000412631               0.002404180               0.000028852              -0.000145785               0.000849980               0.000704195               0.000000000               0.000000000               0.000000000               0.000000000               0.000429371               0.002463737               0.000018750              -0.000146953               0.000870222               0.000723269               0.000000000               0.000000000               0.000000000               0.000000000               0.000247766               0.000062110               0.000000000               0.000085148              -0.000007679               0.000077468               0.000000000               0.000000000               0.000000000               0.000000000               0.000473192               0.000209964              -0.000000000               0.000151200               0.000019587               0.000170787               0.000000000               0.000000000               0.000000000               0.000000000               0.000607268               0.000438072              -0.000000000               0.000172965               0.000088368               0.000261332               0.000000000               0.000000000               0.000000000               0.000000000               0.000622198               0.000673922               0.000000000               0.000149083               0.000174944               0.000324027               0.000000000               0.000000000               0.000000000               0.000000000               0.000592065               0.000887309              -0.000000000               0.000111110               0.000258730               0.000369840               0.000000000               0.000000000               0.000000000               0.000000000               0.000545013               0.001068538               0.000000000               0.000070812               0.000332572               0.000403384               0.000000000               0.000000000               0.000000000               0.000000000               0.000496089               0.001216426              -0.000000000               0.000033980               0.000394145               0.000428125               0.000000000               0.000000000               0.000000000               0.000000000               0.000454866               0.001340761              -0.000000000               0.000002980               0.000445923               0.000448902               0.000000000               0.000000000               0.000000000               0.000000000               0.000419562               0.001455890               0.000000000              -0.000024650               0.000493509               0.000468858               0.000000000               0.000000000               0.000000000               0.000000000               0.000392629               0.001570941              -0.000000000              -0.000049132               0.000540019               0.000490887               0.000000000               0.000000000               0.000000000               0.000000000               0.000376965               0.001691381              -0.000000000              -0.000070061               0.000587141               0.000517081               0.000000000               0.000000000               0.000000000               0.000000000               0.000375752               0.001827868              -0.000000000              -0.000087576               0.000638475               0.000550899               0.000000000               0.000000000               0.000000000               0.000000000               0.000378185               0.001979452              -0.000000000              -0.000105612               0.000695015               0.000589403               0.000000000               0.000000000               0.000000000               0.000000000               0.000387126               0.002131048              -0.000000000              -0.000121208               0.000750745               0.000629537               0.000000000               0.000000000               0.000000000               0.000000000               0.000407784               0.002272342               0.000000000              -0.000131124               0.000801148               0.000670024               0.000000000               0.000000000               0.000000000               0.000000000               0.000437318               0.002403266               0.000000000              -0.000136414               0.000846552               0.000710138               0.000000000               0.000000000               0.000000000               0.000000000               0.000457354               0.002466479              -0.000000000              -0.000136802               0.000867752               0.000730950               0.000000000               0.000000000               0.000000000               0.000000000               0.000330032               0.003722977              -0.000000000              -0.000341609               0.001354849               0.001013240               0.000000000               0.000000000               0.000000000               0.000000000               0.000382208               0.003107188              -0.000000000              -0.000245070               0.001117409               0.000872339               0.000000000               0.000000000               0.000000000               0.000000000               0.000548791               0.002606482              -0.000000000              -0.000120013               0.000908823               0.000788810               0.000000000               0.000000000               0.000000000               0.000000000               0.000592390               0.002329378               0.000000000              -0.000069026               0.000799460               0.000730434               0.000000000               0.000000000               0.000000000               0.000000000               0.000581447               0.002169720              -0.000000000              -0.000053172               0.000740957               0.000687784               0.000000000               0.000000000               0.000000000               0.000000000               0.000542032               0.002076781              -0.000000000              -0.000056335               0.000711032               0.000654697               0.000000000               0.000000000               0.000000000               0.000000000               0.000492869               0.002026049               0.000000000              -0.000068430               0.000698153               0.000629723               0.000000000               0.000000000               0.000000000               0.000000000               0.000438848               0.001998996               0.000000000              -0.000085306               0.000694761               0.000609454               0.000000000               0.000000000               0.000000000               0.000000000               0.000381140               0.001987599               0.000000000              -0.000105522               0.000697700               0.000592178               0.000000000               0.000000000               0.000000000               0.000000000               0.000325776               0.001988606              -0.000000000              -0.000126409               0.000704998               0.000578589               0.000000000               0.000000000               0.000000000               0.000000000               0.000270621               0.001998947              -0.000000000              -0.000148385               0.000715771               0.000567386               0.000000000               0.000000000               0.000000000               0.000000000               0.000211140               0.002016317               0.000000000              -0.000172862               0.000729719               0.000556858               0.000000000               0.000000000               0.000000000               0.000000000               0.000155621               0.002043264               0.000000000              -0.000197050               0.000746765               0.000549715               0.000000000               0.000000000               0.000000000               0.000000000               0.000109070               0.002074568               0.000000000              -0.000218419               0.000764322               0.000545903               0.000000000               0.000000000               0.000000000               0.000000000               0.000068644               0.002106768               0.000000000              -0.000237604               0.000781450               0.000543846               0.000000000               0.000000000               0.000000000               0.000000000               0.000032592               0.002138032               0.000000000              -0.000255031               0.000797681               0.000542649               0.000000000               0.000000000               0.000000000               0.000000000               0.000019209               0.002162823              -0.000000000              -0.000263149               0.000808650               0.000545501               0.000000000               0.000000000               0.000000000               0.000000000               0.000353964               0.003664513              -0.000292765              -0.000325327               0.001329934               0.001004607               0.000000000               0.000000000               0.000000000               0.000000000               0.000391927               0.003065241              -0.000197531              -0.000236182               0.001100464               0.000864282               0.000000000               0.000000000               0.000000000               0.000000000               0.000542260               0.002582793              -0.000098458              -0.000119501               0.000900756               0.000781255               0.000000000               0.000000000               0.000000000               0.000000000               0.000578201               0.002316867              -0.000050404              -0.000072783               0.000796542               0.000723759               0.000000000               0.000000000               0.000000000               0.000000000               0.000565455               0.002164343              -0.000026218              -0.000058497               0.000740940               0.000682442               0.000000000               0.000000000               0.000000000               0.000000000               0.000526309               0.002075048              -0.000013774              -0.000062015               0.000712347               0.000650332               0.000000000               0.000000000               0.000000000               0.000000000               0.000476746               0.002024150              -0.000008032              -0.000074239               0.000699456               0.000625217               0.000000000               0.000000000               0.000000000               0.000000000               0.000424045               0.001998651              -0.000006142              -0.000090814               0.000696482               0.000605667               0.000000000               0.000000000               0.000000000               0.000000000               0.000368427               0.001988486              -0.000005758              -0.000110400               0.000699622               0.000589222               0.000000000               0.000000000               0.000000000               0.000000000               0.000313907               0.001989124              -0.000005370              -0.000130925               0.000706676               0.000575751               0.000000000               0.000000000               0.000000000               0.000000000               0.000259390               0.001999397              -0.000004452              -0.000152653               0.000717344               0.000564690               0.000000000               0.000000000               0.000000000               0.000000000               0.000204639               0.002017740              -0.000001889              -0.000175477               0.000731066               0.000555588               0.000000000               0.000000000               0.000000000               0.000000000               0.000152955               0.002043098              -0.000000636              -0.000198028               0.000747035               0.000549007               0.000000000               0.000000000               0.000000000               0.000000000               0.000105982               0.002071528              -0.000002591              -0.000219197               0.000763568               0.000544371               0.000000000               0.000000000               0.000000000               0.000000000               0.000066274               0.002101176              -0.000005277              -0.000237794               0.000779650               0.000541856               0.000000000               0.000000000               0.000000000               0.000000000               0.000031908               0.002131739              -0.000005462              -0.000254501               0.000795406               0.000540905               0.000000000               0.000000000               0.000000000               0.000000000               0.000018608               0.002155581              -0.000004815              -0.000262469               0.000806010               0.000543541               0.000000000               0.000000000               0.000000000               0.000000000               0.000417596               0.003498641              -0.000554670              -0.000280731               0.001259779               0.000979048               0.000000000               0.000000000               0.000000000               0.000000000               0.000415803               0.002946106              -0.000375201              -0.000212337               0.001052804               0.000840468               0.000000000               0.000000000               0.000000000               0.000000000               0.000523937               0.002518389              -0.000188840              -0.000118322               0.000878895               0.000760573               0.000000000               0.000000000               0.000000000               0.000000000               0.000540882               0.002284650              -0.000099760              -0.000082750               0.000789126               0.000706376               0.000000000               0.000000000               0.000000000               0.000000000               0.000519254               0.002149908              -0.000055915              -0.000074018               0.000741302               0.000667284               0.000000000               0.000000000               0.000000000               0.000000000               0.000479988               0.002070009              -0.000034591              -0.000078755               0.000716248               0.000637492               0.000000000               0.000000000               0.000000000               0.000000000               0.000434583               0.002024428              -0.000024225              -0.000090085               0.000704831               0.000614746               0.000000000               0.000000000               0.000000000               0.000000000               0.000386249               0.002000915              -0.000019750              -0.000105271               0.000702055               0.000596784               0.000000000               0.000000000               0.000000000               0.000000000               0.000335789               0.001990597              -0.000018258              -0.000122903               0.000704494               0.000581590               0.000000000               0.000000000               0.000000000               0.000000000               0.000285919               0.001991900              -0.000016233              -0.000141767               0.000711216               0.000569448               0.000000000               0.000000000               0.000000000               0.000000000               0.000234722               0.002001865              -0.000012214              -0.000162212               0.000721352               0.000559140               0.000000000               0.000000000               0.000000000               0.000000000               0.000183156               0.002019535              -0.000007469              -0.000183758               0.000734424               0.000550666               0.000000000               0.000000000               0.000000000               0.000000000               0.000134310               0.002040907              -0.000006459              -0.000204747               0.000748545               0.000543798               0.000000000               0.000000000               0.000000000               0.000000000               0.000093449               0.002062864              -0.000009825              -0.000222814               0.000761886               0.000539072               0.000000000               0.000000000               0.000000000               0.000000000               0.000061535               0.002084989              -0.000012569              -0.000237548               0.000774172               0.000536624               0.000000000               0.000000000               0.000000000               0.000000000               0.000030948               0.002108456              -0.000010308              -0.000251951               0.000786795               0.000534844               0.000000000               0.000000000               0.000000000               0.000000000               0.000017828               0.002127686              -0.000008341              -0.000259274               0.000795646               0.000536372               0.000000000               0.000000000               0.000000000               0.000000000               0.000504210               0.003244822              -0.000765498              -0.000216524               0.001153771               0.000937247               0.000000000               0.000000000               0.000000000               0.000000000               0.000445579               0.002765564              -0.000518796              -0.000178603               0.000981380               0.000802777               0.000000000               0.000000000               0.000000000               0.000000000               0.000492518               0.002424016              -0.000265155              -0.000118307               0.000847433               0.000729126               0.000000000               0.000000000               0.000000000               0.000000000               0.000484067               0.002238226              -0.000149217              -0.000098253               0.000778819               0.000680566               0.000000000               0.000000000               0.000000000               0.000000000               0.000453460               0.002128187              -0.000093273              -0.000095976               0.000741381               0.000645405               0.000000000               0.000000000               0.000000000               0.000000000               0.000414706               0.002062246              -0.000065266              -0.000102266               0.000721497               0.000619231               0.000000000               0.000000000               0.000000000               0.000000000               0.000374384               0.002022930              -0.000050707              -0.000112472               0.000711794               0.000599322               0.000000000               0.000000000               0.000000000               0.000000000               0.000333615               0.002000615              -0.000043239              -0.000124971               0.000708522               0.000583551               0.000000000               0.000000000               0.000000000               0.000000000               0.000292040               0.001991303              -0.000038228              -0.000139398               0.000710227               0.000570829               0.000000000               0.000000000               0.000000000               0.000000000               0.000249323               0.001993736              -0.000032343              -0.000155720               0.000716479               0.000560758               0.000000000               0.000000000               0.000000000               0.000000000               0.000203345               0.002004257              -0.000024508              -0.000174277               0.000726171               0.000551894               0.000000000               0.000000000               0.000000000               0.000000000               0.000157159               0.002020872              -0.000016884              -0.000193674               0.000738175               0.000544501               0.000000000               0.000000000               0.000000000               0.000000000               0.000116828               0.002036835              -0.000015725              -0.000210793               0.000749203               0.000538409               0.000000000               0.000000000               0.000000000               0.000000000               0.000083331               0.002048750              -0.000019946              -0.000224844               0.000757858               0.000533014               0.000000000               0.000000000               0.000000000               0.000000000               0.000054483               0.002058987              -0.000020255              -0.000236942               0.000765303               0.000528361               0.000000000               0.000000000               0.000000000               0.000000000               0.000027653               0.002073114              -0.000012237              -0.000248769               0.000773954               0.000525185               0.000000000               0.000000000               0.000000000               0.000000000               0.000016430               0.002086413              -0.000007176              -0.000254640               0.000780344               0.000525704               0.000000000               0.000000000               0.000000000               0.000000000               0.000596627               0.002925591              -0.000913469              -0.000141964               0.001022508               0.000880544               0.000000000               0.000000000               0.000000000               0.000000000               0.000473616               0.002545769              -0.000622401              -0.000140615               0.000895453               0.000754838               0.000000000               0.000000000               0.000000000               0.000000000               0.000450137               0.002311445              -0.000328105              -0.000120129               0.000810517               0.000690388               0.000000000               0.000000000               0.000000000               0.000000000               0.000415175               0.002178653              -0.000199815              -0.000116641               0.000765091               0.000648450               0.000000000               0.000000000               0.000000000               0.000000000               0.000378836               0.002096850              -0.000137242              -0.000120043               0.000738957               0.000618915               0.000000000               0.000000000               0.000000000               0.000000000               0.000342938               0.002046406              -0.000104187              -0.000127199               0.000724528               0.000597329               0.000000000               0.000000000               0.000000000               0.000000000               0.000310634               0.002015853              -0.000085206              -0.000135494               0.000717109               0.000581615               0.000000000               0.000000000               0.000000000               0.000000000               0.000279157               0.001999740              -0.000073068              -0.000145283               0.000715001               0.000569718               0.000000000               0.000000000               0.000000000               0.000000000               0.000246285               0.001994801              -0.000062487              -0.000156993               0.000717258               0.000560265               0.000000000               0.000000000               0.000000000               0.000000000               0.000210948               0.001999826              -0.000050512              -0.000170872               0.000723559               0.000552687               0.000000000               0.000000000               0.000000000               0.000000000               0.000170108               0.002010906              -0.000036798              -0.000187572               0.000732819               0.000545247               0.000000000               0.000000000               0.000000000               0.000000000               0.000132722               0.002023076              -0.000026098              -0.000203113               0.000742056               0.000538943               0.000000000               0.000000000               0.000000000               0.000000000               0.000102499               0.002030248              -0.000024175              -0.000215343               0.000748524               0.000533180               0.000000000               0.000000000               0.000000000               0.000000000               0.000076034               0.002035601              -0.000027574              -0.000225937               0.000753839               0.000527902               0.000000000               0.000000000               0.000000000               0.000000000               0.000051205               0.002041158              -0.000023355              -0.000235942               0.000759027               0.000523084               0.000000000               0.000000000               0.000000000               0.000000000               0.000026002               0.002050715              -0.000009495              -0.000246588               0.000765761               0.000519173               0.000000000               0.000000000               0.000000000               0.000000000               0.000014740               0.002059454              -0.000002625              -0.000251904               0.000770446               0.000518542               0.000000000               0.000000000               0.000000000               0.000000000               0.000678592               0.002568453              -0.000992110              -0.000066586               0.000878337               0.000811752               0.000000000               0.000000000               0.000000000               0.000000000               0.000493370               0.002307437              -0.000686880              -0.000103416               0.000803610               0.000700194               0.000000000               0.000000000               0.000000000               0.000000000               0.000401216               0.002189174              -0.000381230              -0.000123191               0.000770781               0.000647590               0.000000000               0.000000000               0.000000000               0.000000000               0.000345997               0.002109572              -0.000250228              -0.000133948               0.000747833               0.000613885               0.000000000               0.000000000               0.000000000               0.000000000               0.000310526               0.002059809              -0.000184769              -0.000141029               0.000733606               0.000592577               0.000000000               0.000000000               0.000000000               0.000000000               0.000280566               0.002027412              -0.000146584              -0.000148214               0.000725202               0.000576988               0.000000000               0.000000000               0.000000000               0.000000000               0.000254574               0.002008732              -0.000122091              -0.000155626               0.000721446               0.000565820               0.000000000               0.000000000               0.000000000               0.000000000               0.000230839               0.001999895              -0.000103295              -0.000163422               0.000721099               0.000557677               0.000000000               0.000000000               0.000000000               0.000000000               0.000205165               0.002000466              -0.000084473              -0.000173121               0.000724522               0.000551401               0.000000000               0.000000000               0.000000000               0.000000000               0.000174767               0.002009853              -0.000064920              -0.000185694               0.000731842               0.000546148               0.000000000               0.000000000               0.000000000               0.000000000               0.000143727               0.002022429              -0.000046158              -0.000198906               0.000740438               0.000541533               0.000000000               0.000000000               0.000000000               0.000000000               0.000116185               0.002028523              -0.000033196              -0.000209996               0.000746166               0.000536171               0.000000000               0.000000000               0.000000000               0.000000000               0.000094121               0.002030980              -0.000027920              -0.000218577               0.000749845               0.000531269               0.000000000               0.000000000               0.000000000               0.000000000               0.000071788               0.002035695              -0.000027230              -0.000227541               0.000754405               0.000526864               0.000000000               0.000000000               0.000000000               0.000000000               0.000046350               0.002044997              -0.000020493              -0.000238243               0.000761073               0.000522830               0.000000000               0.000000000               0.000000000               0.000000000               0.000023187               0.002058088              -0.000005927              -0.000248565               0.000768878               0.000520312               0.000000000               0.000000000               0.000000000               0.000000000               0.000015109               0.002068110              -0.000000308              -0.000252847               0.000773646               0.000520798               0.000000000               0.000000000               0.000000000               0.000000000               0.000733940               0.002199116              -0.001007099               0.000000337               0.000732919               0.000733255               0.000000000               0.000000000               0.000000000               0.000000000               0.000502031               0.002064413              -0.000717535              -0.000069790               0.000711394               0.000641604               0.000000000               0.000000000               0.000000000               0.000000000               0.000354468               0.002063570              -0.000425531              -0.000125021               0.000729523               0.000604502               0.000000000               0.000000000               0.000000000               0.000000000               0.000289012               0.002038080              -0.000298292              -0.000146380               0.000728147               0.000581766               0.000000000               0.000000000               0.000000000               0.000000000               0.000257708               0.002019112              -0.000230292              -0.000155748               0.000724947               0.000569198               0.000000000               0.000000000               0.000000000               0.000000000               0.000233115               0.002004947              -0.000186490              -0.000163200               0.000722709               0.000559509               0.000000000               0.000000000               0.000000000               0.000000000               0.000212205               0.001998505              -0.000154653              -0.000170236               0.000722907               0.000552671               0.000000000               0.000000000               0.000000000               0.000000000               0.000193523               0.001999594              -0.000127160              -0.000177378               0.000725651               0.000548273               0.000000000               0.000000000               0.000000000               0.000000000               0.000170427               0.002010113              -0.000100862              -0.000187354               0.000732482               0.000545129               0.000000000               0.000000000               0.000000000               0.000000000               0.000144776               0.002025671              -0.000073983              -0.000198917               0.000741523               0.000542605               0.000000000               0.000000000               0.000000000               0.000000000               0.000124613               0.002040978              -0.000052894              -0.000208392               0.000749783               0.000541392               0.000000000               0.000000000               0.000000000               0.000000000               0.000107518               0.002046730              -0.000040042              -0.000215522               0.000754077               0.000538556               0.000000000               0.000000000               0.000000000               0.000000000               0.000091014               0.002050496              -0.000031947              -0.000222181               0.000757552               0.000535371               0.000000000               0.000000000               0.000000000               0.000000000               0.000070115               0.002059466              -0.000026162              -0.000231140               0.000763528               0.000532389               0.000000000               0.000000000               0.000000000               0.000000000               0.000045816               0.002077811              -0.000015954              -0.000242545               0.000773445               0.000530900               0.000000000               0.000000000               0.000000000               0.000000000               0.000022257               0.002099033              -0.000003400              -0.000254032               0.000784348               0.000530316               0.000000000               0.000000000               0.000000000               0.000000000               0.000014628               0.002114317              -0.000000912              -0.000258804               0.000791033               0.000532230               0.000000000               0.000000000               0.000000000               0.000000000               0.000760192               0.001838297              -0.000968520               0.000055283               0.000594332               0.000649615               0.000000000               0.000000000               0.000000000               0.000000000               0.000500446               0.001832404              -0.000719989              -0.000041384               0.000624590               0.000583206               0.000000000               0.000000000               0.000000000               0.000000000               0.000317956               0.001942340              -0.000462267              -0.000123559               0.000688627               0.000565067               0.000000000               0.000000000               0.000000000               0.000000000               0.000251339               0.001965712              -0.000341028              -0.000151462               0.000705718               0.000554256               0.000000000               0.000000000               0.000000000               0.000000000               0.000223049               0.001971893              -0.000268324              -0.000162843               0.000711572               0.000548729               0.000000000               0.000000000               0.000000000               0.000000000               0.000204725               0.001977141              -0.000216897              -0.000170370               0.000715830               0.000545460               0.000000000               0.000000000               0.000000000               0.000000000               0.000185671               0.001986160              -0.000175832              -0.000178643               0.000721594               0.000542951               0.000000000               0.000000000               0.000000000               0.000000000               0.000165772               0.002003474              -0.000141472              -0.000188269               0.000730574               0.000542305               0.000000000               0.000000000               0.000000000               0.000000000               0.000144699               0.002029186              -0.000110387              -0.000199386               0.000742851               0.000543465               0.000000000               0.000000000               0.000000000               0.000000000               0.000125602               0.002054642              -0.000080463              -0.000209729               0.000754783               0.000545054               0.000000000               0.000000000               0.000000000               0.000000000               0.000111726               0.002070657              -0.000058040              -0.000216934               0.000762524               0.000545589               0.000000000               0.000000000               0.000000000               0.000000000               0.000100262               0.002081400              -0.000045974              -0.000222576               0.000767985               0.000545409               0.000000000               0.000000000               0.000000000               0.000000000               0.000084156               0.002096652              -0.000035223              -0.000230522               0.000775718               0.000545195               0.000000000               0.000000000               0.000000000               0.000000000               0.000063892               0.002124368              -0.000023114              -0.000241586               0.000788644               0.000547058               0.000000000               0.000000000               0.000000000               0.000000000               0.000043719               0.002164022              -0.000009596              -0.000254107               0.000806036               0.000551928               0.000000000               0.000000000               0.000000000               0.000000000               0.000023146               0.002206683               0.000000053              -0.000267155               0.000824605               0.000557450               0.000000000               0.000000000               0.000000000               0.000000000               0.000015621               0.002236575              -0.000000562              -0.000273713               0.000836755               0.000563042               0.000000000               0.000000000               0.000000000               0.000000000               0.000772297               0.001516332              -0.000892166               0.000100068               0.000472083               0.000572151               0.000000000               0.000000000               0.000000000               0.000000000               0.000506545               0.001624901              -0.000708358              -0.000013159               0.000546014               0.000532855               0.000000000               0.000000000               0.000000000               0.000000000               0.000305178               0.001830042              -0.000501351              -0.000114314               0.000648112               0.000533799               0.000000000               0.000000000               0.000000000               0.000000000               0.000239048               0.001895770              -0.000383705              -0.000147328               0.000681026               0.000533698               0.000000000               0.000000000               0.000000000               0.000000000               0.000212274               0.001926828              -0.000305095              -0.000161250               0.000696020               0.000534769               0.000000000               0.000000000               0.000000000               0.000000000               0.000199125               0.001953365              -0.000245637              -0.000169498               0.000707614               0.000538116               0.000000000               0.000000000               0.000000000               0.000000000               0.000183403               0.001979609              -0.000196814              -0.000178675               0.000719421               0.000540747               0.000000000               0.000000000               0.000000000               0.000000000               0.000161484               0.002012966              -0.000156873              -0.000191064               0.000734670               0.000543606               0.000000000               0.000000000               0.000000000               0.000000000               0.000139118               0.002052176              -0.000122099              -0.000204352               0.000752169               0.000547817               0.000000000               0.000000000               0.000000000               0.000000000               0.000123659               0.002084214              -0.000092313              -0.000214154               0.000766116               0.000551962               0.000000000               0.000000000               0.000000000               0.000000000               0.000110702               0.002101225              -0.000068787              -0.000221139               0.000774114               0.000552975               0.000000000               0.000000000               0.000000000               0.000000000               0.000099358               0.002119603              -0.000051560              -0.000227690               0.000782424               0.000554734               0.000000000               0.000000000               0.000000000               0.000000000               0.000087536               0.002154641              -0.000033290              -0.000236504               0.000797041               0.000560537               0.000000000               0.000000000               0.000000000               0.000000000               0.000072229               0.002209791              -0.000013999              -0.000249137               0.000819635               0.000570498               0.000000000               0.000000000               0.000000000               0.000000000               0.000056451               0.002277938               0.000001121              -0.000263572               0.000847162               0.000583590               0.000000000               0.000000000               0.000000000               0.000000000               0.000046415               0.002350927               0.000007318              -0.000276460               0.000875788               0.000599328               0.000000000               0.000000000               0.000000000               0.000000000               0.000042007               0.002391605               0.000006656              -0.000283197               0.000891593               0.000608396               0.000000000               0.000000000               0.000000000               0.000000000               0.000763707               0.001203226              -0.000796144               0.000135985               0.000355743               0.000491727               0.000000000               0.000000000               0.000000000               0.000000000               0.000527003               0.001381570              -0.000690255               0.000024929               0.000452209               0.000477138               0.000000000               0.000000000               0.000000000               0.000000000               0.000322329               0.001651921              -0.000547541              -0.000085617               0.000579174               0.000493557               0.000000000               0.000000000               0.000000000               0.000000000               0.000253016               0.001765470              -0.000437197              -0.000125803               0.000630418               0.000504615               0.000000000               0.000000000               0.000000000               0.000000000               0.000224622               0.001829789              -0.000354949              -0.000144490               0.000658087               0.000513597               0.000000000               0.000000000               0.000000000               0.000000000               0.000211211               0.001879058              -0.000288766              -0.000155678               0.000678239               0.000522561               0.000000000               0.000000000               0.000000000               0.000000000               0.000199531               0.001923026              -0.000233646              -0.000165554               0.000696187               0.000530633               0.000000000               0.000000000               0.000000000               0.000000000               0.000182090               0.001968916              -0.000188189              -0.000177830               0.000715576               0.000537745               0.000000000               0.000000000               0.000000000               0.000000000               0.000158883               0.002015837              -0.000151202              -0.000192398               0.000736072               0.000543673               0.000000000               0.000000000               0.000000000               0.000000000               0.000138616               0.002055209              -0.000120688              -0.000204920               0.000753370               0.000548450               0.000000000               0.000000000               0.000000000               0.000000000               0.000125545               0.002088877              -0.000092797              -0.000214030               0.000767628               0.000553599               0.000000000               0.000000000               0.000000000               0.000000000               0.000111563               0.002118675              -0.000067290              -0.000222998               0.000780551               0.000557553               0.000000000               0.000000000               0.000000000               0.000000000               0.000100643               0.002162097              -0.000043316              -0.000232520               0.000798198               0.000565678               0.000000000               0.000000000               0.000000000               0.000000000               0.000092154               0.002228009              -0.000020610              -0.000243943               0.000823977               0.000580034               0.000000000               0.000000000               0.000000000               0.000000000               0.000088144               0.002317275              -0.000006804              -0.000256605               0.000857952               0.000601347               0.000000000               0.000000000               0.000000000               0.000000000               0.000090097               0.002417798              -0.000001042              -0.000268438               0.000895404               0.000626966               0.000000000               0.000000000               0.000000000               0.000000000               0.000086650               0.002462689               0.000002641              -0.000275342               0.000912669               0.000637327               0.000000000               0.000000000               0.000000000               0.000000000               0.000721547               0.000910627              -0.000682675               0.000156750               0.000251289               0.000408039               0.000000000               0.000000000               0.000000000               0.000000000               0.000548629               0.001133459              -0.000652919               0.000064052               0.000356465               0.000420517               0.000000000               0.000000000               0.000000000               0.000000000               0.000364525               0.001445754              -0.000580564              -0.000044023               0.000496587               0.000452565               0.000000000               0.000000000               0.000000000               0.000000000               0.000290974               0.001608652              -0.000488467              -0.000091966               0.000566867               0.000474901               0.000000000               0.000000000               0.000000000               0.000000000               0.000258861               0.001709660              -0.000407840              -0.000116635               0.000608759               0.000492125               0.000000000               0.000000000               0.000000000               0.000000000               0.000242623               0.001783608              -0.000338756              -0.000131967               0.000638519               0.000506552               0.000000000               0.000000000               0.000000000               0.000000000               0.000230973               0.001845551              -0.000278629              -0.000144079               0.000663204               0.000519125               0.000000000               0.000000000               0.000000000               0.000000000               0.000216136               0.001900909              -0.000227741              -0.000156562               0.000685817               0.000529255               0.000000000               0.000000000               0.000000000               0.000000000               0.000195994               0.001954730              -0.000187552              -0.000170843               0.000708518               0.000537675               0.000000000               0.000000000               0.000000000               0.000000000               0.000173746               0.002005465              -0.000155454              -0.000185528               0.000730324               0.000544796               0.000000000               0.000000000               0.000000000               0.000000000               0.000154625               0.002054538              -0.000122176              -0.000198833               0.000751117               0.000552284               0.000000000               0.000000000               0.000000000               0.000000000               0.000138141               0.002100143              -0.000090437              -0.000210714               0.000770279               0.000559564               0.000000000               0.000000000               0.000000000               0.000000000               0.000128116               0.002148541              -0.000064213              -0.000220523               0.000789681               0.000569158               0.000000000               0.000000000               0.000000000               0.000000000               0.000127026               0.002210044              -0.000040434              -0.000228620               0.000812881               0.000584261               0.000000000               0.000000000               0.000000000               0.000000000               0.000129565               0.002296580              -0.000022600              -0.000238485               0.000845014               0.000606529               0.000000000               0.000000000               0.000000000               0.000000000               0.000129682               0.002403388              -0.000009616              -0.000251792               0.000885052               0.000633260               0.000000000               0.000000000               0.000000000               0.000000000               0.000121201               0.002452848              -0.000000815              -0.000261155               0.000904659               0.000643505               0.000000000               0.000000000               0.000000000               0.000000000               0.000646794               0.000648886              -0.000554839               0.000161435               0.000162481               0.000323916               0.000000000               0.000000000               0.000000000               0.000000000               0.000554021               0.000889770              -0.000587531               0.000096535               0.000264408               0.000360943               0.000000000               0.000000000               0.000000000               0.000000000               0.000419586               0.001220156              -0.000579232               0.000004824               0.000405106               0.000409930               0.000000000               0.000000000               0.000000000               0.000000000               0.000347919               0.001421331              -0.000513320              -0.000047197               0.000489504               0.000442307               0.000000000               0.000000000               0.000000000               0.000000000               0.000310182               0.001556598              -0.000442123              -0.000078257               0.000544946               0.000466690               0.000000000               0.000000000               0.000000000               0.000000000               0.000288342               0.001659265              -0.000375211              -0.000099280               0.000586176               0.000486896               0.000000000               0.000000000               0.000000000               0.000000000               0.000271929               0.001741039              -0.000313675              -0.000115657               0.000618893               0.000503236               0.000000000               0.000000000               0.000000000               0.000000000               0.000253476               0.001809840              -0.000260211              -0.000131176               0.000646999               0.000515823               0.000000000               0.000000000               0.000000000               0.000000000               0.000233590               0.001874434              -0.000218805              -0.000146708               0.000673707               0.000527000               0.000000000               0.000000000               0.000000000               0.000000000               0.000212377               0.001939167              -0.000184249              -0.000162754               0.000700634               0.000537880               0.000000000               0.000000000               0.000000000               0.000000000               0.000191017               0.002003878              -0.000147767              -0.000178853               0.000727570               0.000548717               0.000000000               0.000000000               0.000000000               0.000000000               0.000174227               0.002065495              -0.000115762              -0.000192851               0.000752775               0.000559924               0.000000000               0.000000000               0.000000000               0.000000000               0.000166185               0.002124521              -0.000092769              -0.000203245               0.000775915               0.000572670               0.000000000               0.000000000               0.000000000               0.000000000               0.000167125               0.002188632              -0.000070092              -0.000210907               0.000799839               0.000588932               0.000000000               0.000000000               0.000000000               0.000000000               0.000170384               0.002277059              -0.000042759              -0.000220738               0.000832591               0.000611853               0.000000000               0.000000000               0.000000000               0.000000000               0.000169023               0.002392283              -0.000018273              -0.000235651               0.000875970               0.000640319               0.000000000               0.000000000               0.000000000               0.000000000               0.000155106               0.002445710              -0.000004004              -0.000247548               0.000897745               0.000650196               0.000000000               0.000000000               0.000000000               0.000000000               0.000548536               0.000429598              -0.000422328               0.000152000               0.000092531               0.000244531               0.000000000               0.000000000               0.000000000               0.000000000               0.000545043               0.000666301              -0.000497432               0.000121102               0.000181730               0.000302832               0.000000000               0.000000000               0.000000000               0.000000000               0.000476552               0.000990070              -0.000537765               0.000054947               0.000311704               0.000366651               0.000000000               0.000000000               0.000000000               0.000000000               0.000418555               0.001214628              -0.000499377               0.000005129               0.000403162               0.000408291               0.000000000               0.000000000               0.000000000               0.000000000               0.000376240               0.001381955              -0.000443074              -0.000031655               0.000471199               0.000439544               0.000000000               0.000000000               0.000000000               0.000000000               0.000345899               0.001512354              -0.000384607              -0.000059332               0.000523890               0.000464558               0.000000000               0.000000000               0.000000000               0.000000000               0.000321415               0.001613796              -0.000326413              -0.000081194               0.000564991               0.000483797               0.000000000               0.000000000               0.000000000               0.000000000               0.000298192               0.001699624              -0.000274838              -0.000100631               0.000600079               0.000499448               0.000000000               0.000000000               0.000000000               0.000000000               0.000275940               0.001778969              -0.000234735              -0.000118893               0.000632615               0.000513721               0.000000000               0.000000000               0.000000000               0.000000000               0.000252781               0.001856662              -0.000200126              -0.000137290               0.000664645               0.000527355               0.000000000               0.000000000               0.000000000               0.000000000               0.000234555               0.001934624              -0.000166180              -0.000153869               0.000696158               0.000542289               0.000000000               0.000000000               0.000000000               0.000000000               0.000223250               0.002010790              -0.000139191              -0.000167630               0.000726133               0.000558503               0.000000000               0.000000000               0.000000000               0.000000000               0.000216471               0.002089959              -0.000119133              -0.000180068               0.000756668               0.000576601               0.000000000               0.000000000               0.000000000               0.000000000               0.000213519               0.002173915              -0.000094546              -0.000191669               0.000788521               0.000596852               0.000000000               0.000000000               0.000000000               0.000000000               0.000214663               0.002269763              -0.000061909              -0.000203221               0.000824321               0.000621099               0.000000000               0.000000000               0.000000000               0.000000000               0.000215648               0.002385194              -0.000028853              -0.000217281               0.000867484               0.000650203               0.000000000               0.000000000               0.000000000               0.000000000               0.000202636               0.002439299              -0.000009744              -0.000228923               0.000889399               0.000660476               0.000000000               0.000000000               0.000000000               0.000000000               0.000439222               0.000260360              -0.000296011               0.000132162               0.000042732               0.000174893               0.000000000               0.000000000               0.000000000               0.000000000               0.000525884               0.000476539              -0.000387613               0.000137638               0.000112965               0.000250603               0.000000000               0.000000000               0.000000000               0.000000000               0.000528545               0.000773666              -0.000452379               0.000101495               0.000224054               0.000325549               0.000000000               0.000000000               0.000000000               0.000000000               0.000492540               0.001009822              -0.000437821               0.000058474               0.000317113               0.000375586               0.000000000               0.000000000               0.000000000               0.000000000               0.000450900               0.001202982              -0.000398838               0.000018714               0.000394752               0.000413466               0.000000000               0.000000000               0.000000000               0.000000000               0.000412906               0.001355319              -0.000352420              -0.000014575               0.000456627               0.000442051               0.000000000               0.000000000               0.000000000               0.000000000               0.000377409               0.001473190              -0.000303617              -0.000042620               0.000505265               0.000462645               0.000000000               0.000000000               0.000000000               0.000000000               0.000349883               0.001576333              -0.000259496              -0.000065835               0.000547384               0.000481549               0.000000000               0.000000000               0.000000000               0.000000000               0.000324814               0.001669539              -0.000223098              -0.000086887               0.000585470               0.000498583               0.000000000               0.000000000               0.000000000               0.000000000               0.000302889               0.001760144              -0.000192605              -0.000106434               0.000622187               0.000515753               0.000000000               0.000000000               0.000000000               0.000000000               0.000285934               0.001850494              -0.000167404              -0.000124086               0.000658187               0.000534101               0.000000000               0.000000000               0.000000000               0.000000000               0.000276623               0.001942808              -0.000146055              -0.000139117               0.000693968               0.000554851               0.000000000               0.000000000               0.000000000               0.000000000               0.000269351               0.002045946              -0.000126237              -0.000154736               0.000733554               0.000578817               0.000000000               0.000000000               0.000000000               0.000000000               0.000265624               0.002158152              -0.000103804              -0.000170160               0.000776096               0.000605937               0.000000000               0.000000000               0.000000000               0.000000000               0.000269765               0.002272833              -0.000074430              -0.000182942               0.000818584               0.000635642               0.000000000               0.000000000               0.000000000               0.000000000               0.000277920               0.002390799              -0.000038575              -0.000194629               0.000861801               0.000667172               0.000000000               0.000000000               0.000000000               0.000000000               0.000271771               0.002445357              -0.000016999              -0.000203755               0.000883029               0.000679274               0.000000000               0.000000000               0.000000000               0.000000000               0.000339526               0.000144886              -0.000183115               0.000109211               0.000011891               0.000121102               0.000000000               0.000000000               0.000000000               0.000000000               0.000501777               0.000330501              -0.000263978               0.000146852               0.000061215               0.000208067               0.000000000               0.000000000               0.000000000               0.000000000               0.000570682               0.000595792              -0.000327141               0.000139530               0.000152085               0.000291615               0.000000000               0.000000000               0.000000000               0.000000000               0.000559694               0.000835683              -0.000326871               0.000105424               0.000243417               0.000348841               0.000000000               0.000000000               0.000000000               0.000000000               0.000521854               0.001041312              -0.000304338               0.000065531               0.000325257               0.000390788               0.000000000               0.000000000               0.000000000               0.000000000               0.000477973               0.001210220              -0.000271910               0.000027962               0.000394082               0.000422044               0.000000000               0.000000000               0.000000000               0.000000000               0.000435861               0.001343698              -0.000237266              -0.000004514               0.000449400               0.000444885               0.000000000               0.000000000               0.000000000               0.000000000               0.000400093               0.001456584              -0.000205514              -0.000032038               0.000496203               0.000464164               0.000000000               0.000000000               0.000000000               0.000000000               0.000372643               0.001561722              -0.000178744              -0.000055474               0.000539060               0.000483586               0.000000000               0.000000000               0.000000000               0.000000000               0.000351946               0.001664878              -0.000156166              -0.000076130               0.000580330               0.000504201               0.000000000               0.000000000               0.000000000               0.000000000               0.000335357               0.001772378              -0.000137455              -0.000095788               0.000622716               0.000526928               0.000000000               0.000000000               0.000000000               0.000000000               0.000322379               0.001886856              -0.000122811              -0.000114965               0.000667267               0.000552303               0.000000000               0.000000000               0.000000000               0.000000000               0.000319384               0.002008565              -0.000108551              -0.000131301               0.000713282               0.000581981               0.000000000               0.000000000               0.000000000               0.000000000               0.000324109               0.002141305              -0.000092390              -0.000146122               0.000762468               0.000616347               0.000000000               0.000000000               0.000000000               0.000000000               0.000333868               0.002276328              -0.000072038              -0.000159340               0.000811882               0.000652542               0.000000000               0.000000000               0.000000000               0.000000000               0.000350335               0.002400490              -0.000041526              -0.000168685               0.000856384               0.000687699               0.000000000               0.000000000               0.000000000               0.000000000               0.000356884               0.002457175              -0.000021716              -0.000173315               0.000876822               0.000703507               0.000000000               0.000000000               0.000000000               0.000000000               0.000271815               0.000081497              -0.000086607               0.000091742              -0.000003416               0.000088327               0.000000000               0.000000000               0.000000000               0.000000000               0.000481654               0.000240515              -0.000133333               0.000150554               0.000029986               0.000180540               0.000000000               0.000000000               0.000000000               0.000000000               0.000598142               0.000479588              -0.000171943               0.000164353               0.000105077               0.000269430               0.000000000               0.000000000               0.000000000               0.000000000               0.000606084               0.000716589              -0.000175069               0.000137706               0.000192959               0.000330665               0.000000000               0.000000000               0.000000000               0.000000000               0.000573469               0.000927730              -0.000164926               0.000099084               0.000276212               0.000375296               0.000000000               0.000000000               0.000000000               0.000000000               0.000526390               0.001106438              -0.000149077               0.000059091               0.000349112               0.000408203               0.000000000               0.000000000               0.000000000               0.000000000               0.000480425               0.001251273              -0.000130507               0.000023750               0.000409170               0.000432920               0.000000000               0.000000000               0.000000000               0.000000000               0.000439394               0.001371519              -0.000114230              -0.000006667               0.000459391               0.000452724               0.000000000               0.000000000               0.000000000               0.000000000               0.000407303               0.001482982              -0.000101334              -0.000032634               0.000505200               0.000472566               0.000000000               0.000000000               0.000000000               0.000000000               0.000382229               0.001593686              -0.000089497              -0.000055875               0.000549848               0.000493974               0.000000000               0.000000000               0.000000000               0.000000000               0.000367182               0.001715062              -0.000077377              -0.000076689               0.000597245               0.000520555               0.000000000               0.000000000               0.000000000               0.000000000               0.000359787               0.001848322              -0.000069538              -0.000096120               0.000648141               0.000552021               0.000000000               0.000000000               0.000000000               0.000000000               0.000360130               0.001985405              -0.000065063              -0.000113127               0.000699504               0.000586377               0.000000000               0.000000000               0.000000000               0.000000000               0.000370352               0.002130729              -0.000055884              -0.000127459               0.000752722               0.000625263               0.000000000               0.000000000               0.000000000               0.000000000               0.000388103               0.002275710              -0.000044300              -0.000138925               0.000804871               0.000665946               0.000000000               0.000000000               0.000000000               0.000000000               0.000412631               0.002404180              -0.000028852              -0.000145785               0.000849980               0.000704195               0.000000000               0.000000000               0.000000000               0.000000000               0.000429371               0.002463737              -0.000018750              -0.000146953               0.000870222               0.000723269               0.000000000               0.000000000               0.000000000               0.000000000               0.000000000               0.000000000               0.000000000               0.000000000               0.000000000               0.000000000               0.000000000               0.000000000               0.000000000               0.000000000               0.000000000               0.000000000               0.000000000               0.000000000               0.000000000               0.000000000               0.000000000               0.000000000               0.000000000               0.000000000               0.000000000               0.000000000               0.000000000               0.000000000               0.000000000               0.000000000               0.000000000               0.000000000               0.000000000               0.000000000               0.000000000               0.000000000               0.000000000               0.000000000               0.000000000               0.000000000               0.000000000               0.000000000               0.000000000               0.000000000               0.000000000               0.000000000               0.000000000               0.000000000               0.000000000               0.000000000               0.000000000               0.000000000               0.000000000               0.000000000               0.000000000               0.000000000               0.000000000               0.000000000               0.000000000               0.000000000               0.000000000               0.000000000               0.000000000               0.000000000               0.000000000               0.000000000               0.000000000               0.000000000               0.000000000               0.000000000               0.000000000               0.000000000               0.000000000               0.000000000               0.000000000               0.000000000               0.000000000               0.000000000               0.000000000               0.000000000               0.000000000               0.000000000               0.000000000               0.000000000               0.000000000               0.000000000               0.000000000               0.000000000               0.000000000               0.000000000               0.000000000               0.000000000               0.000000000               0.000000000               0.000000000               0.000000000               0.000000000               0.000000000               0.000000000               0.000000000               0.000000000               0.000000000               0.000000000               0.000000000               0.000000000               0.000000000               0.000000000               0.000000000               0.000000000               0.000000000               0.000000000               0.000000000               0.000000000               0.000000000               0.000000000               0.000000000               0.000000000               0.000000000               0.000000000               0.000000000               0.000000000               0.000000000               0.000000000               0.000000000               0.000000000               0.000000000               0.000000000               0.000000000               0.000000000               0.000000000               0.000000000               0.000000000               0.000000000               0.000000000               0.000000000               0.000000000               0.000000000               0.000000000               0.000000000               0.000000000               0.000000000               0.000000000               0.000000000               0.000000000               0.000000000               0.000000000               0.000000000               0.000000000               0.000000000               0.000000000               0.000000000               0.000000000               0.000000000               0.000000000               0.000000000               0.000000000               0.000000000               0.000000000               0.000000000               0.000000000               0.000000000               0.000000000               0.000000000               0.000000000               0.000000000               0.000000000               0.000000000               0.000000000               0.000000000               0.000000000               0.000000000               0.000000000               0.000000000               0.000000000               0.000000000               0.000000000               0.000000000               0.000000000               0.000000000               0.000000000               0.000000000               0.000000000               0.000000000               0.000000000               0.000000000               0.000000000               0.000000000               0.000000000               0.000000000               0.000000000               0.000000000               0.000000000               0.000000000               0.000000000               0.000000000               0.000000000               0.000000000               0.000000000               0.000000000               0.000000000               0.000000000               0.000000000               0.000000000               0.000000000               0.000000000               0.000000000               0.000000000               0.000000000               0.000000000               0.000000000               0.000000000               0.000000000               0.000000000               0.000000000               0.000000000               0.000000000               0.000000000               0.000000000               0.000000000               0.000000000               0.000000000               0.000000000               0.000000000               0.000000000               0.000000000               0.000000000               0.000000000               0.000000000               0.000000000               0.000000000               0.000000000               0.000000000               0.000000000               0.000000000               0.000000000               0.000000000               0.000000000               0.000000000               0.000000000               0.000000000               0.000000000               0.000000000               0.000000000               0.000000000               0.000000000               0.000000000               0.000000000               0.000000000               0.000000000               0.000000000               0.000000000               0.000000000               0.000000000               0.000000000               0.000000000               0.000000000               0.000000000               0.000000000               0.000000000               0.000000000               0.000000000               0.000000000               0.000000000               0.000000000               0.000000000               0.000000000               0.000000000               0.000000000               0.000000000               0.000000000               0.000000000               0.000000000               0.000000000               0.000000000               0.000000000               0.000000000               0.000000000               0.000000000               0.000000000               0.000000000               0.000000000               0.000000000               0.000000000               0.000000000               0.000000000               0.000000000               0.000000000               0.000000000               0.000000000               0.000000000               0.000000000               0.000000000               0.000000000               0.000000000               0.000000000               0.000000000               0.000000000               0.000000000               0.000000000               0.000000000               0.000000000               0.000000000               0.000000000               0.000000000               0.000000000               0.000000000               0.000000000               0.000000000               0.000000000               0.000000000               0.000000000               0.000000000               0.000000000               0.000000000               0.000000000               0.000000000               0.000000000               0.000000000               0.000000000               0.000000000               0.000000000               0.000000000               0.000000000               0.000000000               0.000000000               0.000000000               0.000000000               0.000000000               0.000000000               0.000000000               0.000000000               0.000000000               0.000000000               0.000000000               0.000000000               0.000000000               0.000000000               0.000000000               0.000000000               0.000000000               0.000000000               0.000000000               0.000000000               0.000000000               0.000353964               0.003664513               0.000292765              -0.000325327               0.001329934               0.001004607               0.000000000               0.000000000               0.000000000               0.000000000               0.000391927               0.003065241               0.000197531              -0.000236182               0.001100464               0.000864282               0.000000000               0.000000000               0.000000000               0.000000000               0.000542260               0.002582793               0.000098458              -0.000119501               0.000900756               0.000781255               0.000000000               0.000000000               0.000000000               0.000000000               0.000578201               0.002316867               0.000050404              -0.000072783               0.000796542               0.000723759               0.000000000               0.000000000               0.000000000               0.000000000               0.000565455               0.002164343               0.000026218              -0.000058497               0.000740940               0.000682442               0.000000000               0.000000000               0.000000000               0.000000000               0.000526309               0.002075048               0.000013774              -0.000062015               0.000712347               0.000650332               0.000000000               0.000000000               0.000000000               0.000000000               0.000476746               0.002024150               0.000008032              -0.000074239               0.000699456               0.000625217               0.000000000               0.000000000               0.000000000               0.000000000               0.000424045               0.001998651               0.000006142              -0.000090814               0.000696482               0.000605667               0.000000000               0.000000000               0.000000000               0.000000000               0.000368427               0.001988486               0.000005758              -0.000110400               0.000699622               0.000589222               0.000000000               0.000000000               0.000000000               0.000000000               0.000313907               0.001989124               0.000005370              -0.000130925               0.000706676               0.000575751               0.000000000               0.000000000               0.000000000               0.000000000               0.000259390               0.001999397               0.000004452              -0.000152653               0.000717344               0.000564690               0.000000000               0.000000000               0.000000000               0.000000000               0.000204639               0.002017740               0.000001889              -0.000175477               0.000731066               0.000555588               0.000000000               0.000000000               0.000000000               0.000000000               0.000152955               0.002043098               0.000000636              -0.000198028               0.000747035               0.000549007               0.000000000               0.000000000               0.000000000               0.000000000               0.000105982               0.002071528               0.000002591              -0.000219197               0.000763568               0.000544371               0.000000000               0.000000000               0.000000000               0.000000000               0.000066274               0.002101176               0.000005277              -0.000237794               0.000779650               0.000541856               0.000000000               0.000000000               0.000000000               0.000000000               0.000031908               0.002131739               0.000005462              -0.000254501               0.000795406               0.000540905               0.000000000               0.000000000               0.000000000               0.000000000               0.000018608               0.002155581               0.000004815              -0.000262469               0.000806010               0.000543541               0.000000000               0.000000000               0.000000000               0.000000000               0.000417596               0.003498641               0.000554670              -0.000280731               0.001259779               0.000979048               0.000000000               0.000000000               0.000000000               0.000000000               0.000415803               0.002946106               0.000375201              -0.000212337               0.001052804               0.000840468               0.000000000               0.000000000               0.000000000               0.000000000               0.000523937               0.002518389               0.000188840              -0.000118322               0.000878895               0.000760573               0.000000000               0.000000000               0.000000000               0.000000000               0.000540882               0.002284650               0.000099760              -0.000082750               0.000789126               0.000706376               0.000000000               0.000000000               0.000000000               0.000000000               0.000519254               0.002149908               0.000055915              -0.000074018               0.000741302               0.000667284               0.000000000               0.000000000               0.000000000               0.000000000               0.000479988               0.002070009               0.000034591              -0.000078755               0.000716248               0.000637492               0.000000000               0.000000000               0.000000000               0.000000000               0.000434583               0.002024428               0.000024225              -0.000090085               0.000704831               0.000614746               0.000000000               0.000000000               0.000000000               0.000000000               0.000386249               0.002000915               0.000019750              -0.000105271               0.000702055               0.000596784               0.000000000               0.000000000               0.000000000               0.000000000               0.000335789               0.001990597               0.000018258              -0.000122903               0.000704494               0.000581590               0.000000000               0.000000000               0.000000000               0.000000000               0.000285919               0.001991900               0.000016233              -0.000141767               0.000711216               0.000569448               0.000000000               0.000000000               0.000000000               0.000000000               0.000234722               0.002001865               0.000012214              -0.000162212               0.000721352               0.000559140               0.000000000               0.000000000               0.000000000               0.000000000               0.000183156               0.002019535               0.000007469              -0.000183758               0.000734424               0.000550666               0.000000000               0.000000000               0.000000000               0.000000000               0.000134310               0.002040907               0.000006459              -0.000204747               0.000748545               0.000543798               0.000000000               0.000000000               0.000000000               0.000000000               0.000093449               0.002062864               0.000009825              -0.000222814               0.000761886               0.000539072               0.000000000               0.000000000               0.000000000               0.000000000               0.000061535               0.002084989               0.000012569              -0.000237548               0.000774172               0.000536624               0.000000000               0.000000000               0.000000000               0.000000000               0.000030948               0.002108456               0.000010308              -0.000251951               0.000786795               0.000534844               0.000000000               0.000000000               0.000000000               0.000000000               0.000017828               0.002127686               0.000008341              -0.000259274               0.000795646               0.000536372               0.000000000               0.000000000               0.000000000               0.000000000               0.000504210               0.003244822               0.000765498              -0.000216524               0.001153771               0.000937247               0.000000000               0.000000000               0.000000000               0.000000000               0.000445579               0.002765564               0.000518796              -0.000178603               0.000981380               0.000802777               0.000000000               0.000000000               0.000000000               0.000000000               0.000492518               0.002424016               0.000265155              -0.000118307               0.000847433               0.000729126               0.000000000               0.000000000               0.000000000               0.000000000               0.000484067               0.002238226               0.000149217              -0.000098253               0.000778819               0.000680566               0.000000000               0.000000000               0.000000000               0.000000000               0.000453460               0.002128187               0.000093273              -0.000095976               0.000741381               0.000645405               0.000000000               0.000000000               0.000000000               0.000000000               0.000414706               0.002062246               0.000065266              -0.000102266               0.000721497               0.000619231               0.000000000               0.000000000               0.000000000               0.000000000               0.000374384               0.002022930               0.000050707              -0.000112472               0.000711794               0.000599322               0.000000000               0.000000000               0.000000000               0.000000000               0.000333615               0.002000615               0.000043239              -0.000124971               0.000708522               0.000583551               0.000000000               0.000000000               0.000000000               0.000000000               0.000292040               0.001991303               0.000038228              -0.000139398               0.000710227               0.000570829               0.000000000               0.000000000               0.000000000               0.000000000               0.000249323               0.001993736               0.000032343              -0.000155720               0.000716479               0.000560758               0.000000000               0.000000000               0.000000000               0.000000000               0.000203345               0.002004257               0.000024508              -0.000174277               0.000726171               0.000551894               0.000000000               0.000000000               0.000000000               0.000000000               0.000157159               0.002020872               0.000016884              -0.000193674               0.000738175               0.000544501               0.000000000               0.000000000               0.000000000               0.000000000               0.000116828               0.002036835               0.000015725              -0.000210793               0.000749203               0.000538409               0.000000000               0.000000000               0.000000000               0.000000000               0.000083331               0.002048750               0.000019946              -0.000224844               0.000757858               0.000533014               0.000000000               0.000000000               0.000000000               0.000000000               0.000054483               0.002058987               0.000020255              -0.000236942               0.000765303               0.000528361               0.000000000               0.000000000               0.000000000               0.000000000               0.000027653               0.002073114               0.000012237              -0.000248769               0.000773954               0.000525185               0.000000000               0.000000000               0.000000000               0.000000000               0.000016430               0.002086413               0.000007176              -0.000254640               0.000780344               0.000525704               0.000000000               0.000000000               0.000000000               0.000000000               0.000596627               0.002925591               0.000913469              -0.000141964               0.001022508               0.000880544               0.000000000               0.000000000               0.000000000               0.000000000               0.000473616               0.002545769               0.000622401              -0.000140615               0.000895453               0.000754838               0.000000000               0.000000000               0.000000000               0.000000000               0.000450137               0.002311445               0.000328105              -0.000120129               0.000810517               0.000690388               0.000000000               0.000000000               0.000000000               0.000000000               0.000415175               0.002178653               0.000199815              -0.000116641               0.000765091               0.000648450               0.000000000               0.000000000               0.000000000               0.000000000               0.000378836               0.002096850               0.000137242              -0.000120043               0.000738957               0.000618915               0.000000000               0.000000000               0.000000000               0.000000000               0.000342938               0.002046406               0.000104187              -0.000127199               0.000724528               0.000597329               0.000000000               0.000000000               0.000000000               0.000000000               0.000310634               0.002015853               0.000085206              -0.000135494               0.000717109               0.000581615               0.000000000               0.000000000               0.000000000               0.000000000               0.000279157               0.001999740               0.000073068              -0.000145283               0.000715001               0.000569718               0.000000000               0.000000000               0.000000000               0.000000000               0.000246285               0.001994801               0.000062487              -0.000156993               0.000717258               0.000560265               0.000000000               0.000000000               0.000000000               0.000000000               0.000210948               0.001999826               0.000050512              -0.000170872               0.000723559               0.000552687               0.000000000               0.000000000               0.000000000               0.000000000               0.000170108               0.002010906               0.000036798              -0.000187572               0.000732819               0.000545247               0.000000000               0.000000000               0.000000000               0.000000000               0.000132722               0.002023076               0.000026098              -0.000203113               0.000742056               0.000538943               0.000000000               0.000000000               0.000000000               0.000000000               0.000102499               0.002030248               0.000024175              -0.000215343               0.000748524               0.000533180               0.000000000               0.000000000               0.000000000               0.000000000               0.000076034               0.002035601               0.000027574              -0.000225937               0.000753839               0.000527902               0.000000000               0.000000000               0.000000000               0.000000000               0.000051205               0.002041158               0.000023355              -0.000235942               0.000759027               0.000523084               0.000000000               0.000000000               0.000000000               0.000000000               0.000026002               0.002050715               0.000009495              -0.000246588               0.000765761               0.000519173               0.000000000               0.000000000               0.000000000               0.000000000               0.000014740               0.002059454               0.000002625              -0.000251904               0.000770446               0.000518542               0.000000000               0.000000000               0.000000000               0.000000000               0.000678592               0.002568453               0.000992110              -0.000066586               0.000878337               0.000811752               0.000000000               0.000000000               0.000000000               0.000000000               0.000493370               0.002307437               0.000686880              -0.000103416               0.000803610               0.000700194               0.000000000               0.000000000               0.000000000               0.000000000               0.000401216               0.002189174               0.000381230              -0.000123191               0.000770781               0.000647590               0.000000000               0.000000000               0.000000000               0.000000000               0.000345997               0.002109572               0.000250228              -0.000133948               0.000747833               0.000613885               0.000000000               0.000000000               0.000000000               0.000000000               0.000310526               0.002059809               0.000184769              -0.000141029               0.000733606               0.000592577               0.000000000               0.000000000               0.000000000               0.000000000               0.000280566               0.002027412               0.000146584              -0.000148214               0.000725202               0.000576988               0.000000000               0.000000000               0.000000000               0.000000000               0.000254574               0.002008732               0.000122091              -0.000155626               0.000721446               0.000565820               0.000000000               0.000000000               0.000000000               0.000000000               0.000230839               0.001999895               0.000103295              -0.000163422               0.000721099               0.000557677               0.000000000               0.000000000               0.000000000               0.000000000               0.000205165               0.002000466               0.000084473              -0.000173121               0.000724522               0.000551401               0.000000000               0.000000000               0.000000000               0.000000000               0.000174767               0.002009853               0.000064920              -0.000185694               0.000731842               0.000546148               0.000000000               0.000000000               0.000000000               0.000000000               0.000143727               0.002022429               0.000046158              -0.000198906               0.000740438               0.000541533               0.000000000               0.000000000               0.000000000               0.000000000               0.000116185               0.002028523               0.000033196              -0.000209996               0.000746166               0.000536171               0.000000000               0.000000000               0.000000000               0.000000000               0.000094121               0.002030980               0.000027920              -0.000218577               0.000749845               0.000531269               0.000000000               0.000000000               0.000000000               0.000000000               0.000071788               0.002035695               0.000027230              -0.000227541               0.000754405               0.000526864               0.000000000               0.000000000               0.000000000               0.000000000               0.000046350               0.002044997               0.000020493              -0.000238243               0.000761073               0.000522830               0.000000000               0.000000000               0.000000000               0.000000000               0.000023187               0.002058088               0.000005927              -0.000248565               0.000768878               0.000520312               0.000000000               0.000000000               0.000000000               0.000000000               0.000015109               0.002068110               0.000000308              -0.000252847               0.000773646               0.000520798               0.000000000               0.000000000               0.000000000               0.000000000               0.000733940               0.002199116               0.001007099               0.000000337               0.000732919               0.000733255               0.000000000               0.000000000               0.000000000               0.000000000               0.000502031               0.002064413               0.000717535              -0.000069790               0.000711394               0.000641604               0.000000000               0.000000000               0.000000000               0.000000000               0.000354468               0.002063570               0.000425531              -0.000125021               0.000729523               0.000604502               0.000000000               0.000000000               0.000000000               0.000000000               0.000289012               0.002038080               0.000298292              -0.000146380               0.000728147               0.000581766               0.000000000               0.000000000               0.000000000               0.000000000               0.000257708               0.002019112               0.000230292              -0.000155748               0.000724947               0.000569198               0.000000000               0.000000000               0.000000000               0.000000000               0.000233115               0.002004947               0.000186490              -0.000163200               0.000722709               0.000559509               0.000000000               0.000000000               0.000000000               0.000000000               0.000212205               0.001998505               0.000154653              -0.000170236               0.000722907               0.000552671               0.000000000               0.000000000               0.000000000               0.000000000               0.000193523               0.001999594               0.000127160              -0.000177378               0.000725651               0.000548273               0.000000000               0.000000000               0.000000000               0.000000000               0.000170427               0.002010113               0.000100862              -0.000187354               0.000732482               0.000545129               0.000000000               0.000000000               0.000000000               0.000000000               0.000144776               0.002025671               0.000073983              -0.000198917               0.000741523               0.000542605               0.000000000               0.000000000               0.000000000               0.000000000               0.000124613               0.002040978               0.000052894              -0.000208392               0.000749783               0.000541392               0.000000000               0.000000000               0.000000000               0.000000000               0.000107518               0.002046730               0.000040042              -0.000215522               0.000754077               0.000538556               0.000000000               0.000000000               0.000000000               0.000000000               0.000091014               0.002050496               0.000031947              -0.000222181               0.000757552               0.000535371               0.000000000               0.000000000               0.000000000               0.000000000               0.000070115               0.002059466               0.000026162              -0.000231140               0.000763528               0.000532389               0.000000000               0.000000000               0.000000000               0.000000000               0.000045816               0.002077811               0.000015954              -0.000242545               0.000773445               0.000530900               0.000000000               0.000000000               0.000000000               0.000000000               0.000022257               0.002099033               0.000003400              -0.000254032               0.000784348               0.000530316               0.000000000               0.000000000               0.000000000               0.000000000               0.000014628               0.002114317               0.000000912              -0.000258804               0.000791033               0.000532230               0.000000000               0.000000000               0.000000000               0.000000000               0.000760192               0.001838297               0.000968520               0.000055283               0.000594332               0.000649615               0.000000000               0.000000000               0.000000000               0.000000000               0.000500446               0.001832404               0.000719989              -0.000041384               0.000624590               0.000583206               0.000000000               0.000000000               0.000000000               0.000000000               0.000317956               0.001942340               0.000462267              -0.000123559               0.000688627               0.000565067               0.000000000               0.000000000               0.000000000               0.000000000               0.000251339               0.001965712               0.000341028              -0.000151462               0.000705718               0.000554256               0.000000000               0.000000000               0.000000000               0.000000000               0.000223049               0.001971893               0.000268324              -0.000162843               0.000711572               0.000548729               0.000000000               0.000000000               0.000000000               0.000000000               0.000204725               0.001977141               0.000216897              -0.000170370               0.000715830               0.000545460               0.000000000               0.000000000               0.000000000               0.000000000               0.000185671               0.001986160               0.000175832              -0.000178643               0.000721594               0.000542951               0.000000000               0.000000000               0.000000000               0.000000000               0.000165772               0.002003474               0.000141472              -0.000188269               0.000730574               0.000542305               0.000000000               0.000000000               0.000000000               0.000000000               0.000144699               0.002029186               0.000110387              -0.000199386               0.000742851               0.000543465               0.000000000               0.000000000               0.000000000               0.000000000               0.000125602               0.002054642               0.000080463              -0.000209729               0.000754783               0.000545054               0.000000000               0.000000000               0.000000000               0.000000000               0.000111726               0.002070657               0.000058040              -0.000216934               0.000762524               0.000545589               0.000000000               0.000000000               0.000000000               0.000000000               0.000100262               0.002081400               0.000045974              -0.000222576               0.000767985               0.000545409               0.000000000               0.000000000               0.000000000               0.000000000               0.000084156               0.002096652               0.000035223              -0.000230522               0.000775718               0.000545195               0.000000000               0.000000000               0.000000000               0.000000000               0.000063892               0.002124368               0.000023114              -0.000241586               0.000788644               0.000547058               0.000000000               0.000000000               0.000000000               0.000000000               0.000043719               0.002164022               0.000009596              -0.000254107               0.000806036               0.000551928               0.000000000               0.000000000               0.000000000               0.000000000               0.000023146               0.002206683              -0.000000053              -0.000267155               0.000824605               0.000557450               0.000000000               0.000000000               0.000000000               0.000000000               0.000015621               0.002236575               0.000000562              -0.000273713               0.000836755               0.000563042               0.000000000               0.000000000               0.000000000               0.000000000               0.000772297               0.001516332               0.000892166               0.000100068               0.000472083               0.000572151               0.000000000               0.000000000               0.000000000               0.000000000               0.000506545               0.001624901               0.000708358              -0.000013159               0.000546014               0.000532855               0.000000000               0.000000000               0.000000000               0.000000000               0.000305178               0.001830042               0.000501351              -0.000114314               0.000648112               0.000533799               0.000000000               0.000000000               0.000000000               0.000000000               0.000239048               0.001895770               0.000383705              -0.000147328               0.000681026               0.000533698               0.000000000               0.000000000               0.000000000               0.000000000               0.000212274               0.001926828               0.000305095              -0.000161250               0.000696020               0.000534769               0.000000000               0.000000000               0.000000000               0.000000000               0.000199125               0.001953365               0.000245637              -0.000169498               0.000707614               0.000538116               0.000000000               0.000000000               0.000000000               0.000000000               0.000183403               0.001979609               0.000196814              -0.000178675               0.000719421               0.000540747               0.000000000               0.000000000               0.000000000               0.000000000               0.000161484               0.002012966               0.000156873              -0.000191064               0.000734670               0.000543606               0.000000000               0.000000000               0.000000000               0.000000000               0.000139118               0.002052176               0.000122099              -0.000204352               0.000752169               0.000547817               0.000000000               0.000000000               0.000000000               0.000000000               0.000123659               0.002084214               0.000092313              -0.000214154               0.000766116               0.000551962               0.000000000               0.000000000               0.000000000               0.000000000               0.000110702               0.002101225               0.000068787              -0.000221139               0.000774114               0.000552975               0.000000000               0.000000000               0.000000000               0.000000000               0.000099358               0.002119603               0.000051560              -0.000227690               0.000782424               0.000554734               0.000000000               0.000000000               0.000000000               0.000000000               0.000087536               0.002154641               0.000033290              -0.000236504               0.000797041               0.000560537               0.000000000               0.000000000               0.000000000               0.000000000               0.000072229               0.002209791               0.000013999              -0.000249137               0.000819635               0.000570498               0.000000000               0.000000000               0.000000000               0.000000000               0.000056451               0.002277938              -0.000001121              -0.000263572               0.000847162               0.000583590               0.000000000               0.000000000               0.000000000               0.000000000               0.000046415               0.002350927              -0.000007318              -0.000276460               0.000875788               0.000599328               0.000000000               0.000000000               0.000000000               0.000000000               0.000042007               0.002391605              -0.000006656              -0.000283197               0.000891593               0.000608396               0.000000000               0.000000000               0.000000000               0.000000000               0.000763707               0.001203226               0.000796144               0.000135985               0.000355743               0.000491727               0.000000000               0.000000000               0.000000000               0.000000000               0.000527003               0.001381570               0.000690255               0.000024929               0.000452209               0.000477138               0.000000000               0.000000000               0.000000000               0.000000000               0.000322329               0.001651921               0.000547541              -0.000085617               0.000579174               0.000493557               0.000000000               0.000000000               0.000000000               0.000000000               0.000253016               0.001765470               0.000437197              -0.000125803               0.000630418               0.000504615               0.000000000               0.000000000               0.000000000               0.000000000               0.000224622               0.001829789               0.000354949              -0.000144490               0.000658087               0.000513597               0.000000000               0.000000000               0.000000000               0.000000000               0.000211211               0.001879058               0.000288766              -0.000155678               0.000678239               0.000522561               0.000000000               0.000000000               0.000000000               0.000000000               0.000199531               0.001923026               0.000233646              -0.000165554               0.000696187               0.000530633               0.000000000               0.000000000               0.000000000               0.000000000               0.000182090               0.001968916               0.000188189              -0.000177830               0.000715576               0.000537745               0.000000000               0.000000000               0.000000000               0.000000000               0.000158883               0.002015837               0.000151202              -0.000192398               0.000736072               0.000543673               0.000000000               0.000000000               0.000000000               0.000000000               0.000138616               0.002055209               0.000120688              -0.000204920               0.000753370               0.000548450               0.000000000               0.000000000               0.000000000               0.000000000               0.000125545               0.002088877               0.000092797              -0.000214030               0.000767628               0.000553599               0.000000000               0.000000000               0.000000000               0.000000000               0.000111563               0.002118675               0.000067290              -0.000222998               0.000780551               0.000557553               0.000000000               0.000000000               0.000000000               0.000000000               0.000100643               0.002162097               0.000043316              -0.000232520               0.000798198               0.000565678               0.000000000               0.000000000               0.000000000               0.000000000               0.000092154               0.002228009               0.000020610              -0.000243943               0.000823977               0.000580034               0.000000000               0.000000000               0.000000000               0.000000000               0.000088144               0.002317275               0.000006804              -0.000256605               0.000857952               0.000601347               0.000000000               0.000000000               0.000000000               0.000000000               0.000090097               0.002417798               0.000001042              -0.000268438               0.000895404               0.000626966               0.000000000               0.000000000               0.000000000               0.000000000               0.000086650               0.002462689              -0.000002641              -0.000275342               0.000912669               0.000637327               0.000000000               0.000000000               0.000000000               0.000000000               0.000721547               0.000910627               0.000682675               0.000156750               0.000251289               0.000408039               0.000000000               0.000000000               0.000000000               0.000000000               0.000548629               0.001133459               0.000652919               0.000064052               0.000356465               0.000420517               0.000000000               0.000000000               0.000000000               0.000000000               0.000364525               0.001445754               0.000580564              -0.000044023               0.000496587               0.000452565               0.000000000               0.000000000               0.000000000               0.000000000               0.000290974               0.001608652               0.000488467              -0.000091966               0.000566867               0.000474901               0.000000000               0.000000000               0.000000000               0.000000000               0.000258861               0.001709660               0.000407840              -0.000116635               0.000608759               0.000492125               0.000000000               0.000000000               0.000000000               0.000000000               0.000242623               0.001783608               0.000338756              -0.000131967               0.000638519               0.000506552               0.000000000               0.000000000               0.000000000               0.000000000               0.000230973               0.001845551               0.000278629              -0.000144079               0.000663204               0.000519125               0.000000000               0.000000000               0.000000000               0.000000000               0.000216136               0.001900909               0.000227741              -0.000156562               0.000685817               0.000529255               0.000000000               0.000000000               0.000000000               0.000000000               0.000195994               0.001954730               0.000187552              -0.000170843               0.000708518               0.000537675               0.000000000               0.000000000               0.000000000               0.000000000               0.000173746               0.002005465               0.000155454              -0.000185528               0.000730324               0.000544796               0.000000000               0.000000000               0.000000000               0.000000000               0.000154625               0.002054538               0.000122176              -0.000198833               0.000751117               0.000552284               0.000000000               0.000000000               0.000000000               0.000000000               0.000138141               0.002100143               0.000090437              -0.000210714               0.000770279               0.000559564               0.000000000               0.000000000               0.000000000               0.000000000               0.000128116               0.002148541               0.000064213              -0.000220523               0.000789681               0.000569158               0.000000000               0.000000000               0.000000000               0.000000000               0.000127026               0.002210044               0.000040434              -0.000228620               0.000812881               0.000584261               0.000000000               0.000000000               0.000000000               0.000000000               0.000129565               0.002296580               0.000022600              -0.000238485               0.000845014               0.000606529               0.000000000               0.000000000               0.000000000               0.000000000               0.000129682               0.002403388               0.000009616              -0.000251792               0.000885052               0.000633260               0.000000000               0.000000000               0.000000000               0.000000000               0.000121201               0.002452848               0.000000815              -0.000261155               0.000904659               0.000643505               0.000000000               0.000000000               0.000000000               0.000000000               0.000646794               0.000648886               0.000554839               0.000161435               0.000162481               0.000323916               0.000000000               0.000000000               0.000000000               0.000000000               0.000554021               0.000889770               0.000587531               0.000096535               0.000264408               0.000360943               0.000000000               0.000000000               0.000000000               0.000000000               0.000419586               0.001220156               0.000579232               0.000004824               0.000405106               0.000409930               0.000000000               0.000000000               0.000000000               0.000000000               0.000347919               0.001421331               0.000513320              -0.000047197               0.000489504               0.000442307               0.000000000               0.000000000               0.000000000               0.000000000               0.000310182               0.001556598               0.000442123              -0.000078257               0.000544946               0.000466690               0.000000000               0.000000000               0.000000000               0.000000000               0.000288342               0.001659265               0.000375211              -0.000099280               0.000586176               0.000486896               0.000000000               0.000000000               0.000000000               0.000000000               0.000271929               0.001741039               0.000313675              -0.000115657               0.000618893               0.000503236               0.000000000               0.000000000               0.000000000               0.000000000               0.000253476               0.001809840               0.000260211              -0.000131176               0.000646999               0.000515823               0.000000000               0.000000000               0.000000000               0.000000000               0.000233590               0.001874434               0.000218805              -0.000146708               0.000673707               0.000527000               0.000000000               0.000000000               0.000000000               0.000000000               0.000212377               0.001939167               0.000184249              -0.000162754               0.000700634               0.000537880               0.000000000               0.000000000               0.000000000               0.000000000               0.000191017               0.002003878               0.000147767              -0.000178853               0.000727570               0.000548717               0.000000000               0.000000000               0.000000000               0.000000000               0.000174227               0.002065495               0.000115762              -0.000192851               0.000752775               0.000559924               0.000000000               0.000000000               0.000000000               0.000000000               0.000166185               0.002124521               0.000092769              -0.000203245               0.000775915               0.000572670               0.000000000               0.000000000               0.000000000               0.000000000               0.000167125               0.002188632               0.000070092              -0.000210907               0.000799839               0.000588932               0.000000000               0.000000000               0.000000000               0.000000000               0.000170384               0.002277059               0.000042759              -0.000220738               0.000832591               0.000611853               0.000000000               0.000000000               0.000000000               0.000000000               0.000169023               0.002392283               0.000018273              -0.000235651               0.000875970               0.000640319               0.000000000               0.000000000               0.000000000               0.000000000               0.000155106               0.002445710               0.000004004              -0.000247548               0.000897745               0.000650196               0.000000000               0.000000000               0.000000000               0.000000000               0.000548536               0.000429598               0.000422328               0.000152000               0.000092531               0.000244531               0.000000000               0.000000000               0.000000000               0.000000000               0.000545043               0.000666301               0.000497432               0.000121102               0.000181730               0.000302832               0.000000000               0.000000000               0.000000000               0.000000000               0.000476552               0.000990070               0.000537765               0.000054947               0.000311704               0.000366651               0.000000000               0.000000000               0.000000000               0.000000000               0.000418555               0.001214628               0.000499377               0.000005129               0.000403162               0.000408291               0.000000000               0.000000000               0.000000000               0.000000000               0.000376240               0.001381955               0.000443074              -0.000031655               0.000471199               0.000439544               0.000000000               0.000000000               0.000000000               0.000000000               0.000345899               0.001512354               0.000384607              -0.000059332               0.000523890               0.000464558               0.000000000               0.000000000               0.000000000               0.000000000               0.000321415               0.001613796               0.000326413              -0.000081194               0.000564991               0.000483797               0.000000000               0.000000000               0.000000000               0.000000000               0.000298192               0.001699624               0.000274838              -0.000100631               0.000600079               0.000499448               0.000000000               0.000000000               0.000000000               0.000000000               0.000275940               0.001778969               0.000234735              -0.000118893               0.000632615               0.000513721               0.000000000               0.000000000               0.000000000               0.000000000               0.000252781               0.001856662               0.000200126              -0.000137290               0.000664645               0.000527355               0.000000000               0.000000000               0.000000000               0.000000000               0.000234555               0.001934624               0.000166180              -0.000153869               0.000696158               0.000542289               0.000000000               0.000000000               0.000000000               0.000000000               0.000223250               0.002010790               0.000139191              -0.000167630               0.000726133               0.000558503               0.000000000               0.000000000               0.000000000               0.000000000               0.000216471               0.002089959               0.000119133              -0.000180068               0.000756668               0.000576601               0.000000000               0.000000000               0.000000000               0.000000000               0.000213519               0.002173915               0.000094546              -0.000191669               0.000788521               0.000596852               0.000000000               0.000000000               0.000000000               0.000000000               0.000214663               0.002269763               0.000061909              -0.000203221               0.000824321               0.000621099               0.000000000               0.000000000               0.000000000               0.000000000               0.000215648               0.002385194               0.000028853              -0.000217281               0.000867484               0.000650203               0.000000000               0.000000000               0.000000000               0.000000000               0.000202636               0.002439299               0.000009744              -0.000228923               0.000889399               0.000660476               0.000000000               0.000000000               0.000000000               0.000000000               0.000439222               0.000260360               0.000296011               0.000132162               0.000042732               0.000174893               0.000000000               0.000000000               0.000000000               0.000000000               0.000525884               0.000476539               0.000387613               0.000137638               0.000112965               0.000250603               0.000000000               0.000000000               0.000000000               0.000000000               0.000528545               0.000773666               0.000452379               0.000101495               0.000224054               0.000325549               0.000000000               0.000000000               0.000000000               0.000000000               0.000492540               0.001009822               0.000437821               0.000058474               0.000317113               0.000375586               0.000000000               0.000000000               0.000000000               0.000000000               0.000450900               0.001202982               0.000398838               0.000018714               0.000394752               0.000413466               0.000000000               0.000000000               0.000000000               0.000000000               0.000412906               0.001355319               0.000352420              -0.000014575               0.000456627               0.000442051               0.000000000               0.000000000               0.000000000               0.000000000               0.000377409               0.001473190               0.000303617              -0.000042620               0.000505265               0.000462645               0.000000000               0.000000000               0.000000000               0.000000000               0.000349883               0.001576333               0.000259496              -0.000065835               0.000547384               0.000481549               0.000000000               0.000000000               0.000000000               0.000000000               0.000324814               0.001669539               0.000223098              -0.000086887               0.000585470               0.000498583               0.000000000               0.000000000               0.000000000               0.000000000               0.000302889               0.001760144               0.000192605              -0.000106434               0.000622187               0.000515753               0.000000000               0.000000000               0.000000000               0.000000000               0.000285934               0.001850494               0.000167404              -0.000124086               0.000658187               0.000534101               0.000000000               0.000000000               0.000000000               0.000000000               0.000276623               0.001942808               0.000146055              -0.000139117               0.000693968               0.000554851               0.000000000               0.000000000               0.000000000               0.000000000               0.000269351               0.002045946               0.000126237              -0.000154736               0.000733554               0.000578817               0.000000000               0.000000000               0.000000000               0.000000000               0.000265624               0.002158152               0.000103804              -0.000170160               0.000776096               0.000605937               0.000000000               0.000000000               0.000000000               0.000000000               0.000269765               0.002272833               0.000074430              -0.000182942               0.000818584               0.000635642               0.000000000               0.000000000               0.000000000               0.000000000               0.000277920               0.002390799               0.000038575              -0.000194629               0.000861801               0.000667172               0.000000000               0.000000000               0.000000000               0.000000000               0.000271771               0.002445357               0.000016999              -0.000203755               0.000883029               0.000679274               0.000000000               0.000000000               0.000000000               0.000000000               0.000339526               0.000144886               0.000183115               0.000109211               0.000011891               0.000121102               0.000000000               0.000000000               0.000000000               0.000000000               0.000501777               0.000330501               0.000263978               0.000146852               0.000061215               0.000208067               0.000000000               0.000000000               0.000000000               0.000000000               0.000570682               0.000595792               0.000327141               0.000139530               0.000152085               0.000291615               0.000000000               0.000000000               0.000000000               0.000000000               0.000559694               0.000835683               0.000326871               0.000105424               0.000243417               0.000348841               0.000000000               0.000000000               0.000000000               0.000000000               0.000521854               0.001041312               0.000304338               0.000065531               0.000325257               0.000390788               0.000000000               0.000000000               0.000000000               0.000000000               0.000477973               0.001210220               0.000271910               0.000027962               0.000394082               0.000422044               0.000000000               0.000000000               0.000000000               0.000000000               0.000435861               0.001343698               0.000237266              -0.000004514               0.000449400               0.000444885               0.000000000               0.000000000               0.000000000               0.000000000               0.000400093               0.001456584               0.000205514              -0.000032038               0.000496203               0.000464164               0.000000000               0.000000000               0.000000000               0.000000000               0.000372643               0.001561722               0.000178744              -0.000055474               0.000539060               0.000483586               0.000000000               0.000000000               0.000000000               0.000000000               0.000351946               0.001664878               0.000156166              -0.000076130               0.000580330               0.000504201               0.000000000               0.000000000               0.000000000               0.000000000               0.000335357               0.001772378               0.000137455              -0.000095788               0.000622716               0.000526928               0.000000000               0.000000000               0.000000000               0.000000000               0.000322379               0.001886856               0.000122811              -0.000114965               0.000667267               0.000552303               0.000000000               0.000000000               0.000000000               0.000000000               0.000319384               0.002008565               0.000108551              -0.000131301               0.000713282               0.000581981               0.000000000               0.000000000               0.000000000               0.000000000               0.000324109               0.002141305               0.000092390              -0.000146122               0.000762468               0.000616347               0.000000000               0.000000000               0.000000000               0.000000000               0.000333868               0.002276328               0.000072038              -0.000159340               0.000811882               0.000652542               0.000000000               0.000000000               0.000000000               0.000000000               0.000350335               0.002400490               0.000041526              -0.000168685               0.000856384               0.000687699               0.000000000               0.000000000               0.000000000               0.000000000               0.000356884               0.002457175               0.000021716              -0.000173315               0.000876822               0.000703507               0.000000000               0.000000000               0.000000000               0.000000000               0.000271815               0.000081497               0.000086607               0.000091742              -0.000003416               0.000088327               0.000000000               0.000000000               0.000000000               0.000000000               0.000481654               0.000240515               0.000133333               0.000150554               0.000029986               0.000180540               0.000000000               0.000000000               0.000000000               0.000000000               0.000598142               0.000479588               0.000171943               0.000164353               0.000105077               0.000269430               0.000000000               0.000000000               0.000000000               0.000000000               0.000606084               0.000716589               0.000175069               0.000137706               0.000192959               0.000330665               0.000000000               0.000000000               0.000000000               0.000000000               0.000573469               0.000927730               0.000164926               0.000099084               0.000276212               0.000375296               0.000000000               0.000000000               0.000000000               0.000000000               0.000526390               0.001106438               0.000149077               0.000059091               0.000349112               0.000408203               0.000000000               0.000000000               0.000000000               0.000000000               0.000480425               0.001251273               0.000130507               0.000023750               0.000409170               0.000432920               0.000000000               0.000000000               0.000000000               0.000000000               0.000439394               0.001371519               0.000114230              -0.000006667               0.000459391               0.000452724               0.000000000               0.000000000               0.000000000               0.000000000               0.000407303               0.001482982               0.000101334              -0.000032634               0.000505200               0.000472566               0.000000000               0.000000000               0.000000000               0.000000000               0.000382229               0.001593686               0.000089497              -0.000055875               0.000549848               0.000493974               0.000000000               0.000000000               0.000000000               0.000000000               0.000367182               0.001715062               0.000077377              -0.000076689               0.000597245               0.000520555               0.000000000               0.000000000               0.000000000               0.000000000               0.000359787               0.001848322               0.000069538              -0.000096120               0.000648141               0.000552021               0.000000000               0.000000000               0.000000000               0.000000000               0.000360130               0.001985405               0.000065063              -0.000113127               0.000699504               0.000586377               0.000000000               0.000000000               0.000000000               0.000000000               0.000370352               0.002130729               0.000055884              -0.000127459               0.000752722               0.000625263               0.000000000               0.000000000               0.000000000               0.000000000               0.000388103               0.002275710               0.000044300              -0.000138925               0.000804871               0.000665946               0.000000000               0.000000000               0.000000000               0.000000000               0.000412631               0.002404180               0.000028852              -0.000145785               0.000849980               0.000704195               0.000000000               0.000000000               0.000000000               0.000000000               0.000429371               0.002463737               0.000018750              -0.000146953               0.000870222               0.000723269               0.000000000               0.000000000               0.000000000               0.000000000               0.000000000               0.000000000               0.000000000               0.000000000               0.000000000               0.000000000               0.000000000               0.000000000               0.000000000               0.000000000               0.000000000               0.000000000               0.000000000               0.000000000               0.000000000               0.000000000               0.000000000               0.000000000               0.000000000               0.000000000               0.000000000               0.000000000               0.000000000               0.000000000               0.000000000               0.000000000               0.000000000               0.000000000               0.000000000               0.000000000               0.000000000               0.000000000               0.000000000               0.000000000               0.000000000               0.000000000               0.000000000               0.000000000               0.000000000               0.000000000               0.000000000               0.000000000               0.000000000               0.000000000               0.000000000               0.000000000               0.000000000               0.000000000               0.000000000               0.000000000               0.000000000               0.000000000               0.000000000               0.000000000               0.000000000               0.000000000               0.000000000               0.000000000               0.000000000               0.000000000               0.000000000               0.000000000               0.000000000               0.000000000               0.000000000               0.000000000               0.000000000               0.000000000               0.000000000               0.000000000               0.000000000               0.000000000               0.000000000               0.000000000               0.000000000               0.000000000               0.000000000               0.000000000               0.000000000               0.000000000               0.000000000               0.000000000               0.000000000               0.000000000               0.000000000               0.000000000               0.000000000               0.000000000               0.000000000               0.000000000               0.000000000               0.000000000               0.000000000               0.000000000               0.000000000               0.000000000               0.000000000               0.000000000               0.000000000               0.000000000               0.000000000               0.000000000               0.000000000               0.000000000               0.000000000               0.000000000               0.000000000               0.000000000               0.000000000               0.000000000               0.000000000               0.000000000               0.000000000               0.000000000               0.000000000               0.000000000               0.000000000               0.000000000               0.000000000               0.000000000               0.000000000               0.000000000               0.000000000               0.000000000               0.000000000               0.000000000               0.000000000               0.000000000               0.000000000               0.000000000               0.000000000               0.000000000               0.000000000               0.000000000               0.000000000               0.000000000               0.000000000               0.000000000               0.000000000               0.000000000               0.000000000               0.000000000               0.000000000               0.000000000               0.000000000               0.000000000               0.000000000               0.000000000               0.000000000               0.000000000               0.000000000               0.000000000               0.000000000               0.000000000               0.000000000               0.000000000               0.000000000               0.000000000               0.000000000               0.000000000               0.000000000               0.000000000               0.000000000               0.000000000               0.000000000               0.000000000               0.000000000               0.000000000               0.000000000               0.000000000 </DataArray>
</PointData>
</Piece>
</UnstructuredGrid> </VTKFile>
