<?xml version="1.0"?>
<VTKFile type="UnstructuredGrid" version="0.1">
<UnstructuredGrid>
<Piece NumberOfPoints="      1156" NumberOfCells="      1024">
<Points>
<DataArray type="Float64"                                    Name="coordinates"                                                      NumberOfComponents=" 3" format="ascii">
              0.133000000               0.000000000               0.000000000               0.155937500               0.000000000               0.000000000               0.178875000               0.000000000               0.000000000               0.201812500               0.000000000               0.000000000               0.224750000               0.000000000               0.000000000               0.247687500               0.000000000               0.000000000               0.270625000               0.000000000               0.000000000               0.293562500               0.000000000               0.000000000               0.316500000               0.000000000               0.000000000               0.339437500               0.000000000               0.000000000               0.362375000               0.000000000               0.000000000               0.385312500               0.000000000               0.000000000               0.408250000               0.000000000               0.000000000               0.431187500               0.000000000               0.000000000               0.454125000               0.000000000               0.000000000               0.477062500               0.000000000               0.000000000               0.500000000               0.000000000               0.000000000               0.132359569               0.013036280               0.000000000               0.155337096               0.016127762               0.000000000               0.178314623               0.019219245               0.000000000               0.201292150               0.022310727               0.000000000               0.224269676               0.025402210               0.000000000               0.247247203               0.028493692               0.000000000               0.270224730               0.031585175               0.000000000               0.293202257               0.034676657               0.000000000               0.316179784               0.037768140               0.000000000               0.339157311               0.040859622               0.000000000               0.362134838               0.043951105               0.000000000               0.385112365               0.047042587               0.000000000               0.408089892               0.050134070               0.000000000               0.431067419               0.053225552               0.000000000               0.454044946               0.056317035               0.000000000               0.477022473               0.059408517               0.000000000               0.500000000               0.062500000               0.000000000               0.130444442               0.025947013               0.000000000               0.153541665               0.032137825               0.000000000               0.176638887               0.038328636               0.000000000               0.199736109               0.044519448               0.000000000               0.222833332               0.050710260               0.000000000               0.245930554               0.056901071               0.000000000               0.269027776               0.063091883               0.000000000               0.292124999               0.069282695               0.000000000               0.315222221               0.075473506               0.000000000               0.338319444               0.081664318               0.000000000               0.361416666               0.087855130               0.000000000               0.384513888               0.094045942               0.000000000               0.407611111               0.100236753               0.000000000               0.430708333               0.106427565               0.000000000               0.453805555               0.112618377               0.000000000               0.476902778               0.118809188               0.000000000               0.500000000               0.125000000               0.000000000               0.127273065               0.038607862               0.000000000               0.150568498               0.047913621               0.000000000               0.173863932               0.057219379               0.000000000               0.197159365               0.066525138               0.000000000               0.220454798               0.075830897               0.000000000               0.243750232               0.085136655               0.000000000               0.267045665               0.094442414               0.000000000               0.290341099               0.103748172               0.000000000               0.313636532               0.113053931               0.000000000               0.336931966               0.122359690               0.000000000               0.360227399               0.131665448               0.000000000               0.383522833               0.140971207               0.000000000               0.406818266               0.150276966               0.000000000               0.430113700               0.159582724               0.000000000               0.453409133               0.168888483               0.000000000               0.476704567               0.178194241               0.000000000               0.500000000               0.187500000               0.000000000               0.122875978               0.050896897               0.000000000               0.146446229               0.063340840               0.000000000               0.170016481               0.075784784               0.000000000               0.193586732               0.088228728               0.000000000               0.217156983               0.100672672               0.000000000               0.240727235               0.113116616               0.000000000               0.264297486               0.125560560               0.000000000               0.287867738               0.138004504               0.000000000               0.311437989               0.150448448               0.000000000               0.335008240               0.162892392               0.000000000               0.358578492               0.175336336               0.000000000               0.382148743               0.187780280               0.000000000               0.405718994               0.200224224               0.000000000               0.429289246               0.212668168               0.000000000               0.452859497               0.225112112               0.000000000               0.476429749               0.237556056               0.000000000               0.500000000               0.250000000               0.000000000               0.117295528               0.062695766               0.000000000               0.141214558               0.078308531               0.000000000               0.165133587               0.093921295               0.000000000               0.189052617               0.109534060               0.000000000               0.212971646               0.125146824               0.000000000               0.236890676               0.140759589               0.000000000               0.260809705               0.156372354               0.000000000               0.284728735               0.171985118               0.000000000               0.308647764               0.187597883               0.000000000               0.332566794               0.203210648               0.000000000               0.356485823               0.218823412               0.000000000               0.380404853               0.234436177               0.000000000               0.404323882               0.250048941               0.000000000               0.428242912               0.265661706               0.000000000               0.452161941               0.281274471               0.000000000               0.476080971               0.296887235               0.000000000               0.500000000               0.312500000               0.000000000               0.110585458               0.073890841               0.000000000               0.134923867               0.092710163               0.000000000               0.159262276               0.111529486               0.000000000               0.183600685               0.130348808               0.000000000               0.207939094               0.149168131               0.000000000               0.232277503               0.167987453               0.000000000               0.256615912               0.186806776               0.000000000               0.280954320               0.205626098               0.000000000               0.305292729               0.224445420               0.000000000               0.329631138               0.243264743               0.000000000               0.353969547               0.262084065               0.000000000               0.378307956               0.280903388               0.000000000               0.402646365               0.299722710               0.000000000               0.426984773               0.318542033               0.000000000               0.451323182               0.337361355               0.000000000               0.475661591               0.356180678               0.000000000               0.500000000               0.375000000               0.000000000               0.102810390               0.084374307               0.000000000               0.127634741               0.106444663               0.000000000               0.152459092               0.128515018               0.000000000               0.177283442               0.150585374               0.000000000               0.202107793               0.172655730               0.000000000               0.226932143               0.194726086               0.000000000               0.251756494               0.216796442               0.000000000               0.276580845               0.238866798               0.000000000               0.301405195               0.260937153               0.000000000               0.326229546               0.283007509               0.000000000               0.351053896               0.305077865               0.000000000               0.375878247               0.327148221               0.000000000               0.400702598               0.349218577               0.000000000               0.425526948               0.371288933               0.000000000               0.450351299               0.393359288               0.000000000               0.475175649               0.415429644               0.000000000               0.500000000               0.437500000               0.000000000               0.094045202               0.094045202               0.000000000               0.119417377               0.119417377               0.000000000               0.144789552               0.144789552               0.000000000               0.170161727               0.170161727               0.000000000               0.195533901               0.195533901               0.000000000               0.220906076               0.220906076               0.000000000               0.246278251               0.246278251               0.000000000               0.271650426               0.271650426               0.000000000               0.297022601               0.297022601               0.000000000               0.322394776               0.322394776               0.000000000               0.347766951               0.347766951               0.000000000               0.373139126               0.373139126               0.000000000               0.398511300               0.398511300               0.000000000               0.423883475               0.423883475               0.000000000               0.449255650               0.449255650               0.000000000               0.474627825               0.474627825               0.000000000               0.500000000               0.500000000               0.000000000               0.084374307               0.102810390               0.000000000               0.106444663               0.127634741               0.000000000               0.128515018               0.152459092               0.000000000               0.150585374               0.177283442               0.000000000               0.172655730               0.202107793               0.000000000               0.194726086               0.226932143               0.000000000               0.216796442               0.251756494               0.000000000               0.238866798               0.276580845               0.000000000               0.260937153               0.301405195               0.000000000               0.283007509               0.326229546               0.000000000               0.305077865               0.351053896               0.000000000               0.327148221               0.375878247               0.000000000               0.349218577               0.400702598               0.000000000               0.371288933               0.425526948               0.000000000               0.393359288               0.450351299               0.000000000               0.415429644               0.475175649               0.000000000               0.437500000               0.500000000               0.000000000               0.073890841               0.110585458               0.000000000               0.092710163               0.134923867               0.000000000               0.111529486               0.159262276               0.000000000               0.130348808               0.183600685               0.000000000               0.149168131               0.207939094               0.000000000               0.167987453               0.232277503               0.000000000               0.186806776               0.256615912               0.000000000               0.205626098               0.280954320               0.000000000               0.224445420               0.305292729               0.000000000               0.243264743               0.329631138               0.000000000               0.262084065               0.353969547               0.000000000               0.280903388               0.378307956               0.000000000               0.299722710               0.402646365               0.000000000               0.318542033               0.426984773               0.000000000               0.337361355               0.451323182               0.000000000               0.356180678               0.475661591               0.000000000               0.375000000               0.500000000               0.000000000               0.062695766               0.117295528               0.000000000               0.078308531               0.141214558               0.000000000               0.093921295               0.165133587               0.000000000               0.109534060               0.189052617               0.000000000               0.125146824               0.212971646               0.000000000               0.140759589               0.236890676               0.000000000               0.156372354               0.260809705               0.000000000               0.171985118               0.284728735               0.000000000               0.187597883               0.308647764               0.000000000               0.203210648               0.332566794               0.000000000               0.218823412               0.356485823               0.000000000               0.234436177               0.380404853               0.000000000               0.250048941               0.404323882               0.000000000               0.265661706               0.428242912               0.000000000               0.281274471               0.452161941               0.000000000               0.296887235               0.476080971               0.000000000               0.312500000               0.500000000               0.000000000               0.050896897               0.122875978               0.000000000               0.063340840               0.146446229               0.000000000               0.075784784               0.170016481               0.000000000               0.088228728               0.193586732               0.000000000               0.100672672               0.217156983               0.000000000               0.113116616               0.240727235               0.000000000               0.125560560               0.264297486               0.000000000               0.138004504               0.287867738               0.000000000               0.150448448               0.311437989               0.000000000               0.162892392               0.335008240               0.000000000               0.175336336               0.358578492               0.000000000               0.187780280               0.382148743               0.000000000               0.200224224               0.405718994               0.000000000               0.212668168               0.429289246               0.000000000               0.225112112               0.452859497               0.000000000               0.237556056               0.476429749               0.000000000               0.250000000               0.500000000               0.000000000               0.038607862               0.127273065               0.000000000               0.047913621               0.150568498               0.000000000               0.057219379               0.173863932               0.000000000               0.066525138               0.197159365               0.000000000               0.075830897               0.220454798               0.000000000               0.085136655               0.243750232               0.000000000               0.094442414               0.267045665               0.000000000               0.103748172               0.290341099               0.000000000               0.113053931               0.313636532               0.000000000               0.122359690               0.336931966               0.000000000               0.131665448               0.360227399               0.000000000               0.140971207               0.383522833               0.000000000               0.150276966               0.406818266               0.000000000               0.159582724               0.430113700               0.000000000               0.168888483               0.453409133               0.000000000               0.178194241               0.476704567               0.000000000               0.187500000               0.500000000               0.000000000               0.025947013               0.130444442               0.000000000               0.032137825               0.153541665               0.000000000               0.038328636               0.176638887               0.000000000               0.044519448               0.199736109               0.000000000               0.050710260               0.222833332               0.000000000               0.056901071               0.245930554               0.000000000               0.063091883               0.269027776               0.000000000               0.069282695               0.292124999               0.000000000               0.075473506               0.315222221               0.000000000               0.081664318               0.338319444               0.000000000               0.087855130               0.361416666               0.000000000               0.094045942               0.384513888               0.000000000               0.100236753               0.407611111               0.000000000               0.106427565               0.430708333               0.000000000               0.112618377               0.453805555               0.000000000               0.118809188               0.476902778               0.000000000               0.125000000               0.500000000               0.000000000               0.013036280               0.132359569               0.000000000               0.016127762               0.155337096               0.000000000               0.019219245               0.178314623               0.000000000               0.022310727               0.201292150               0.000000000               0.025402210               0.224269676               0.000000000               0.028493692               0.247247203               0.000000000               0.031585175               0.270224730               0.000000000               0.034676657               0.293202257               0.000000000               0.037768140               0.316179784               0.000000000               0.040859622               0.339157311               0.000000000               0.043951105               0.362134838               0.000000000               0.047042587               0.385112365               0.000000000               0.050134070               0.408089892               0.000000000               0.053225552               0.431067419               0.000000000               0.056317035               0.454044946               0.000000000               0.059408517               0.477022473               0.000000000               0.062500000               0.500000000               0.000000000               0.000000000               0.133000000               0.000000000               0.000000000               0.155937500               0.000000000               0.000000000               0.178875000               0.000000000               0.000000000               0.201812500               0.000000000               0.000000000               0.224750000               0.000000000               0.000000000               0.247687500               0.000000000               0.000000000               0.270625000               0.000000000               0.000000000               0.293562500               0.000000000               0.000000000               0.316500000               0.000000000               0.000000000               0.339437500               0.000000000               0.000000000               0.362375000               0.000000000               0.000000000               0.385312500               0.000000000               0.000000000               0.408250000               0.000000000               0.000000000               0.431187500               0.000000000               0.000000000               0.454125000               0.000000000               0.000000000               0.477062500               0.000000000               0.000000000               0.500000000               0.000000000               0.133000000               0.000000000               0.000000000               0.155937500               0.000000000               0.000000000               0.178875000               0.000000000               0.000000000               0.201812500               0.000000000               0.000000000               0.224750000               0.000000000               0.000000000               0.247687500               0.000000000               0.000000000               0.270625000               0.000000000               0.000000000               0.293562500               0.000000000               0.000000000               0.316500000               0.000000000               0.000000000               0.339437500               0.000000000               0.000000000               0.362375000               0.000000000               0.000000000               0.385312500               0.000000000               0.000000000               0.408250000               0.000000000               0.000000000               0.431187500               0.000000000               0.000000000               0.454125000               0.000000000               0.000000000               0.477062500               0.000000000               0.000000000               0.500000000               0.000000000               0.000000000               0.132359569              -0.013036280               0.000000000               0.155337096              -0.016127762               0.000000000               0.178314623              -0.019219245               0.000000000               0.201292150              -0.022310727               0.000000000               0.224269676              -0.025402210               0.000000000               0.247247203              -0.028493692               0.000000000               0.270224730              -0.031585175               0.000000000               0.293202257              -0.034676657               0.000000000               0.316179784              -0.037768140               0.000000000               0.339157311              -0.040859622               0.000000000               0.362134838              -0.043951105               0.000000000               0.385112365              -0.047042587               0.000000000               0.408089892              -0.050134070               0.000000000               0.431067419              -0.053225552               0.000000000               0.454044946              -0.056317035               0.000000000               0.477022473              -0.059408517               0.000000000               0.500000000              -0.062500000               0.000000000               0.130444442              -0.025947013               0.000000000               0.153541665              -0.032137825               0.000000000               0.176638887              -0.038328636               0.000000000               0.199736109              -0.044519448               0.000000000               0.222833332              -0.050710260               0.000000000               0.245930554              -0.056901071               0.000000000               0.269027776              -0.063091883               0.000000000               0.292124999              -0.069282695               0.000000000               0.315222221              -0.075473506               0.000000000               0.338319444              -0.081664318               0.000000000               0.361416666              -0.087855130               0.000000000               0.384513888              -0.094045942               0.000000000               0.407611111              -0.100236753               0.000000000               0.430708333              -0.106427565               0.000000000               0.453805555              -0.112618377               0.000000000               0.476902778              -0.118809188               0.000000000               0.500000000              -0.125000000               0.000000000               0.127273065              -0.038607862               0.000000000               0.150568498              -0.047913621               0.000000000               0.173863932              -0.057219379               0.000000000               0.197159365              -0.066525138               0.000000000               0.220454798              -0.075830897               0.000000000               0.243750232              -0.085136655               0.000000000               0.267045665              -0.094442414               0.000000000               0.290341099              -0.103748172               0.000000000               0.313636532              -0.113053931               0.000000000               0.336931966              -0.122359690               0.000000000               0.360227399              -0.131665448               0.000000000               0.383522833              -0.140971207               0.000000000               0.406818266              -0.150276966               0.000000000               0.430113700              -0.159582724               0.000000000               0.453409133              -0.168888483               0.000000000               0.476704567              -0.178194241               0.000000000               0.500000000              -0.187500000               0.000000000               0.122875978              -0.050896897               0.000000000               0.146446229              -0.063340840               0.000000000               0.170016481              -0.075784784               0.000000000               0.193586732              -0.088228728               0.000000000               0.217156983              -0.100672672               0.000000000               0.240727235              -0.113116616               0.000000000               0.264297486              -0.125560560               0.000000000               0.287867738              -0.138004504               0.000000000               0.311437989              -0.150448448               0.000000000               0.335008240              -0.162892392               0.000000000               0.358578492              -0.175336336               0.000000000               0.382148743              -0.187780280               0.000000000               0.405718994              -0.200224224               0.000000000               0.429289246              -0.212668168               0.000000000               0.452859497              -0.225112112               0.000000000               0.476429749              -0.237556056               0.000000000               0.500000000              -0.250000000               0.000000000               0.117295528              -0.062695766               0.000000000               0.141214558              -0.078308531               0.000000000               0.165133587              -0.093921295               0.000000000               0.189052617              -0.109534060               0.000000000               0.212971646              -0.125146824               0.000000000               0.236890676              -0.140759589               0.000000000               0.260809705              -0.156372354               0.000000000               0.284728735              -0.171985118               0.000000000               0.308647764              -0.187597883               0.000000000               0.332566794              -0.203210648               0.000000000               0.356485823              -0.218823412               0.000000000               0.380404853              -0.234436177               0.000000000               0.404323882              -0.250048941               0.000000000               0.428242912              -0.265661706               0.000000000               0.452161941              -0.281274471               0.000000000               0.476080971              -0.296887235               0.000000000               0.500000000              -0.312500000               0.000000000               0.110585458              -0.073890841               0.000000000               0.134923867              -0.092710163               0.000000000               0.159262276              -0.111529486               0.000000000               0.183600685              -0.130348808               0.000000000               0.207939094              -0.149168131               0.000000000               0.232277503              -0.167987453               0.000000000               0.256615912              -0.186806776               0.000000000               0.280954320              -0.205626098               0.000000000               0.305292729              -0.224445420               0.000000000               0.329631138              -0.243264743               0.000000000               0.353969547              -0.262084065               0.000000000               0.378307956              -0.280903388               0.000000000               0.402646365              -0.299722710               0.000000000               0.426984773              -0.318542033               0.000000000               0.451323182              -0.337361355               0.000000000               0.475661591              -0.356180678               0.000000000               0.500000000              -0.375000000               0.000000000               0.102810390              -0.084374307               0.000000000               0.127634741              -0.106444663               0.000000000               0.152459092              -0.128515018               0.000000000               0.177283442              -0.150585374               0.000000000               0.202107793              -0.172655730               0.000000000               0.226932143              -0.194726086               0.000000000               0.251756494              -0.216796442               0.000000000               0.276580845              -0.238866798               0.000000000               0.301405195              -0.260937153               0.000000000               0.326229546              -0.283007509               0.000000000               0.351053896              -0.305077865               0.000000000               0.375878247              -0.327148221               0.000000000               0.400702598              -0.349218577               0.000000000               0.425526948              -0.371288933               0.000000000               0.450351299              -0.393359288               0.000000000               0.475175649              -0.415429644               0.000000000               0.500000000              -0.437500000               0.000000000               0.094045202              -0.094045202               0.000000000               0.119417377              -0.119417377               0.000000000               0.144789552              -0.144789552               0.000000000               0.170161727              -0.170161727               0.000000000               0.195533901              -0.195533901               0.000000000               0.220906076              -0.220906076               0.000000000               0.246278251              -0.246278251               0.000000000               0.271650426              -0.271650426               0.000000000               0.297022601              -0.297022601               0.000000000               0.322394776              -0.322394776               0.000000000               0.347766951              -0.347766951               0.000000000               0.373139126              -0.373139126               0.000000000               0.398511300              -0.398511300               0.000000000               0.423883475              -0.423883475               0.000000000               0.449255650              -0.449255650               0.000000000               0.474627825              -0.474627825               0.000000000               0.500000000              -0.500000000               0.000000000               0.084374307              -0.102810390               0.000000000               0.106444663              -0.127634741               0.000000000               0.128515018              -0.152459092               0.000000000               0.150585374              -0.177283442               0.000000000               0.172655730              -0.202107793               0.000000000               0.194726086              -0.226932143               0.000000000               0.216796442              -0.251756494               0.000000000               0.238866798              -0.276580845               0.000000000               0.260937153              -0.301405195               0.000000000               0.283007509              -0.326229546               0.000000000               0.305077865              -0.351053896               0.000000000               0.327148221              -0.375878247               0.000000000               0.349218577              -0.400702598               0.000000000               0.371288933              -0.425526948               0.000000000               0.393359288              -0.450351299               0.000000000               0.415429644              -0.475175649               0.000000000               0.437500000              -0.500000000               0.000000000               0.073890841              -0.110585458               0.000000000               0.092710163              -0.134923867               0.000000000               0.111529486              -0.159262276               0.000000000               0.130348808              -0.183600685               0.000000000               0.149168131              -0.207939094               0.000000000               0.167987453              -0.232277503               0.000000000               0.186806776              -0.256615912               0.000000000               0.205626098              -0.280954320               0.000000000               0.224445420              -0.305292729               0.000000000               0.243264743              -0.329631138               0.000000000               0.262084065              -0.353969547               0.000000000               0.280903388              -0.378307956               0.000000000               0.299722710              -0.402646365               0.000000000               0.318542033              -0.426984773               0.000000000               0.337361355              -0.451323182               0.000000000               0.356180678              -0.475661591               0.000000000               0.375000000              -0.500000000               0.000000000               0.062695766              -0.117295528               0.000000000               0.078308531              -0.141214558               0.000000000               0.093921295              -0.165133587               0.000000000               0.109534060              -0.189052617               0.000000000               0.125146824              -0.212971646               0.000000000               0.140759589              -0.236890676               0.000000000               0.156372354              -0.260809705               0.000000000               0.171985118              -0.284728735               0.000000000               0.187597883              -0.308647764               0.000000000               0.203210648              -0.332566794               0.000000000               0.218823412              -0.356485823               0.000000000               0.234436177              -0.380404853               0.000000000               0.250048941              -0.404323882               0.000000000               0.265661706              -0.428242912               0.000000000               0.281274471              -0.452161941               0.000000000               0.296887235              -0.476080971               0.000000000               0.312500000              -0.500000000               0.000000000               0.050896897              -0.122875978               0.000000000               0.063340840              -0.146446229               0.000000000               0.075784784              -0.170016481               0.000000000               0.088228728              -0.193586732               0.000000000               0.100672672              -0.217156983               0.000000000               0.113116616              -0.240727235               0.000000000               0.125560560              -0.264297486               0.000000000               0.138004504              -0.287867738               0.000000000               0.150448448              -0.311437989               0.000000000               0.162892392              -0.335008240               0.000000000               0.175336336              -0.358578492               0.000000000               0.187780280              -0.382148743               0.000000000               0.200224224              -0.405718994               0.000000000               0.212668168              -0.429289246               0.000000000               0.225112112              -0.452859497               0.000000000               0.237556056              -0.476429749               0.000000000               0.250000000              -0.500000000               0.000000000               0.038607862              -0.127273065               0.000000000               0.047913621              -0.150568498               0.000000000               0.057219379              -0.173863932               0.000000000               0.066525138              -0.197159365               0.000000000               0.075830897              -0.220454798               0.000000000               0.085136655              -0.243750232               0.000000000               0.094442414              -0.267045665               0.000000000               0.103748172              -0.290341099               0.000000000               0.113053931              -0.313636532               0.000000000               0.122359690              -0.336931966               0.000000000               0.131665448              -0.360227399               0.000000000               0.140971207              -0.383522833               0.000000000               0.150276966              -0.406818266               0.000000000               0.159582724              -0.430113700               0.000000000               0.168888483              -0.453409133               0.000000000               0.178194241              -0.476704567               0.000000000               0.187500000              -0.500000000               0.000000000               0.025947013              -0.130444442               0.000000000               0.032137825              -0.153541665               0.000000000               0.038328636              -0.176638887               0.000000000               0.044519448              -0.199736109               0.000000000               0.050710260              -0.222833332               0.000000000               0.056901071              -0.245930554               0.000000000               0.063091883              -0.269027776               0.000000000               0.069282695              -0.292124999               0.000000000               0.075473506              -0.315222221               0.000000000               0.081664318              -0.338319444               0.000000000               0.087855130              -0.361416666               0.000000000               0.094045942              -0.384513888               0.000000000               0.100236753              -0.407611111               0.000000000               0.106427565              -0.430708333               0.000000000               0.112618377              -0.453805555               0.000000000               0.118809188              -0.476902778               0.000000000               0.125000000              -0.500000000               0.000000000               0.013036280              -0.132359569               0.000000000               0.016127762              -0.155337096               0.000000000               0.019219245              -0.178314623               0.000000000               0.022310727              -0.201292150               0.000000000               0.025402210              -0.224269676               0.000000000               0.028493692              -0.247247203               0.000000000               0.031585175              -0.270224730               0.000000000               0.034676657              -0.293202257               0.000000000               0.037768140              -0.316179784               0.000000000               0.040859622              -0.339157311               0.000000000               0.043951105              -0.362134838               0.000000000               0.047042587              -0.385112365               0.000000000               0.050134070              -0.408089892               0.000000000               0.053225552              -0.431067419               0.000000000               0.056317035              -0.454044946               0.000000000               0.059408517              -0.477022473               0.000000000               0.062500000              -0.500000000               0.000000000               0.000000000              -0.133000000               0.000000000               0.000000000              -0.155937500               0.000000000               0.000000000              -0.178875000               0.000000000               0.000000000              -0.201812500               0.000000000               0.000000000              -0.224750000               0.000000000               0.000000000              -0.247687500               0.000000000               0.000000000              -0.270625000               0.000000000               0.000000000              -0.293562500               0.000000000               0.000000000              -0.316500000               0.000000000               0.000000000              -0.339437500               0.000000000               0.000000000              -0.362375000               0.000000000               0.000000000              -0.385312500               0.000000000               0.000000000              -0.408250000               0.000000000               0.000000000              -0.431187500               0.000000000               0.000000000              -0.454125000               0.000000000               0.000000000              -0.477062500               0.000000000               0.000000000              -0.500000000               0.000000000              -0.133000000               0.000000000               0.000000000              -0.155937500               0.000000000               0.000000000              -0.178875000               0.000000000               0.000000000              -0.201812500               0.000000000               0.000000000              -0.224750000               0.000000000               0.000000000              -0.247687500               0.000000000               0.000000000              -0.270625000               0.000000000               0.000000000              -0.293562500               0.000000000               0.000000000              -0.316500000               0.000000000               0.000000000              -0.339437500               0.000000000               0.000000000              -0.362375000               0.000000000               0.000000000              -0.385312500               0.000000000               0.000000000              -0.408250000               0.000000000               0.000000000              -0.431187500               0.000000000               0.000000000              -0.454125000               0.000000000               0.000000000              -0.477062500               0.000000000               0.000000000              -0.500000000               0.000000000               0.000000000              -0.132359569              -0.013036280               0.000000000              -0.155337096              -0.016127762               0.000000000              -0.178314623              -0.019219245               0.000000000              -0.201292150              -0.022310727               0.000000000              -0.224269676              -0.025402210               0.000000000              -0.247247203              -0.028493692               0.000000000              -0.270224730              -0.031585175               0.000000000              -0.293202257              -0.034676657               0.000000000              -0.316179784              -0.037768140               0.000000000              -0.339157311              -0.040859622               0.000000000              -0.362134838              -0.043951105               0.000000000              -0.385112365              -0.047042587               0.000000000              -0.408089892              -0.050134070               0.000000000              -0.431067419              -0.053225552               0.000000000              -0.454044946              -0.056317035               0.000000000              -0.477022473              -0.059408517               0.000000000              -0.500000000              -0.062500000               0.000000000              -0.130444442              -0.025947013               0.000000000              -0.153541665              -0.032137825               0.000000000              -0.176638887              -0.038328636               0.000000000              -0.199736109              -0.044519448               0.000000000              -0.222833332              -0.050710260               0.000000000              -0.245930554              -0.056901071               0.000000000              -0.269027776              -0.063091883               0.000000000              -0.292124999              -0.069282695               0.000000000              -0.315222221              -0.075473506               0.000000000              -0.338319444              -0.081664318               0.000000000              -0.361416666              -0.087855130               0.000000000              -0.384513888              -0.094045942               0.000000000              -0.407611111              -0.100236753               0.000000000              -0.430708333              -0.106427565               0.000000000              -0.453805555              -0.112618377               0.000000000              -0.476902778              -0.118809188               0.000000000              -0.500000000              -0.125000000               0.000000000              -0.127273065              -0.038607862               0.000000000              -0.150568498              -0.047913621               0.000000000              -0.173863932              -0.057219379               0.000000000              -0.197159365              -0.066525138               0.000000000              -0.220454798              -0.075830897               0.000000000              -0.243750232              -0.085136655               0.000000000              -0.267045665              -0.094442414               0.000000000              -0.290341099              -0.103748172               0.000000000              -0.313636532              -0.113053931               0.000000000              -0.336931966              -0.122359690               0.000000000              -0.360227399              -0.131665448               0.000000000              -0.383522833              -0.140971207               0.000000000              -0.406818266              -0.150276966               0.000000000              -0.430113700              -0.159582724               0.000000000              -0.453409133              -0.168888483               0.000000000              -0.476704567              -0.178194241               0.000000000              -0.500000000              -0.187500000               0.000000000              -0.122875978              -0.050896897               0.000000000              -0.146446229              -0.063340840               0.000000000              -0.170016481              -0.075784784               0.000000000              -0.193586732              -0.088228728               0.000000000              -0.217156983              -0.100672672               0.000000000              -0.240727235              -0.113116616               0.000000000              -0.264297486              -0.125560560               0.000000000              -0.287867738              -0.138004504               0.000000000              -0.311437989              -0.150448448               0.000000000              -0.335008240              -0.162892392               0.000000000              -0.358578492              -0.175336336               0.000000000              -0.382148743              -0.187780280               0.000000000              -0.405718994              -0.200224224               0.000000000              -0.429289246              -0.212668168               0.000000000              -0.452859497              -0.225112112               0.000000000              -0.476429749              -0.237556056               0.000000000              -0.500000000              -0.250000000               0.000000000              -0.117295528              -0.062695766               0.000000000              -0.141214558              -0.078308531               0.000000000              -0.165133587              -0.093921295               0.000000000              -0.189052617              -0.109534060               0.000000000              -0.212971646              -0.125146824               0.000000000              -0.236890676              -0.140759589               0.000000000              -0.260809705              -0.156372354               0.000000000              -0.284728735              -0.171985118               0.000000000              -0.308647764              -0.187597883               0.000000000              -0.332566794              -0.203210648               0.000000000              -0.356485823              -0.218823412               0.000000000              -0.380404853              -0.234436177               0.000000000              -0.404323882              -0.250048941               0.000000000              -0.428242912              -0.265661706               0.000000000              -0.452161941              -0.281274471               0.000000000              -0.476080971              -0.296887235               0.000000000              -0.500000000              -0.312500000               0.000000000              -0.110585458              -0.073890841               0.000000000              -0.134923867              -0.092710163               0.000000000              -0.159262276              -0.111529486               0.000000000              -0.183600685              -0.130348808               0.000000000              -0.207939094              -0.149168131               0.000000000              -0.232277503              -0.167987453               0.000000000              -0.256615912              -0.186806776               0.000000000              -0.280954320              -0.205626098               0.000000000              -0.305292729              -0.224445420               0.000000000              -0.329631138              -0.243264743               0.000000000              -0.353969547              -0.262084065               0.000000000              -0.378307956              -0.280903388               0.000000000              -0.402646365              -0.299722710               0.000000000              -0.426984773              -0.318542033               0.000000000              -0.451323182              -0.337361355               0.000000000              -0.475661591              -0.356180678               0.000000000              -0.500000000              -0.375000000               0.000000000              -0.102810390              -0.084374307               0.000000000              -0.127634741              -0.106444663               0.000000000              -0.152459092              -0.128515018               0.000000000              -0.177283442              -0.150585374               0.000000000              -0.202107793              -0.172655730               0.000000000              -0.226932143              -0.194726086               0.000000000              -0.251756494              -0.216796442               0.000000000              -0.276580845              -0.238866798               0.000000000              -0.301405195              -0.260937153               0.000000000              -0.326229546              -0.283007509               0.000000000              -0.351053896              -0.305077865               0.000000000              -0.375878247              -0.327148221               0.000000000              -0.400702598              -0.349218577               0.000000000              -0.425526948              -0.371288933               0.000000000              -0.450351299              -0.393359288               0.000000000              -0.475175649              -0.415429644               0.000000000              -0.500000000              -0.437500000               0.000000000              -0.094045202              -0.094045202               0.000000000              -0.119417377              -0.119417377               0.000000000              -0.144789552              -0.144789552               0.000000000              -0.170161727              -0.170161727               0.000000000              -0.195533901              -0.195533901               0.000000000              -0.220906076              -0.220906076               0.000000000              -0.246278251              -0.246278251               0.000000000              -0.271650426              -0.271650426               0.000000000              -0.297022601              -0.297022601               0.000000000              -0.322394776              -0.322394776               0.000000000              -0.347766951              -0.347766951               0.000000000              -0.373139126              -0.373139126               0.000000000              -0.398511300              -0.398511300               0.000000000              -0.423883475              -0.423883475               0.000000000              -0.449255650              -0.449255650               0.000000000              -0.474627825              -0.474627825               0.000000000              -0.500000000              -0.500000000               0.000000000              -0.084374307              -0.102810390               0.000000000              -0.106444663              -0.127634741               0.000000000              -0.128515018              -0.152459092               0.000000000              -0.150585374              -0.177283442               0.000000000              -0.172655730              -0.202107793               0.000000000              -0.194726086              -0.226932143               0.000000000              -0.216796442              -0.251756494               0.000000000              -0.238866798              -0.276580845               0.000000000              -0.260937153              -0.301405195               0.000000000              -0.283007509              -0.326229546               0.000000000              -0.305077865              -0.351053896               0.000000000              -0.327148221              -0.375878247               0.000000000              -0.349218577              -0.400702598               0.000000000              -0.371288933              -0.425526948               0.000000000              -0.393359288              -0.450351299               0.000000000              -0.415429644              -0.475175649               0.000000000              -0.437500000              -0.500000000               0.000000000              -0.073890841              -0.110585458               0.000000000              -0.092710163              -0.134923867               0.000000000              -0.111529486              -0.159262276               0.000000000              -0.130348808              -0.183600685               0.000000000              -0.149168131              -0.207939094               0.000000000              -0.167987453              -0.232277503               0.000000000              -0.186806776              -0.256615912               0.000000000              -0.205626098              -0.280954320               0.000000000              -0.224445420              -0.305292729               0.000000000              -0.243264743              -0.329631138               0.000000000              -0.262084065              -0.353969547               0.000000000              -0.280903388              -0.378307956               0.000000000              -0.299722710              -0.402646365               0.000000000              -0.318542033              -0.426984773               0.000000000              -0.337361355              -0.451323182               0.000000000              -0.356180678              -0.475661591               0.000000000              -0.375000000              -0.500000000               0.000000000              -0.062695766              -0.117295528               0.000000000              -0.078308531              -0.141214558               0.000000000              -0.093921295              -0.165133587               0.000000000              -0.109534060              -0.189052617               0.000000000              -0.125146824              -0.212971646               0.000000000              -0.140759589              -0.236890676               0.000000000              -0.156372354              -0.260809705               0.000000000              -0.171985118              -0.284728735               0.000000000              -0.187597883              -0.308647764               0.000000000              -0.203210648              -0.332566794               0.000000000              -0.218823412              -0.356485823               0.000000000              -0.234436177              -0.380404853               0.000000000              -0.250048941              -0.404323882               0.000000000              -0.265661706              -0.428242912               0.000000000              -0.281274471              -0.452161941               0.000000000              -0.296887235              -0.476080971               0.000000000              -0.312500000              -0.500000000               0.000000000              -0.050896897              -0.122875978               0.000000000              -0.063340840              -0.146446229               0.000000000              -0.075784784              -0.170016481               0.000000000              -0.088228728              -0.193586732               0.000000000              -0.100672672              -0.217156983               0.000000000              -0.113116616              -0.240727235               0.000000000              -0.125560560              -0.264297486               0.000000000              -0.138004504              -0.287867738               0.000000000              -0.150448448              -0.311437989               0.000000000              -0.162892392              -0.335008240               0.000000000              -0.175336336              -0.358578492               0.000000000              -0.187780280              -0.382148743               0.000000000              -0.200224224              -0.405718994               0.000000000              -0.212668168              -0.429289246               0.000000000              -0.225112112              -0.452859497               0.000000000              -0.237556056              -0.476429749               0.000000000              -0.250000000              -0.500000000               0.000000000              -0.038607862              -0.127273065               0.000000000              -0.047913621              -0.150568498               0.000000000              -0.057219379              -0.173863932               0.000000000              -0.066525138              -0.197159365               0.000000000              -0.075830897              -0.220454798               0.000000000              -0.085136655              -0.243750232               0.000000000              -0.094442414              -0.267045665               0.000000000              -0.103748172              -0.290341099               0.000000000              -0.113053931              -0.313636532               0.000000000              -0.122359690              -0.336931966               0.000000000              -0.131665448              -0.360227399               0.000000000              -0.140971207              -0.383522833               0.000000000              -0.150276966              -0.406818266               0.000000000              -0.159582724              -0.430113700               0.000000000              -0.168888483              -0.453409133               0.000000000              -0.178194241              -0.476704567               0.000000000              -0.187500000              -0.500000000               0.000000000              -0.025947013              -0.130444442               0.000000000              -0.032137825              -0.153541665               0.000000000              -0.038328636              -0.176638887               0.000000000              -0.044519448              -0.199736109               0.000000000              -0.050710260              -0.222833332               0.000000000              -0.056901071              -0.245930554               0.000000000              -0.063091883              -0.269027776               0.000000000              -0.069282695              -0.292124999               0.000000000              -0.075473506              -0.315222221               0.000000000              -0.081664318              -0.338319444               0.000000000              -0.087855130              -0.361416666               0.000000000              -0.094045942              -0.384513888               0.000000000              -0.100236753              -0.407611111               0.000000000              -0.106427565              -0.430708333               0.000000000              -0.112618377              -0.453805555               0.000000000              -0.118809188              -0.476902778               0.000000000              -0.125000000              -0.500000000               0.000000000              -0.013036280              -0.132359569               0.000000000              -0.016127762              -0.155337096               0.000000000              -0.019219245              -0.178314623               0.000000000              -0.022310727              -0.201292150               0.000000000              -0.025402210              -0.224269676               0.000000000              -0.028493692              -0.247247203               0.000000000              -0.031585175              -0.270224730               0.000000000              -0.034676657              -0.293202257               0.000000000              -0.037768140              -0.316179784               0.000000000              -0.040859622              -0.339157311               0.000000000              -0.043951105              -0.362134838               0.000000000              -0.047042587              -0.385112365               0.000000000              -0.050134070              -0.408089892               0.000000000              -0.053225552              -0.431067419               0.000000000              -0.056317035              -0.454044946               0.000000000              -0.059408517              -0.477022473               0.000000000              -0.062500000              -0.500000000               0.000000000               0.000000000              -0.133000000               0.000000000               0.000000000              -0.155937500               0.000000000               0.000000000              -0.178875000               0.000000000               0.000000000              -0.201812500               0.000000000               0.000000000              -0.224750000               0.000000000               0.000000000              -0.247687500               0.000000000               0.000000000              -0.270625000               0.000000000               0.000000000              -0.293562500               0.000000000               0.000000000              -0.316500000               0.000000000               0.000000000              -0.339437500               0.000000000               0.000000000              -0.362375000               0.000000000               0.000000000              -0.385312500               0.000000000               0.000000000              -0.408250000               0.000000000               0.000000000              -0.431187500               0.000000000               0.000000000              -0.454125000               0.000000000               0.000000000              -0.477062500               0.000000000               0.000000000              -0.500000000               0.000000000              -0.133000000               0.000000000               0.000000000              -0.155937500               0.000000000               0.000000000              -0.178875000               0.000000000               0.000000000              -0.201812500               0.000000000               0.000000000              -0.224750000               0.000000000               0.000000000              -0.247687500               0.000000000               0.000000000              -0.270625000               0.000000000               0.000000000              -0.293562500               0.000000000               0.000000000              -0.316500000               0.000000000               0.000000000              -0.339437500               0.000000000               0.000000000              -0.362375000               0.000000000               0.000000000              -0.385312500               0.000000000               0.000000000              -0.408250000               0.000000000               0.000000000              -0.431187500               0.000000000               0.000000000              -0.454125000               0.000000000               0.000000000              -0.477062500               0.000000000               0.000000000              -0.500000000               0.000000000               0.000000000              -0.132359569               0.013036280               0.000000000              -0.155337096               0.016127762               0.000000000              -0.178314623               0.019219245               0.000000000              -0.201292150               0.022310727               0.000000000              -0.224269676               0.025402210               0.000000000              -0.247247203               0.028493692               0.000000000              -0.270224730               0.031585175               0.000000000              -0.293202257               0.034676657               0.000000000              -0.316179784               0.037768140               0.000000000              -0.339157311               0.040859622               0.000000000              -0.362134838               0.043951105               0.000000000              -0.385112365               0.047042587               0.000000000              -0.408089892               0.050134070               0.000000000              -0.431067419               0.053225552               0.000000000              -0.454044946               0.056317035               0.000000000              -0.477022473               0.059408517               0.000000000              -0.500000000               0.062500000               0.000000000              -0.130444442               0.025947013               0.000000000              -0.153541665               0.032137825               0.000000000              -0.176638887               0.038328636               0.000000000              -0.199736109               0.044519448               0.000000000              -0.222833332               0.050710260               0.000000000              -0.245930554               0.056901071               0.000000000              -0.269027776               0.063091883               0.000000000              -0.292124999               0.069282695               0.000000000              -0.315222221               0.075473506               0.000000000              -0.338319444               0.081664318               0.000000000              -0.361416666               0.087855130               0.000000000              -0.384513888               0.094045942               0.000000000              -0.407611111               0.100236753               0.000000000              -0.430708333               0.106427565               0.000000000              -0.453805555               0.112618377               0.000000000              -0.476902778               0.118809188               0.000000000              -0.500000000               0.125000000               0.000000000              -0.127273065               0.038607862               0.000000000              -0.150568498               0.047913621               0.000000000              -0.173863932               0.057219379               0.000000000              -0.197159365               0.066525138               0.000000000              -0.220454798               0.075830897               0.000000000              -0.243750232               0.085136655               0.000000000              -0.267045665               0.094442414               0.000000000              -0.290341099               0.103748172               0.000000000              -0.313636532               0.113053931               0.000000000              -0.336931966               0.122359690               0.000000000              -0.360227399               0.131665448               0.000000000              -0.383522833               0.140971207               0.000000000              -0.406818266               0.150276966               0.000000000              -0.430113700               0.159582724               0.000000000              -0.453409133               0.168888483               0.000000000              -0.476704567               0.178194241               0.000000000              -0.500000000               0.187500000               0.000000000              -0.122875978               0.050896897               0.000000000              -0.146446229               0.063340840               0.000000000              -0.170016481               0.075784784               0.000000000              -0.193586732               0.088228728               0.000000000              -0.217156983               0.100672672               0.000000000              -0.240727235               0.113116616               0.000000000              -0.264297486               0.125560560               0.000000000              -0.287867738               0.138004504               0.000000000              -0.311437989               0.150448448               0.000000000              -0.335008240               0.162892392               0.000000000              -0.358578492               0.175336336               0.000000000              -0.382148743               0.187780280               0.000000000              -0.405718994               0.200224224               0.000000000              -0.429289246               0.212668168               0.000000000              -0.452859497               0.225112112               0.000000000              -0.476429749               0.237556056               0.000000000              -0.500000000               0.250000000               0.000000000              -0.117295528               0.062695766               0.000000000              -0.141214558               0.078308531               0.000000000              -0.165133587               0.093921295               0.000000000              -0.189052617               0.109534060               0.000000000              -0.212971646               0.125146824               0.000000000              -0.236890676               0.140759589               0.000000000              -0.260809705               0.156372354               0.000000000              -0.284728735               0.171985118               0.000000000              -0.308647764               0.187597883               0.000000000              -0.332566794               0.203210648               0.000000000              -0.356485823               0.218823412               0.000000000              -0.380404853               0.234436177               0.000000000              -0.404323882               0.250048941               0.000000000              -0.428242912               0.265661706               0.000000000              -0.452161941               0.281274471               0.000000000              -0.476080971               0.296887235               0.000000000              -0.500000000               0.312500000               0.000000000              -0.110585458               0.073890841               0.000000000              -0.134923867               0.092710163               0.000000000              -0.159262276               0.111529486               0.000000000              -0.183600685               0.130348808               0.000000000              -0.207939094               0.149168131               0.000000000              -0.232277503               0.167987453               0.000000000              -0.256615912               0.186806776               0.000000000              -0.280954320               0.205626098               0.000000000              -0.305292729               0.224445420               0.000000000              -0.329631138               0.243264743               0.000000000              -0.353969547               0.262084065               0.000000000              -0.378307956               0.280903388               0.000000000              -0.402646365               0.299722710               0.000000000              -0.426984773               0.318542033               0.000000000              -0.451323182               0.337361355               0.000000000              -0.475661591               0.356180678               0.000000000              -0.500000000               0.375000000               0.000000000              -0.102810390               0.084374307               0.000000000              -0.127634741               0.106444663               0.000000000              -0.152459092               0.128515018               0.000000000              -0.177283442               0.150585374               0.000000000              -0.202107793               0.172655730               0.000000000              -0.226932143               0.194726086               0.000000000              -0.251756494               0.216796442               0.000000000              -0.276580845               0.238866798               0.000000000              -0.301405195               0.260937153               0.000000000              -0.326229546               0.283007509               0.000000000              -0.351053896               0.305077865               0.000000000              -0.375878247               0.327148221               0.000000000              -0.400702598               0.349218577               0.000000000              -0.425526948               0.371288933               0.000000000              -0.450351299               0.393359288               0.000000000              -0.475175649               0.415429644               0.000000000              -0.500000000               0.437500000               0.000000000              -0.094045202               0.094045202               0.000000000              -0.119417377               0.119417377               0.000000000              -0.144789552               0.144789552               0.000000000              -0.170161727               0.170161727               0.000000000              -0.195533901               0.195533901               0.000000000              -0.220906076               0.220906076               0.000000000              -0.246278251               0.246278251               0.000000000              -0.271650426               0.271650426               0.000000000              -0.297022601               0.297022601               0.000000000              -0.322394776               0.322394776               0.000000000              -0.347766951               0.347766951               0.000000000              -0.373139126               0.373139126               0.000000000              -0.398511300               0.398511300               0.000000000              -0.423883475               0.423883475               0.000000000              -0.449255650               0.449255650               0.000000000              -0.474627825               0.474627825               0.000000000              -0.500000000               0.500000000               0.000000000              -0.084374307               0.102810390               0.000000000              -0.106444663               0.127634741               0.000000000              -0.128515018               0.152459092               0.000000000              -0.150585374               0.177283442               0.000000000              -0.172655730               0.202107793               0.000000000              -0.194726086               0.226932143               0.000000000              -0.216796442               0.251756494               0.000000000              -0.238866798               0.276580845               0.000000000              -0.260937153               0.301405195               0.000000000              -0.283007509               0.326229546               0.000000000              -0.305077865               0.351053896               0.000000000              -0.327148221               0.375878247               0.000000000              -0.349218577               0.400702598               0.000000000              -0.371288933               0.425526948               0.000000000              -0.393359288               0.450351299               0.000000000              -0.415429644               0.475175649               0.000000000              -0.437500000               0.500000000               0.000000000              -0.073890841               0.110585458               0.000000000              -0.092710163               0.134923867               0.000000000              -0.111529486               0.159262276               0.000000000              -0.130348808               0.183600685               0.000000000              -0.149168131               0.207939094               0.000000000              -0.167987453               0.232277503               0.000000000              -0.186806776               0.256615912               0.000000000              -0.205626098               0.280954320               0.000000000              -0.224445420               0.305292729               0.000000000              -0.243264743               0.329631138               0.000000000              -0.262084065               0.353969547               0.000000000              -0.280903388               0.378307956               0.000000000              -0.299722710               0.402646365               0.000000000              -0.318542033               0.426984773               0.000000000              -0.337361355               0.451323182               0.000000000              -0.356180678               0.475661591               0.000000000              -0.375000000               0.500000000               0.000000000              -0.062695766               0.117295528               0.000000000              -0.078308531               0.141214558               0.000000000              -0.093921295               0.165133587               0.000000000              -0.109534060               0.189052617               0.000000000              -0.125146824               0.212971646               0.000000000              -0.140759589               0.236890676               0.000000000              -0.156372354               0.260809705               0.000000000              -0.171985118               0.284728735               0.000000000              -0.187597883               0.308647764               0.000000000              -0.203210648               0.332566794               0.000000000              -0.218823412               0.356485823               0.000000000              -0.234436177               0.380404853               0.000000000              -0.250048941               0.404323882               0.000000000              -0.265661706               0.428242912               0.000000000              -0.281274471               0.452161941               0.000000000              -0.296887235               0.476080971               0.000000000              -0.312500000               0.500000000               0.000000000              -0.050896897               0.122875978               0.000000000              -0.063340840               0.146446229               0.000000000              -0.075784784               0.170016481               0.000000000              -0.088228728               0.193586732               0.000000000              -0.100672672               0.217156983               0.000000000              -0.113116616               0.240727235               0.000000000              -0.125560560               0.264297486               0.000000000              -0.138004504               0.287867738               0.000000000              -0.150448448               0.311437989               0.000000000              -0.162892392               0.335008240               0.000000000              -0.175336336               0.358578492               0.000000000              -0.187780280               0.382148743               0.000000000              -0.200224224               0.405718994               0.000000000              -0.212668168               0.429289246               0.000000000              -0.225112112               0.452859497               0.000000000              -0.237556056               0.476429749               0.000000000              -0.250000000               0.500000000               0.000000000              -0.038607862               0.127273065               0.000000000              -0.047913621               0.150568498               0.000000000              -0.057219379               0.173863932               0.000000000              -0.066525138               0.197159365               0.000000000              -0.075830897               0.220454798               0.000000000              -0.085136655               0.243750232               0.000000000              -0.094442414               0.267045665               0.000000000              -0.103748172               0.290341099               0.000000000              -0.113053931               0.313636532               0.000000000              -0.122359690               0.336931966               0.000000000              -0.131665448               0.360227399               0.000000000              -0.140971207               0.383522833               0.000000000              -0.150276966               0.406818266               0.000000000              -0.159582724               0.430113700               0.000000000              -0.168888483               0.453409133               0.000000000              -0.178194241               0.476704567               0.000000000              -0.187500000               0.500000000               0.000000000              -0.025947013               0.130444442               0.000000000              -0.032137825               0.153541665               0.000000000              -0.038328636               0.176638887               0.000000000              -0.044519448               0.199736109               0.000000000              -0.050710260               0.222833332               0.000000000              -0.056901071               0.245930554               0.000000000              -0.063091883               0.269027776               0.000000000              -0.069282695               0.292124999               0.000000000              -0.075473506               0.315222221               0.000000000              -0.081664318               0.338319444               0.000000000              -0.087855130               0.361416666               0.000000000              -0.094045942               0.384513888               0.000000000              -0.100236753               0.407611111               0.000000000              -0.106427565               0.430708333               0.000000000              -0.112618377               0.453805555               0.000000000              -0.118809188               0.476902778               0.000000000              -0.125000000               0.500000000               0.000000000              -0.013036280               0.132359569               0.000000000              -0.016127762               0.155337096               0.000000000              -0.019219245               0.178314623               0.000000000              -0.022310727               0.201292150               0.000000000              -0.025402210               0.224269676               0.000000000              -0.028493692               0.247247203               0.000000000              -0.031585175               0.270224730               0.000000000              -0.034676657               0.293202257               0.000000000              -0.037768140               0.316179784               0.000000000              -0.040859622               0.339157311               0.000000000              -0.043951105               0.362134838               0.000000000              -0.047042587               0.385112365               0.000000000              -0.050134070               0.408089892               0.000000000              -0.053225552               0.431067419               0.000000000              -0.056317035               0.454044946               0.000000000              -0.059408517               0.477022473               0.000000000              -0.062500000               0.500000000               0.000000000               0.000000000               0.133000000               0.000000000               0.000000000               0.155937500               0.000000000               0.000000000               0.178875000               0.000000000               0.000000000               0.201812500               0.000000000               0.000000000               0.224750000               0.000000000               0.000000000               0.247687500               0.000000000               0.000000000               0.270625000               0.000000000               0.000000000               0.293562500               0.000000000               0.000000000               0.316500000               0.000000000               0.000000000               0.339437500               0.000000000               0.000000000               0.362375000               0.000000000               0.000000000               0.385312500               0.000000000               0.000000000               0.408250000               0.000000000               0.000000000               0.431187500               0.000000000               0.000000000               0.454125000               0.000000000               0.000000000               0.477062500               0.000000000               0.000000000               0.500000000               0.000000000 </DataArray>
</Points>
<Cells>
<DataArray type="Int32"                                    Name="connectivity"                                                      NumberOfComponents=" 1" format="ascii">
         0          1         18         17          1          2         19         18          2          3         20         19          3          4         21         20          4          5         22         21          5          6         23         22          6          7         24         23          7          8         25         24          8          9         26         25          9         10         27         26         10         11         28         27         11         12         29         28         12         13         30         29         13         14         31         30         14         15         32         31         15         16         33         32         17         18         35         34         18         19         36         35         19         20         37         36         20         21         38         37         21         22         39         38         22         23         40         39         23         24         41         40         24         25         42         41         25         26         43         42         26         27         44         43         27         28         45         44         28         29         46         45         29         30         47         46         30         31         48         47         31         32         49         48         32         33         50         49         34         35         52         51         35         36         53         52         36         37         54         53         37         38         55         54         38         39         56         55         39         40         57         56         40         41         58         57         41         42         59         58         42         43         60         59         43         44         61         60         44         45         62         61         45         46         63         62         46         47         64         63         47         48         65         64         48         49         66         65         49         50         67         66         51         52         69         68         52         53         70         69         53         54         71         70         54         55         72         71         55         56         73         72         56         57         74         73         57         58         75         74         58         59         76         75         59         60         77         76         60         61         78         77         61         62         79         78         62         63         80         79         63         64         81         80         64         65         82         81         65         66         83         82         66         67         84         83         68         69         86         85         69         70         87         86         70         71         88         87         71         72         89         88         72         73         90         89         73         74         91         90         74         75         92         91         75         76         93         92         76         77         94         93         77         78         95         94         78         79         96         95         79         80         97         96         80         81         98         97         81         82         99         98         82         83        100         99         83         84        101        100         85         86        103        102         86         87        104        103         87         88        105        104         88         89        106        105         89         90        107        106         90         91        108        107         91         92        109        108         92         93        110        109         93         94        111        110         94         95        112        111         95         96        113        112         96         97        114        113         97         98        115        114         98         99        116        115         99        100        117        116        100        101        118        117        102        103        120        119        103        104        121        120        104        105        122        121        105        106        123        122        106        107        124        123        107        108        125        124        108        109        126        125        109        110        127        126        110        111        128        127        111        112        129        128        112        113        130        129        113        114        131        130        114        115        132        131        115        116        133        132        116        117        134        133        117        118        135        134        119        120        137        136        120        121        138        137        121        122        139        138        122        123        140        139        123        124        141        140        124        125        142        141        125        126        143        142        126        127        144        143        127        128        145        144        128        129        146        145        129        130        147        146        130        131        148        147        131        132        149        148        132        133        150        149        133        134        151        150        134        135        152        151        136        137        154        153        137        138        155        154        138        139        156        155        139        140        157        156        140        141        158        157        141        142        159        158        142        143        160        159        143        144        161        160        144        145        162        161        145        146        163        162        146        147        164        163        147        148        165        164        148        149        166        165        149        150        167        166        150        151        168        167        151        152        169        168        153        154        171        170        154        155        172        171        155        156        173        172        156        157        174        173        157        158        175        174        158        159        176        175        159        160        177        176        160        161        178        177        161        162        179        178        162        163        180        179        163        164        181        180        164        165        182        181        165        166        183        182        166        167        184        183        167        168        185        184        168        169        186        185        170        171        188        187        171        172        189        188        172        173        190        189        173        174        191        190        174        175        192        191        175        176        193        192        176        177        194        193        177        178        195        194        178        179        196        195        179        180        197        196        180        181        198        197        181        182        199        198        182        183        200        199        183        184        201        200        184        185        202        201        185        186        203        202        187        188        205        204        188        189        206        205        189        190        207        206        190        191        208        207        191        192        209        208        192        193        210        209        193        194        211        210        194        195        212        211        195        196        213        212        196        197        214        213        197        198        215        214        198        199        216        215        199        200        217        216        200        201        218        217        201        202        219        218        202        203        220        219        204        205        222        221        205        206        223        222        206        207        224        223        207        208        225        224        208        209        226        225        209        210        227        226        210        211        228        227        211        212        229        228        212        213        230        229        213        214        231        230        214        215        232        231        215        216        233        232        216        217        234        233        217        218        235        234        218        219        236        235        219        220        237        236        221        222        239        238        222        223        240        239        223        224        241        240        224        225        242        241        225        226        243        242        226        227        244        243        227        228        245        244        228        229        246        245        229        230        247        246        230        231        248        247        231        232        249        248        232        233        250        249        233        234        251        250        234        235        252        251        235        236        253        252        236        237        254        253        238        239        256        255        239        240        257        256        240        241        258        257        241        242        259        258        242        243        260        259        243        244        261        260        244        245        262        261        245        246        263        262        246        247        264        263        247        248        265        264        248        249        266        265        249        250        267        266        250        251        268        267        251        252        269        268        252        253        270        269        253        254        271        270        255        256        273        272        256        257        274        273        257        258        275        274        258        259        276        275        259        260        277        276        260        261        278        277        261        262        279        278        262        263        280        279        263        264        281        280        264        265        282        281        265        266        283        282        266        267        284        283        267        268        285        284        268        269        286        285        269        270        287        286        270        271        288        287        306        307          1          0        307        308          2          1        308        309          3          2        309        310          4          3        310        311          5          4        311        312          6          5        312        313          7          6        313        314          8          7        314        315          9          8        315        316         10          9        316        317         11         10        317        318         12         11        318        319         13         12        319        320         14         13        320        321         15         14        321        322         16         15        323        324        307        306        324        325        308        307        325        326        309        308        326        327        310        309        327        328        311        310        328        329        312        311        329        330        313        312        330        331        314        313        331        332        315        314        332        333        316        315        333        334        317        316        334        335        318        317        335        336        319        318        336        337        320        319        337        338        321        320        338        339        322        321        340        341        324        323        341        342        325        324        342        343        326        325        343        344        327        326        344        345        328        327        345        346        329        328        346        347        330        329        347        348        331        330        348        349        332        331        349        350        333        332        350        351        334        333        351        352        335        334        352        353        336        335        353        354        337        336        354        355        338        337        355        356        339        338        357        358        341        340        358        359        342        341        359        360        343        342        360        361        344        343        361        362        345        344        362        363        346        345        363        364        347        346        364        365        348        347        365        366        349        348        366        367        350        349        367        368        351        350        368        369        352        351        369        370        353        352        370        371        354        353        371        372        355        354        372        373        356        355        374        375        358        357        375        376        359        358        376        377        360        359        377        378        361        360        378        379        362        361        379        380        363        362        380        381        364        363        381        382        365        364        382        383        366        365        383        384        367        366        384        385        368        367        385        386        369        368        386        387        370        369        387        388        371        370        388        389        372        371        389        390        373        372        391        392        375        374        392        393        376        375        393        394        377        376        394        395        378        377        395        396        379        378        396        397        380        379        397        398        381        380        398        399        382        381        399        400        383        382        400        401        384        383        401        402        385        384        402        403        386        385        403        404        387        386        404        405        388        387        405        406        389        388        406        407        390        389        408        409        392        391        409        410        393        392        410        411        394        393        411        412        395        394        412        413        396        395        413        414        397        396        414        415        398        397        415        416        399        398        416        417        400        399        417        418        401        400        418        419        402        401        419        420        403        402        420        421        404        403        421        422        405        404        422        423        406        405        423        424        407        406        425        426        409        408        426        427        410        409        427        428        411        410        428        429        412        411        429        430        413        412        430        431        414        413        431        432        415        414        432        433        416        415        433        434        417        416        434        435        418        417        435        436        419        418        436        437        420        419        437        438        421        420        438        439        422        421        439        440        423        422        440        441        424        423        442        443        426        425        443        444        427        426        444        445        428        427        445        446        429        428        446        447        430        429        447        448        431        430        448        449        432        431        449        450        433        432        450        451        434        433        451        452        435        434        452        453        436        435        453        454        437        436        454        455        438        437        455        456        439        438        456        457        440        439        457        458        441        440        459        460        443        442        460        461        444        443        461        462        445        444        462        463        446        445        463        464        447        446        464        465        448        447        465        466        449        448        466        467        450        449        467        468        451        450        468        469        452        451        469        470        453        452        470        471        454        453        471        472        455        454        472        473        456        455        473        474        457        456        474        475        458        457        476        477        460        459        477        478        461        460        478        479        462        461        479        480        463        462        480        481        464        463        481        482        465        464        482        483        466        465        483        484        467        466        484        485        468        467        485        486        469        468        486        487        470        469        487        488        471        470        488        489        472        471        489        490        473        472        490        491        474        473        491        492        475        474        493        494        477        476        494        495        478        477        495        496        479        478        496        497        480        479        497        498        481        480        498        499        482        481        499        500        483        482        500        501        484        483        501        502        485        484        502        503        486        485        503        504        487        486        504        505        488        487        505        506        489        488        506        507        490        489        507        508        491        490        508        509        492        491        510        511        494        493        511        512        495        494        512        513        496        495        513        514        497        496        514        515        498        497        515        516        499        498        516        517        500        499        517        518        501        500        518        519        502        501        519        520        503        502        520        521        504        503        521        522        505        504        522        523        506        505        523        524        507        506        524        525        508        507        525        526        509        508        527        528        511        510        528        529        512        511        529        530        513        512        530        531        514        513        531        532        515        514        532        533        516        515        533        534        517        516        534        535        518        517        535        536        519        518        536        537        520        519        537        538        521        520        538        539        522        521        539        540        523        522        540        541        524        523        541        542        525        524        542        543        526        525        544        545        528        527        545        546        529        528        546        547        530        529        547        548        531        530        548        549        532        531        549        550        533        532        550        551        534        533        551        552        535        534        552        553        536        535        553        554        537        536        554        555        538        537        555        556        539        538        556        557        540        539        557        558        541        540        558        559        542        541        559        560        543        542        561        562        545        544        562        563        546        545        563        564        547        546        564        565        548        547        565        566        549        548        566        567        550        549        567        568        551        550        568        569        552        551        569        570        553        552        570        571        554        553        571        572        555        554        572        573        556        555        573        574        557        556        574        575        558        557        575        576        559        558        576        577        560        559        578        579        596        595        579        580        597        596        580        581        598        597        581        582        599        598        582        583        600        599        583        584        601        600        584        585        602        601        585        586        603        602        586        587        604        603        587        588        605        604        588        589        606        605        589        590        607        606        590        591        608        607        591        592        609        608        592        593        610        609        593        594        611        610        595        596        613        612        596        597        614        613        597        598        615        614        598        599        616        615        599        600        617        616        600        601        618        617        601        602        619        618        602        603        620        619        603        604        621        620        604        605        622        621        605        606        623        622        606        607        624        623        607        608        625        624        608        609        626        625        609        610        627        626        610        611        628        627        612        613        630        629        613        614        631        630        614        615        632        631        615        616        633        632        616        617        634        633        617        618        635        634        618        619        636        635        619        620        637        636        620        621        638        637        621        622        639        638        622        623        640        639        623        624        641        640        624        625        642        641        625        626        643        642        626        627        644        643        627        628        645        644        629        630        647        646        630        631        648        647        631        632        649        648        632        633        650        649        633        634        651        650        634        635        652        651        635        636        653        652        636        637        654        653        637        638        655        654        638        639        656        655        639        640        657        656        640        641        658        657        641        642        659        658        642        643        660        659        643        644        661        660        644        645        662        661        646        647        664        663        647        648        665        664        648        649        666        665        649        650        667        666        650        651        668        667        651        652        669        668        652        653        670        669        653        654        671        670        654        655        672        671        655        656        673        672        656        657        674        673        657        658        675        674        658        659        676        675        659        660        677        676        660        661        678        677        661        662        679        678        663        664        681        680        664        665        682        681        665        666        683        682        666        667        684        683        667        668        685        684        668        669        686        685        669        670        687        686        670        671        688        687        671        672        689        688        672        673        690        689        673        674        691        690        674        675        692        691        675        676        693        692        676        677        694        693        677        678        695        694        678        679        696        695        680        681        698        697        681        682        699        698        682        683        700        699        683        684        701        700        684        685        702        701        685        686        703        702        686        687        704        703        687        688        705        704        688        689        706        705        689        690        707        706        690        691        708        707        691        692        709        708        692        693        710        709        693        694        711        710        694        695        712        711        695        696        713        712        697        698        715        714        698        699        716        715        699        700        717        716        700        701        718        717        701        702        719        718        702        703        720        719        703        704        721        720        704        705        722        721        705        706        723        722        706        707        724        723        707        708        725        724        708        709        726        725        709        710        727        726        710        711        728        727        711        712        729        728        712        713        730        729        714        715        732        731        715        716        733        732        716        717        734        733        717        718        735        734        718        719        736        735        719        720        737        736        720        721        738        737        721        722        739        738        722        723        740        739        723        724        741        740        724        725        742        741        725        726        743        742        726        727        744        743        727        728        745        744        728        729        746        745        729        730        747        746        731        732        749        748        732        733        750        749        733        734        751        750        734        735        752        751        735        736        753        752        736        737        754        753        737        738        755        754        738        739        756        755        739        740        757        756        740        741        758        757        741        742        759        758        742        743        760        759        743        744        761        760        744        745        762        761        745        746        763        762        746        747        764        763        748        749        766        765        749        750        767        766        750        751        768        767        751        752        769        768        752        753        770        769        753        754        771        770        754        755        772        771        755        756        773        772        756        757        774        773        757        758        775        774        758        759        776        775        759        760        777        776        760        761        778        777        761        762        779        778        762        763        780        779        763        764        781        780        765        766        783        782        766        767        784        783        767        768        785        784        768        769        786        785        769        770        787        786        770        771        788        787        771        772        789        788        772        773        790        789        773        774        791        790        774        775        792        791        775        776        793        792        776        777        794        793        777        778        795        794        778        779        796        795        779        780        797        796        780        781        798        797        782        783        800        799        783        784        801        800        784        785        802        801        785        786        803        802        786        787        804        803        787        788        805        804        788        789        806        805        789        790        807        806        790        791        808        807        791        792        809        808        792        793        810        809        793        794        811        810        794        795        812        811        795        796        813        812        796        797        814        813        797        798        815        814        799        800        817        816        800        801        818        817        801        802        819        818        802        803        820        819        803        804        821        820        804        805        822        821        805        806        823        822        806        807        824        823        807        808        825        824        808        809        826        825        809        810        827        826        810        811        828        827        811        812        829        828        812        813        830        829        813        814        831        830        814        815        832        831        816        817        834        833        817        818        835        834        818        819        836        835        819        820        837        836        820        821        838        837        821        822        839        838        822        823        840        839        823        824        841        840        824        825        842        841        825        826        843        842        826        827        844        843        827        828        845        844        828        829        846        845        829        830        847        846        830        831        848        847        831        832        849        848        833        834        562        561        834        835        563        562        835        836        564        563        836        837        565        564        837        838        566        565        838        839        567        566        839        840        568        567        840        841        569        568        841        842        570        569        842        843        571        570        843        844        572        571        844        845        573        572        845        846        574        573        846        847        575        574        847        848        576        575        848        849        577        576        884        885        579        578        885        886        580        579        886        887        581        580        887        888        582        581        888        889        583        582        889        890        584        583        890        891        585        584        891        892        586        585        892        893        587        586        893        894        588        587        894        895        589        588        895        896        590        589        896        897        591        590        897        898        592        591        898        899        593        592        899        900        594        593        901        902        885        884        902        903        886        885        903        904        887        886        904        905        888        887        905        906        889        888        906        907        890        889        907        908        891        890        908        909        892        891        909        910        893        892        910        911        894        893        911        912        895        894        912        913        896        895        913        914        897        896        914        915        898        897        915        916        899        898        916        917        900        899        918        919        902        901        919        920        903        902        920        921        904        903        921        922        905        904        922        923        906        905        923        924        907        906        924        925        908        907        925        926        909        908        926        927        910        909        927        928        911        910        928        929        912        911        929        930        913        912        930        931        914        913        931        932        915        914        932        933        916        915        933        934        917        916        935        936        919        918        936        937        920        919        937        938        921        920        938        939        922        921        939        940        923        922        940        941        924        923        941        942        925        924        942        943        926        925        943        944        927        926        944        945        928        927        945        946        929        928        946        947        930        929        947        948        931        930        948        949        932        931        949        950        933        932        950        951        934        933        952        953        936        935        953        954        937        936        954        955        938        937        955        956        939        938        956        957        940        939        957        958        941        940        958        959        942        941        959        960        943        942        960        961        944        943        961        962        945        944        962        963        946        945        963        964        947        946        964        965        948        947        965        966        949        948        966        967        950        949        967        968        951        950        969        970        953        952        970        971        954        953        971        972        955        954        972        973        956        955        973        974        957        956        974        975        958        957        975        976        959        958        976        977        960        959        977        978        961        960        978        979        962        961        979        980        963        962        980        981        964        963        981        982        965        964        982        983        966        965        983        984        967        966        984        985        968        967        986        987        970        969        987        988        971        970        988        989        972        971        989        990        973        972        990        991        974        973        991        992        975        974        992        993        976        975        993        994        977        976        994        995        978        977        995        996        979        978        996        997        980        979        997        998        981        980        998        999        982        981        999       1000        983        982       1000       1001        984        983       1001       1002        985        984       1003       1004        987        986       1004       1005        988        987       1005       1006        989        988       1006       1007        990        989       1007       1008        991        990       1008       1009        992        991       1009       1010        993        992       1010       1011        994        993       1011       1012        995        994       1012       1013        996        995       1013       1014        997        996       1014       1015        998        997       1015       1016        999        998       1016       1017       1000        999       1017       1018       1001       1000       1018       1019       1002       1001       1020       1021       1004       1003       1021       1022       1005       1004       1022       1023       1006       1005       1023       1024       1007       1006       1024       1025       1008       1007       1025       1026       1009       1008       1026       1027       1010       1009       1027       1028       1011       1010       1028       1029       1012       1011       1029       1030       1013       1012       1030       1031       1014       1013       1031       1032       1015       1014       1032       1033       1016       1015       1033       1034       1017       1016       1034       1035       1018       1017       1035       1036       1019       1018       1037       1038       1021       1020       1038       1039       1022       1021       1039       1040       1023       1022       1040       1041       1024       1023       1041       1042       1025       1024       1042       1043       1026       1025       1043       1044       1027       1026       1044       1045       1028       1027       1045       1046       1029       1028       1046       1047       1030       1029       1047       1048       1031       1030       1048       1049       1032       1031       1049       1050       1033       1032       1050       1051       1034       1033       1051       1052       1035       1034       1052       1053       1036       1035       1054       1055       1038       1037       1055       1056       1039       1038       1056       1057       1040       1039       1057       1058       1041       1040       1058       1059       1042       1041       1059       1060       1043       1042       1060       1061       1044       1043       1061       1062       1045       1044       1062       1063       1046       1045       1063       1064       1047       1046       1064       1065       1048       1047       1065       1066       1049       1048       1066       1067       1050       1049       1067       1068       1051       1050       1068       1069       1052       1051       1069       1070       1053       1052       1071       1072       1055       1054       1072       1073       1056       1055       1073       1074       1057       1056       1074       1075       1058       1057       1075       1076       1059       1058       1076       1077       1060       1059       1077       1078       1061       1060       1078       1079       1062       1061       1079       1080       1063       1062       1080       1081       1064       1063       1081       1082       1065       1064       1082       1083       1066       1065       1083       1084       1067       1066       1084       1085       1068       1067       1085       1086       1069       1068       1086       1087       1070       1069       1088       1089       1072       1071       1089       1090       1073       1072       1090       1091       1074       1073       1091       1092       1075       1074       1092       1093       1076       1075       1093       1094       1077       1076       1094       1095       1078       1077       1095       1096       1079       1078       1096       1097       1080       1079       1097       1098       1081       1080       1098       1099       1082       1081       1099       1100       1083       1082       1100       1101       1084       1083       1101       1102       1085       1084       1102       1103       1086       1085       1103       1104       1087       1086       1105       1106       1089       1088       1106       1107       1090       1089       1107       1108       1091       1090       1108       1109       1092       1091       1109       1110       1093       1092       1110       1111       1094       1093       1111       1112       1095       1094       1112       1113       1096       1095       1113       1114       1097       1096       1114       1115       1098       1097       1115       1116       1099       1098       1116       1117       1100       1099       1117       1118       1101       1100       1118       1119       1102       1101       1119       1120       1103       1102       1120       1121       1104       1103       1122       1123       1106       1105       1123       1124       1107       1106       1124       1125       1108       1107       1125       1126       1109       1108       1126       1127       1110       1109       1127       1128       1111       1110       1128       1129       1112       1111       1129       1130       1113       1112       1130       1131       1114       1113       1131       1132       1115       1114       1132       1133       1116       1115       1133       1134       1117       1116       1134       1135       1118       1117       1135       1136       1119       1118       1136       1137       1120       1119       1137       1138       1121       1120        272        273       1123       1122        273        274       1124       1123        274        275       1125       1124        275        276       1126       1125        276        277       1127       1126        277        278       1128       1127        278        279       1129       1128        279        280       1130       1129        280        281       1131       1130        281        282       1132       1131        282        283       1133       1132        283        284       1134       1133        284        285       1135       1134        285        286       1136       1135        286        287       1137       1136        287        288       1138       1137 </DataArray>
<DataArray type="Int32"                                    Name="offsets"                                                      NumberOfComponents=" 1" format="ascii">
         4          8         12         16         20         24         28         32         36         40         44         48         52         56         60         64         68         72         76         80         84         88         92         96        100        104        108        112        116        120        124        128        132        136        140        144        148        152        156        160        164        168        172        176        180        184        188        192        196        200        204        208        212        216        220        224        228        232        236        240        244        248        252        256        260        264        268        272        276        280        284        288        292        296        300        304        308        312        316        320        324        328        332        336        340        344        348        352        356        360        364        368        372        376        380        384        388        392        396        400        404        408        412        416        420        424        428        432        436        440        444        448        452        456        460        464        468        472        476        480        484        488        492        496        500        504        508        512        516        520        524        528        532        536        540        544        548        552        556        560        564        568        572        576        580        584        588        592        596        600        604        608        612        616        620        624        628        632        636        640        644        648        652        656        660        664        668        672        676        680        684        688        692        696        700        704        708        712        716        720        724        728        732        736        740        744        748        752        756        760        764        768        772        776        780        784        788        792        796        800        804        808        812        816        820        824        828        832        836        840        844        848        852        856        860        864        868        872        876        880        884        888        892        896        900        904        908        912        916        920        924        928        932        936        940        944        948        952        956        960        964        968        972        976        980        984        988        992        996       1000       1004       1008       1012       1016       1020       1024       1028       1032       1036       1040       1044       1048       1052       1056       1060       1064       1068       1072       1076       1080       1084       1088       1092       1096       1100       1104       1108       1112       1116       1120       1124       1128       1132       1136       1140       1144       1148       1152       1156       1160       1164       1168       1172       1176       1180       1184       1188       1192       1196       1200       1204       1208       1212       1216       1220       1224       1228       1232       1236       1240       1244       1248       1252       1256       1260       1264       1268       1272       1276       1280       1284       1288       1292       1296       1300       1304       1308       1312       1316       1320       1324       1328       1332       1336       1340       1344       1348       1352       1356       1360       1364       1368       1372       1376       1380       1384       1388       1392       1396       1400       1404       1408       1412       1416       1420       1424       1428       1432       1436       1440       1444       1448       1452       1456       1460       1464       1468       1472       1476       1480       1484       1488       1492       1496       1500       1504       1508       1512       1516       1520       1524       1528       1532       1536       1540       1544       1548       1552       1556       1560       1564       1568       1572       1576       1580       1584       1588       1592       1596       1600       1604       1608       1612       1616       1620       1624       1628       1632       1636       1640       1644       1648       1652       1656       1660       1664       1668       1672       1676       1680       1684       1688       1692       1696       1700       1704       1708       1712       1716       1720       1724       1728       1732       1736       1740       1744       1748       1752       1756       1760       1764       1768       1772       1776       1780       1784       1788       1792       1796       1800       1804       1808       1812       1816       1820       1824       1828       1832       1836       1840       1844       1848       1852       1856       1860       1864       1868       1872       1876       1880       1884       1888       1892       1896       1900       1904       1908       1912       1916       1920       1924       1928       1932       1936       1940       1944       1948       1952       1956       1960       1964       1968       1972       1976       1980       1984       1988       1992       1996       2000       2004       2008       2012       2016       2020       2024       2028       2032       2036       2040       2044       2048       2052       2056       2060       2064       2068       2072       2076       2080       2084       2088       2092       2096       2100       2104       2108       2112       2116       2120       2124       2128       2132       2136       2140       2144       2148       2152       2156       2160       2164       2168       2172       2176       2180       2184       2188       2192       2196       2200       2204       2208       2212       2216       2220       2224       2228       2232       2236       2240       2244       2248       2252       2256       2260       2264       2268       2272       2276       2280       2284       2288       2292       2296       2300       2304       2308       2312       2316       2320       2324       2328       2332       2336       2340       2344       2348       2352       2356       2360       2364       2368       2372       2376       2380       2384       2388       2392       2396       2400       2404       2408       2412       2416       2420       2424       2428       2432       2436       2440       2444       2448       2452       2456       2460       2464       2468       2472       2476       2480       2484       2488       2492       2496       2500       2504       2508       2512       2516       2520       2524       2528       2532       2536       2540       2544       2548       2552       2556       2560       2564       2568       2572       2576       2580       2584       2588       2592       2596       2600       2604       2608       2612       2616       2620       2624       2628       2632       2636       2640       2644       2648       2652       2656       2660       2664       2668       2672       2676       2680       2684       2688       2692       2696       2700       2704       2708       2712       2716       2720       2724       2728       2732       2736       2740       2744       2748       2752       2756       2760       2764       2768       2772       2776       2780       2784       2788       2792       2796       2800       2804       2808       2812       2816       2820       2824       2828       2832       2836       2840       2844       2848       2852       2856       2860       2864       2868       2872       2876       2880       2884       2888       2892       2896       2900       2904       2908       2912       2916       2920       2924       2928       2932       2936       2940       2944       2948       2952       2956       2960       2964       2968       2972       2976       2980       2984       2988       2992       2996       3000       3004       3008       3012       3016       3020       3024       3028       3032       3036       3040       3044       3048       3052       3056       3060       3064       3068       3072       3076       3080       3084       3088       3092       3096       3100       3104       3108       3112       3116       3120       3124       3128       3132       3136       3140       3144       3148       3152       3156       3160       3164       3168       3172       3176       3180       3184       3188       3192       3196       3200       3204       3208       3212       3216       3220       3224       3228       3232       3236       3240       3244       3248       3252       3256       3260       3264       3268       3272       3276       3280       3284       3288       3292       3296       3300       3304       3308       3312       3316       3320       3324       3328       3332       3336       3340       3344       3348       3352       3356       3360       3364       3368       3372       3376       3380       3384       3388       3392       3396       3400       3404       3408       3412       3416       3420       3424       3428       3432       3436       3440       3444       3448       3452       3456       3460       3464       3468       3472       3476       3480       3484       3488       3492       3496       3500       3504       3508       3512       3516       3520       3524       3528       3532       3536       3540       3544       3548       3552       3556       3560       3564       3568       3572       3576       3580       3584       3588       3592       3596       3600       3604       3608       3612       3616       3620       3624       3628       3632       3636       3640       3644       3648       3652       3656       3660       3664       3668       3672       3676       3680       3684       3688       3692       3696       3700       3704       3708       3712       3716       3720       3724       3728       3732       3736       3740       3744       3748       3752       3756       3760       3764       3768       3772       3776       3780       3784       3788       3792       3796       3800       3804       3808       3812       3816       3820       3824       3828       3832       3836       3840       3844       3848       3852       3856       3860       3864       3868       3872       3876       3880       3884       3888       3892       3896       3900       3904       3908       3912       3916       3920       3924       3928       3932       3936       3940       3944       3948       3952       3956       3960       3964       3968       3972       3976       3980       3984       3988       3992       3996       4000       4004       4008       4012       4016       4020       4024       4028       4032       4036       4040       4044       4048       4052       4056       4060       4064       4068       4072       4076       4080       4084       4088       4092       4096 </DataArray>
<DataArray type="UInt8"                                    Name="types"                                                      NumberOfComponents=" 1" format="ascii">
         9          9          9          9          9          9          9          9          9          9          9          9          9          9          9          9          9          9          9          9          9          9          9          9          9          9          9          9          9          9          9          9          9          9          9          9          9          9          9          9          9          9          9          9          9          9          9          9          9          9          9          9          9          9          9          9          9          9          9          9          9          9          9          9          9          9          9          9          9          9          9          9          9          9          9          9          9          9          9          9          9          9          9          9          9          9          9          9          9          9          9          9          9          9          9          9          9          9          9          9          9          9          9          9          9          9          9          9          9          9          9          9          9          9          9          9          9          9          9          9          9          9          9          9          9          9          9          9          9          9          9          9          9          9          9          9          9          9          9          9          9          9          9          9          9          9          9          9          9          9          9          9          9          9          9          9          9          9          9          9          9          9          9          9          9          9          9          9          9          9          9          9          9          9          9          9          9          9          9          9          9          9          9          9          9          9          9          9          9          9          9          9          9          9          9          9          9          9          9          9          9          9          9          9          9          9          9          9          9          9          9          9          9          9          9          9          9          9          9          9          9          9          9          9          9          9          9          9          9          9          9          9          9          9          9          9          9          9          9          9          9          9          9          9          9          9          9          9          9          9          9          9          9          9          9          9          9          9          9          9          9          9          9          9          9          9          9          9          9          9          9          9          9          9          9          9          9          9          9          9          9          9          9          9          9          9          9          9          9          9          9          9          9          9          9          9          9          9          9          9          9          9          9          9          9          9          9          9          9          9          9          9          9          9          9          9          9          9          9          9          9          9          9          9          9          9          9          9          9          9          9          9          9          9          9          9          9          9          9          9          9          9          9          9          9          9          9          9          9          9          9          9          9          9          9          9          9          9          9          9          9          9          9          9          9          9          9          9          9          9          9          9          9          9          9          9          9          9          9          9          9          9          9          9          9          9          9          9          9          9          9          9          9          9          9          9          9          9          9          9          9          9          9          9          9          9          9          9          9          9          9          9          9          9          9          9          9          9          9          9          9          9          9          9          9          9          9          9          9          9          9          9          9          9          9          9          9          9          9          9          9          9          9          9          9          9          9          9          9          9          9          9          9          9          9          9          9          9          9          9          9          9          9          9          9          9          9          9          9          9          9          9          9          9          9          9          9          9          9          9          9          9          9          9          9          9          9          9          9          9          9          9          9          9          9          9          9          9          9          9          9          9          9          9          9          9          9          9          9          9          9          9          9          9          9          9          9          9          9          9          9          9          9          9          9          9          9          9          9          9          9          9          9          9          9          9          9          9          9          9          9          9          9          9          9          9          9          9          9          9          9          9          9          9          9          9          9          9          9          9          9          9          9          9          9          9          9          9          9          9          9          9          9          9          9          9          9          9          9          9          9          9          9          9          9          9          9          9          9          9          9          9          9          9          9          9          9          9          9          9          9          9          9          9          9          9          9          9          9          9          9          9          9          9          9          9          9          9          9          9          9          9          9          9          9          9          9          9          9          9          9          9          9          9          9          9          9          9          9          9          9          9          9          9          9          9          9          9          9          9          9          9          9          9          9          9          9          9          9          9          9          9          9          9          9          9          9          9          9          9          9          9          9          9          9          9          9          9          9          9          9          9          9          9          9          9          9          9          9          9          9          9          9          9          9          9          9          9          9          9          9          9          9          9          9          9          9          9          9          9          9          9          9          9          9          9          9          9          9          9          9          9          9          9          9          9          9          9          9          9          9          9          9          9          9          9          9          9          9          9          9          9          9          9          9          9          9          9          9          9          9          9          9          9          9          9          9          9          9          9          9          9          9          9          9          9          9          9          9          9          9          9          9          9          9          9          9          9          9          9          9          9          9          9          9          9          9          9          9          9          9          9          9          9          9          9          9          9          9          9          9          9          9          9          9          9          9          9          9          9          9          9          9          9          9          9          9          9          9          9          9          9          9          9          9          9          9          9          9          9          9          9          9          9          9          9          9          9          9          9          9          9          9          9          9          9          9          9          9          9          9          9          9          9          9          9          9          9          9          9          9          9          9          9          9          9          9          9          9          9          9          9          9          9          9          9          9          9          9          9          9          9          9          9          9          9          9          9          9          9          9          9          9          9          9          9          9          9          9          9          9          9          9          9          9          9          9          9          9          9          9          9          9          9          9          9          9          9          9          9          9          9          9          9          9          9          9          9          9          9          9          9          9          9          9          9          9          9          9          9          9          9          9          9          9          9          9          9          9          9          9          9          9          9          9          9          9          9          9          9          9          9          9          9          9          9          9          9          9          9          9          9          9          9          9          9          9          9          9          9          9          9          9          9          9          9          9          9          9          9          9          9          9          9          9          9          9          9          9          9          9          9          9          9          9          9          9          9          9          9          9          9          9          9          9          9          9          9          9          9          9          9          9          9 </DataArray>
</Cells>
<CellData>
<DataArray type="Int32"                                    Name="material"                                                      NumberOfComponents=" 1" format="ascii">
         1          1          1          1          1          1          1          1          1          1          1          1          1          1          1          1          1          1          1          1          1          1          1          1          1          1          1          1          1          1          1          1          1          1          1          1          1          1          1          1          1          1          1          1          1          1          1          1          1          1          1          1          1          1          1          1          1          1          1          1          1          1          1          1          1          1          1          1          1          1          1          1          1          1          1          1          1          1          1          1          1          1          1          1          1          1          1          1          1          1          1          1          1          1          1          1          1          1          1          1          1          1          1          1          1          1          1          1          1          1          1          1          1          1          1          1          1          1          1          1          1          1          1          1          1          1          1          1          1          1          1          1          1          1          1          1          1          1          1          1          1          1          1          1          1          1          1          1          1          1          1          1          1          1          1          1          1          1          1          1          1          1          1          1          1          1          1          1          1          1          1          1          1          1          1          1          1          1          1          1          1          1          1          1          1          1          1          1          1          1          1          1          1          1          1          1          1          1          1          1          1          1          1          1          1          1          1          1          1          1          1          1          1          1          1          1          1          1          1          1          1          1          1          1          1          1          1          1          1          1          1          1          1          1          1          1          1          1          1          1          1          1          1          1          1          1          1          1          1          1          1          1          1          1          1          1          1          1          1          1          1          1          1          1          1          1          1          1          1          1          1          1          1          1          1          1          1          1          1          1          1          1          1          1          1          1          1          1          1          1          1          1          1          1          1          1          1          1          1          1          1          1          1          1          1          1          1          1          1          1          1          1          1          1          1          1          1          1          1          1          1          1          1          1          1          1          1          1          1          1          1          1          1          1          1          1          1          1          1          1          1          1          1          1          1          1          1          1          1          1          1          1          1          1          1          1          1          1          1          1          1          1          1          1          1          1          1          1          1          1          1          1          1          1          1          1          1          1          1          1          1          1          1          1          1          1          1          1          1          1          1          1          1          1          1          1          1          1          1          1          1          1          1          1          1          1          1          1          1          1          1          1          1          1          1          1          1          1          1          1          1          1          1          1          1          1          1          1          1          1          1          1          1          1          1          1          1          1          1          1          1          1          1          1          1          1          1          1          1          1          1          1          1          1          1          1          1          1          1          1          1          1          1          1          1          1          1          1          1          1          1          1          1          1          1          1          1          1          1          1          1          1          1          1          1          1          1          1          1          1          1          1          1          1          1          1          1          1          1          1          1          1          1          1          1          1          1          1          1          1          1          1          1          1          1          1          1          1          1          1          1          1          1          1          1          1          1          1          1          1          1          1          1          1          1          1          1          1          1          1          1          1          1          1          1          1          1          1          1          1          1          1          1          1          1          1          1          1          1          1          1          1          1          1          1          1          1          1          1          1          1          1          1          1          1          1          1          1          1          1          1          1          1          1          1          1          1          1          1          1          1          1          1          1          1          1          1          1          1          1          1          1          1          1          1          1          1          1          1          1          1          1          1          1          1          1          1          1          1          1          1          1          1          1          1          1          1          1          1          1          1          1          1          1          1          1          1          1          1          1          1          1          1          1          1          1          1          1          1          1          1          1          1          1          1          1          1          1          1          1          1          1          1          1          1          1          1          1          1          1          1          1          1          1          1          1          1          1          1          1          1          1          1          1          1          1          1          1          1          1          1          1          1          1          1          1          1          1          1          1          1          1          1          1          1          1          1          1          1          1          1          1          1          1          1          1          1          1          1          1          1          1          1          1          1          1          1          1          1          1          1          1          1          1          1          1          1          1          1          1          1          1          1          1          1          1          1          1          1          1          1          1          1          1          1          1          1          1          1          1          1          1          1          1          1          1          1          1          1          1          1          1          1          1          1          1          1          1          1          1          1          1          1          1          1          1          1          1          1          1          1          1          1          1          1          1          1          1          1          1          1          1          1          1          1          1          1          1          1          1          1          1          1          1          1          1          1          1          1          1          1          1          1          1          1          1          1          1          1          1          1          1          1          1          1          1          1          1          1          1          1          1          1          1          1          1          1          1          1          1          1          1          1          1          1          1          1          1          1          1          1          1          1          1          1          1          1          1          1          1          1          1          1          1          1          1          1          1          1          1          1          1          1          1          1          1          1          1          1          1          1          1          1          1          1          1          1          1          1          1          1          1          1          1          1          1          1          1          1          1          1          1          1          1          1          1          1          1          1          1          1          1          1          1          1          1          1          1          1          1          1          1          1          1          1          1          1          1          1          1          1          1          1          1          1          1          1          1          1          1          1          1          1          1          1          1          1          1          1          1          1          1          1          1          1          1          1          1          1          1          1          1          1          1          1          1          1          1          1          1          1          1          1          1          1          1          1          1          1          1          1          1          1          1          1          1          1          1          1          1          1          1          1          1          1          1          1          1          1          1          1          1          1          1          1          1          1          1          1          1          1          1          1          1 </DataArray>
</CellData>
<PointData>
<DataArray type="Float64"                                    Name="u"                                                      NumberOfComponents=" 3" format="ascii">
             -0.000212198               0.000000000               0.999999989              -0.000244228              -0.000000000               0.999999989              -0.000259142              -0.000000000               0.999999989              -0.000267775              -0.000000000               0.999999989              -0.000274342               0.000000000               0.999999989              -0.000280685               0.000000000               0.999999989              -0.000287554               0.000000000               0.999999989              -0.000295258               0.000000000               0.999999989              -0.000304162               0.000000000               0.999999989              -0.000314381               0.000000000               0.999999989              -0.000325867               0.000000000               0.999999989              -0.000338479               0.000000000               0.999999989              -0.000352125               0.000000000               0.999999989              -0.000366649               0.000000000               0.999999989              -0.000381796              -0.000000000               0.999999989              -0.000397295               0.000000000               0.999999989              -0.000412820               0.000000000               0.999999989              -0.000211019               0.000080805               0.999999989              -0.000241303               0.000069372               0.999999989              -0.000255162               0.000065369               0.999999989              -0.000263194               0.000065279               0.999999989              -0.000269429               0.000067448               0.999999989              -0.000275596               0.000070912               0.999999989              -0.000282466               0.000075222               0.999999989              -0.000290381               0.000080315               0.999999989              -0.000299504               0.000085978               0.999999989              -0.000309802               0.000091958               0.999999989              -0.000321277               0.000098058               0.999999989              -0.000333897               0.000104154               0.999999989              -0.000347498               0.000110008               0.999999989              -0.000361817               0.000115406               0.999999989              -0.000376611               0.000120053               0.999999989              -0.000391668               0.000123647               0.999999989              -0.000406705               0.000125947               0.999999989              -0.000207570               0.000160742               0.999999989              -0.000232761               0.000138034               0.999999989              -0.000243663               0.000130570               0.999999989              -0.000250141               0.000130895               0.999999989              -0.000255652               0.000135477               0.999999989              -0.000261582               0.000142644               0.999999989              -0.000268520               0.000151572               0.999999989              -0.000276728               0.000161766               0.999999989              -0.000286196               0.000172963               0.999999989              -0.000296729               0.000184804               0.999999989              -0.000308254               0.000196855               0.999999989              -0.000320631               0.000208826               0.999999989              -0.000333617               0.000220472               0.999999989              -0.000347013               0.000231180               0.999999989              -0.000360647               0.000240463               0.999999989              -0.000374345               0.000248057               0.999999989              -0.000387951               0.000253328               0.999999989              -0.000201938               0.000238979               0.999999989              -0.000219083               0.000205461               0.999999989              -0.000225782               0.000195389               0.999999989              -0.000230247               0.000196846               0.999999989              -0.000234922               0.000204377               0.999999989              -0.000240705               0.000215606               0.999999989              -0.000247894               0.000229331               0.999999989              -0.000256575               0.000244799               0.999999989              -0.000266476               0.000261458               0.999999989              -0.000277278               0.000278870               0.999999989              -0.000288798               0.000296496               0.999999989              -0.000300675               0.000314041               0.999999989              -0.000312779               0.000330915               0.999999989              -0.000324935               0.000346571               0.999999989              -0.000336988               0.000360594               0.999999989              -0.000348962               0.000372802               0.999999989              -0.000360861               0.000382737               0.999999989              -0.000194313               0.000314704               0.999999989              -0.000201040               0.000271253               0.999999989              -0.000203018               0.000259629               0.999999989              -0.000205574               0.000262984               0.999999989              -0.000209780               0.000273961               0.999999989              -0.000215858               0.000289510               0.999999989              -0.000223740               0.000308187               0.999999989              -0.000233087               0.000328946               0.999999989              -0.000243535               0.000350924               0.999999989              -0.000254703               0.000373563               0.999999989              -0.000266189               0.000396317               0.999999989              -0.000277776               0.000418621               0.999999989              -0.000289213               0.000440086               0.999999989              -0.000300383               0.000460264               0.999999989              -0.000311243               0.000478865               0.999999989              -0.000321795               0.000495898               0.999999989              -0.000332151               0.000511273               0.999999989              -0.000184663               0.000387246               0.999999989              -0.000179454               0.000335173               0.999999989              -0.000177074               0.000323095               0.999999989              -0.000178508               0.000328888               0.999999989              -0.000183091               0.000343594               0.999999989              -0.000190136               0.000363607               0.999999989              -0.000199093               0.000387107               0.999999989              -0.000209417               0.000412911               0.999999989              -0.000220590               0.000439820               0.999999989              -0.000232154               0.000467173               0.999999989              -0.000243713               0.000494504               0.999999989              -0.000254950               0.000521140               0.999999989              -0.000265641               0.000546791               0.999999989              -0.000275820               0.000571187               0.999999989              -0.000285524               0.000594155               0.999999989              -0.000294777               0.000615834               0.999999989              -0.000303573               0.000636431               0.999999989              -0.000173046               0.000455884               0.999999989              -0.000155460               0.000397112               0.999999989              -0.000149865               0.000385511               0.999999989              -0.000151401               0.000394008               0.999999989              -0.000157221               0.000412459               0.999999989              -0.000165729               0.000436657               0.999999989              -0.000175998               0.000464740               0.999999989              -0.000187426               0.000495226               0.999999989              -0.000199377               0.000526570               0.999999989              -0.000211282               0.000558191               0.999999989              -0.000222638               0.000589722               0.999999989              -0.000233202               0.000620390               0.999999989              -0.000242959               0.000649931               0.999999989              -0.000251957               0.000678386               0.999999989              -0.000260292               0.000705719               0.999999989              -0.000268042               0.000732090               0.999999989              -0.000275314               0.000757567               0.999999989              -0.000159828               0.000519750               0.999999989              -0.000130477               0.000456896               0.999999989              -0.000123258               0.000446372               0.999999989              -0.000126071               0.000457512               0.999999989              -0.000133641               0.000479436               0.999999989              -0.000143801               0.000507661               0.999999989              -0.000155570               0.000540015               0.999999989              -0.000168116               0.000574588               0.999999989              -0.000180661               0.000609999               0.999999989              -0.000192576               0.000645681               0.999999989              -0.000203414               0.000681021               0.999999989              -0.000213074               0.000715306               0.999999989              -0.000221603               0.000748648               0.999999989              -0.000229159               0.000781174               0.999999989              -0.000236055               0.000812847               0.999999989              -0.000242354               0.000843812               0.999999989              -0.000248296               0.000873995               0.999999989              -0.000145742               0.000577689               0.999999989              -0.000105559               0.000514368               0.999999989              -0.000098770               0.000505003               0.999999989              -0.000103525               0.000518457               0.999999989              -0.000113090               0.000543596               0.999999989              -0.000125041               0.000575583               0.999999989              -0.000138299               0.000611853               0.999999989              -0.000151811               0.000650318               0.999999989              -0.000164616               0.000689660               0.999999989              -0.000176153               0.000729011               0.999999989              -0.000186078               0.000767713               0.999999989              -0.000194368               0.000805576               0.999999989              -0.000201372               0.000842700               0.999999989              -0.000207519               0.000879176               0.999999989              -0.000213038               0.000915021               0.999999989              -0.000218242               0.000950055               0.999999989              -0.000223293               0.000984268               0.999999989              -0.000131786               0.000631780               0.999999989              -0.000085918               0.000575709               0.999999989              -0.000076375               0.000562106               0.999999989              -0.000079558               0.000570175               0.999999989              -0.000087724               0.000590076               0.999999989              -0.000098217               0.000617262               0.999999989              -0.000110164               0.000649142               0.999999989              -0.000122674               0.000683968               0.999999989              -0.000134792               0.000720388               0.999999989              -0.000145798               0.000757490               0.999999989              -0.000155293               0.000794613               0.999999989              -0.000163054               0.000831289               0.999999989              -0.000169169               0.000867487               0.999999989              -0.000174156               0.000903300               0.999999989              -0.000178429               0.000938753               0.999999989              -0.000182388               0.000973670               0.999999989              -0.000186279               0.001007854               0.999999989              -0.000116175               0.000680574               0.999999989              -0.000068531               0.000634366               0.999999989              -0.000056313               0.000619942               0.999999989              -0.000057353               0.000624185               0.999999989              -0.000063758               0.000639672               0.999999989              -0.000072536               0.000662517               0.999999989              -0.000082937               0.000690383               0.999999989              -0.000094180               0.000721613               0.999999989              -0.000105271               0.000754991               0.999999989              -0.000115509               0.000789647               0.999999989              -0.000124490               0.000824814               0.999999989              -0.000131726               0.000860006               0.999999989              -0.000137077               0.000894967               0.999999989              -0.000140853               0.000929554               0.999999989              -0.000143576               0.000964039               0.999999989              -0.000145706               0.000998383               0.999999989              -0.000147589               0.001032497               0.999999989              -0.000099204               0.000723170               0.999999989              -0.000053269               0.000688851               0.999999989              -0.000039298               0.000676128               0.999999989              -0.000038109               0.000678471               0.999999989              -0.000042443               0.000690908               0.999999989              -0.000049382               0.000710243               0.999999989              -0.000058007               0.000734639               0.999999989              -0.000067590               0.000762691               0.999999989              -0.000077306               0.000793286               0.999999989              -0.000086482               0.000825555               0.999999989              -0.000094652               0.000858839               0.999999989              -0.000101288               0.000892489               0.999999989              -0.000105988               0.000926174               0.999999989              -0.000108662               0.000959627               0.999999989              -0.000109645               0.000992972               0.999999989              -0.000109329               0.001026320               0.999999989              -0.000108131               0.001059764               0.999999989              -0.000080967               0.000758951               0.999999989              -0.000039985               0.000737179               0.999999989              -0.000025698               0.000728104               0.999999989              -0.000022776               0.000730295               0.999999989              -0.000025172               0.000741005               0.999999989              -0.000030198               0.000757982               0.999999989              -0.000036783               0.000779787               0.999999989              -0.000044468               0.000805324               0.999999989              -0.000052450               0.000833632               0.999999989              -0.000060127               0.000863901               0.999999989              -0.000067151               0.000895568               0.999999989              -0.000072923               0.000928068               0.999999989              -0.000076992               0.000960921               0.999999989              -0.000078712               0.000993812               0.999999989              -0.000078118               0.001026570               0.999999989              -0.000075260               0.001059237               0.999999989              -0.000070163               0.001092044               0.999999989              -0.000061687               0.000787314               0.999999989              -0.000028418               0.000777235               0.999999989              -0.000015591               0.000772874               0.999999989              -0.000011873               0.000776310               0.999999989              -0.000012695               0.000786563               0.999999989              -0.000015962               0.000802365               0.999999989              -0.000020525               0.000822589               0.999999989              -0.000026076               0.000846327               0.999999989              -0.000032065               0.000872977               0.999999989              -0.000037958               0.000901862               0.999999989              -0.000043321               0.000932477               0.999999989              -0.000047790               0.000964397               0.999999989              -0.000050944               0.000997055               0.999999989              -0.000052064               0.001030119               0.999999989              -0.000050625               0.001063258               0.999999989              -0.000046191               0.001096236               0.999999989              -0.000038139               0.001129109               0.999999989              -0.000041590               0.000807849               0.999999989              -0.000018206               0.000807190               0.999999989              -0.000008537               0.000807463               0.999999989              -0.000005213               0.000812824               0.999999989              -0.000005077               0.000823548               0.999999989              -0.000006792               0.000839113               0.999999989              -0.000009685               0.000858677               0.999999989              -0.000013097               0.000881541               0.999999989              -0.000016971               0.000907141               0.999999989              -0.000020826               0.000935167               0.999999989              -0.000024374               0.000965143               0.999999989              -0.000027358               0.000996651               0.999999989              -0.000029496               0.001029342               0.999999989              -0.000030166               0.001062843               0.999999989              -0.000028639               0.001096829               0.999999989              -0.000024288               0.001130937               0.999999989              -0.000016161               0.001164787               0.999999989              -0.000020941               0.000820205               0.999999989              -0.000008897               0.000825663               0.999999989              -0.000003697               0.000829305               0.999999989              -0.000001787               0.000836391               0.999999989              -0.000001381               0.000847890               0.999999989              -0.000002094               0.000863651               0.999999989              -0.000003440               0.000883101               0.999999989              -0.000005078               0.000905674               0.999999989              -0.000006879               0.000930949               0.999999989              -0.000008739               0.000958515               0.999999989              -0.000010492               0.000988057               0.999999989              -0.000012045               0.001019316               0.999999989              -0.000013098               0.001052002               0.999999989              -0.000013353               0.001085929               0.999999989              -0.000012413               0.001120714               0.999999989              -0.000009706               0.001155813               0.999999989              -0.000004643               0.001190674               0.999999989               0.000000000               0.000824299               0.999999989               0.000000000               0.000831877               0.999999989              -0.000000000               0.000836742               0.999999989              -0.000000000               0.000844584               0.999999989               0.000000000               0.000856486               0.999999989              -0.000000000               0.000872361               0.999999989              -0.000000000               0.000891829               0.999999989               0.000000000               0.000914347               0.999999989              -0.000000000               0.000939481               0.999999989               0.000000000               0.000966880               0.999999989               0.000000000               0.000996304               0.999999989               0.000000000               0.001027496               0.999999989              -0.000000000               0.001060301               0.999999989              -0.000000000               0.001094428               0.999999989               0.000000000               0.001129498               0.999999989              -0.000000000               0.001165050               0.999999989              -0.000000000               0.001200359               0.999999989              -0.000212198               0.000000000               0.999999989              -0.000244228              -0.000000000               0.999999989              -0.000259142              -0.000000000               0.999999989              -0.000267775              -0.000000000               0.999999989              -0.000274342               0.000000000               0.999999989              -0.000280685               0.000000000               0.999999989              -0.000287554               0.000000000               0.999999989              -0.000295258               0.000000000               0.999999989              -0.000304162               0.000000000               0.999999989              -0.000314381               0.000000000               0.999999989              -0.000325867               0.000000000               0.999999989              -0.000338479               0.000000000               0.999999989              -0.000352125               0.000000000               0.999999989              -0.000366649               0.000000000               0.999999989              -0.000381796              -0.000000000               0.999999989              -0.000397295               0.000000000               0.999999989              -0.000412820               0.000000000               0.999999989              -0.000211019              -0.000080805               0.999999989              -0.000241303              -0.000069372               0.999999989              -0.000255162              -0.000065369               0.999999989              -0.000263194              -0.000065279               0.999999989              -0.000269429              -0.000067448               0.999999989              -0.000275596              -0.000070912               0.999999989              -0.000282466              -0.000075222               0.999999989              -0.000290381              -0.000080315               0.999999989              -0.000299504              -0.000085978               0.999999989              -0.000309802              -0.000091958               0.999999989              -0.000321277              -0.000098058               0.999999989              -0.000333897              -0.000104154               0.999999989              -0.000347498              -0.000110008               0.999999989              -0.000361817              -0.000115406               0.999999989              -0.000376611              -0.000120053               0.999999989              -0.000391668              -0.000123647               0.999999989              -0.000406705              -0.000125947               0.999999989              -0.000207570              -0.000160742               0.999999989              -0.000232761              -0.000138034               0.999999989              -0.000243663              -0.000130570               0.999999989              -0.000250141              -0.000130895               0.999999989              -0.000255652              -0.000135477               0.999999989              -0.000261582              -0.000142644               0.999999989              -0.000268520              -0.000151572               0.999999989              -0.000276728              -0.000161766               0.999999989              -0.000286196              -0.000172963               0.999999989              -0.000296729              -0.000184804               0.999999989              -0.000308254              -0.000196855               0.999999989              -0.000320631              -0.000208826               0.999999989              -0.000333617              -0.000220472               0.999999989              -0.000347013              -0.000231180               0.999999989              -0.000360647              -0.000240463               0.999999989              -0.000374345              -0.000248057               0.999999989              -0.000387951              -0.000253328               0.999999989              -0.000201938              -0.000238979               0.999999989              -0.000219083              -0.000205461               0.999999989              -0.000225782              -0.000195389               0.999999989              -0.000230247              -0.000196846               0.999999989              -0.000234922              -0.000204377               0.999999989              -0.000240705              -0.000215606               0.999999989              -0.000247894              -0.000229331               0.999999989              -0.000256575              -0.000244799               0.999999989              -0.000266476              -0.000261458               0.999999989              -0.000277278              -0.000278870               0.999999989              -0.000288798              -0.000296496               0.999999989              -0.000300675              -0.000314041               0.999999989              -0.000312779              -0.000330915               0.999999989              -0.000324935              -0.000346571               0.999999989              -0.000336988              -0.000360594               0.999999989              -0.000348962              -0.000372802               0.999999989              -0.000360861              -0.000382737               0.999999989              -0.000194313              -0.000314704               0.999999989              -0.000201040              -0.000271253               0.999999989              -0.000203018              -0.000259629               0.999999989              -0.000205574              -0.000262984               0.999999989              -0.000209780              -0.000273961               0.999999989              -0.000215858              -0.000289510               0.999999989              -0.000223740              -0.000308187               0.999999989              -0.000233087              -0.000328946               0.999999989              -0.000243535              -0.000350924               0.999999989              -0.000254703              -0.000373563               0.999999989              -0.000266189              -0.000396317               0.999999989              -0.000277776              -0.000418621               0.999999989              -0.000289213              -0.000440086               0.999999989              -0.000300383              -0.000460264               0.999999989              -0.000311243              -0.000478865               0.999999989              -0.000321795              -0.000495898               0.999999989              -0.000332151              -0.000511273               0.999999989              -0.000184663              -0.000387246               0.999999989              -0.000179454              -0.000335173               0.999999989              -0.000177074              -0.000323095               0.999999989              -0.000178508              -0.000328888               0.999999989              -0.000183091              -0.000343594               0.999999989              -0.000190136              -0.000363607               0.999999989              -0.000199093              -0.000387107               0.999999989              -0.000209417              -0.000412911               0.999999989              -0.000220590              -0.000439820               0.999999989              -0.000232154              -0.000467173               0.999999989              -0.000243713              -0.000494504               0.999999989              -0.000254950              -0.000521140               0.999999989              -0.000265641              -0.000546791               0.999999989              -0.000275820              -0.000571187               0.999999989              -0.000285524              -0.000594155               0.999999989              -0.000294777              -0.000615834               0.999999989              -0.000303573              -0.000636431               0.999999989              -0.000173046              -0.000455884               0.999999989              -0.000155460              -0.000397112               0.999999989              -0.000149865              -0.000385511               0.999999989              -0.000151401              -0.000394008               0.999999989              -0.000157221              -0.000412459               0.999999989              -0.000165729              -0.000436657               0.999999989              -0.000175998              -0.000464740               0.999999989              -0.000187426              -0.000495226               0.999999989              -0.000199377              -0.000526570               0.999999989              -0.000211282              -0.000558191               0.999999989              -0.000222638              -0.000589722               0.999999989              -0.000233202              -0.000620390               0.999999989              -0.000242959              -0.000649931               0.999999989              -0.000251957              -0.000678386               0.999999989              -0.000260292              -0.000705719               0.999999989              -0.000268042              -0.000732090               0.999999989              -0.000275314              -0.000757567               0.999999989              -0.000159828              -0.000519750               0.999999989              -0.000130477              -0.000456896               0.999999989              -0.000123258              -0.000446372               0.999999989              -0.000126071              -0.000457512               0.999999989              -0.000133641              -0.000479436               0.999999989              -0.000143801              -0.000507661               0.999999989              -0.000155570              -0.000540015               0.999999989              -0.000168116              -0.000574588               0.999999989              -0.000180661              -0.000609999               0.999999989              -0.000192576              -0.000645681               0.999999989              -0.000203414              -0.000681021               0.999999989              -0.000213074              -0.000715306               0.999999989              -0.000221603              -0.000748648               0.999999989              -0.000229159              -0.000781174               0.999999989              -0.000236055              -0.000812847               0.999999989              -0.000242354              -0.000843812               0.999999989              -0.000248296              -0.000873995               0.999999989              -0.000145742              -0.000577689               0.999999989              -0.000105559              -0.000514368               0.999999989              -0.000098770              -0.000505003               0.999999989              -0.000103525              -0.000518457               0.999999989              -0.000113090              -0.000543596               0.999999989              -0.000125041              -0.000575583               0.999999989              -0.000138299              -0.000611853               0.999999989              -0.000151811              -0.000650318               0.999999989              -0.000164616              -0.000689660               0.999999989              -0.000176153              -0.000729011               0.999999989              -0.000186078              -0.000767713               0.999999989              -0.000194368              -0.000805576               0.999999989              -0.000201372              -0.000842700               0.999999989              -0.000207519              -0.000879176               0.999999989              -0.000213038              -0.000915021               0.999999989              -0.000218242              -0.000950055               0.999999989              -0.000223293              -0.000984268               0.999999989              -0.000131786              -0.000631780               0.999999989              -0.000085918              -0.000575709               0.999999989              -0.000076375              -0.000562106               0.999999989              -0.000079558              -0.000570175               0.999999989              -0.000087724              -0.000590076               0.999999989              -0.000098217              -0.000617262               0.999999989              -0.000110164              -0.000649142               0.999999989              -0.000122674              -0.000683968               0.999999989              -0.000134792              -0.000720388               0.999999989              -0.000145798              -0.000757490               0.999999989              -0.000155293              -0.000794613               0.999999989              -0.000163054              -0.000831289               0.999999989              -0.000169169              -0.000867487               0.999999989              -0.000174156              -0.000903300               0.999999989              -0.000178429              -0.000938753               0.999999989              -0.000182388              -0.000973670               0.999999989              -0.000186279              -0.001007854               0.999999989              -0.000116175              -0.000680574               0.999999989              -0.000068531              -0.000634366               0.999999989              -0.000056313              -0.000619942               0.999999989              -0.000057353              -0.000624185               0.999999989              -0.000063758              -0.000639672               0.999999989              -0.000072536              -0.000662517               0.999999989              -0.000082937              -0.000690383               0.999999989              -0.000094180              -0.000721613               0.999999989              -0.000105271              -0.000754991               0.999999989              -0.000115509              -0.000789647               0.999999989              -0.000124490              -0.000824814               0.999999989              -0.000131726              -0.000860006               0.999999989              -0.000137077              -0.000894967               0.999999989              -0.000140853              -0.000929554               0.999999989              -0.000143576              -0.000964039               0.999999989              -0.000145706              -0.000998383               0.999999989              -0.000147589              -0.001032497               0.999999989              -0.000099204              -0.000723170               0.999999989              -0.000053269              -0.000688851               0.999999989              -0.000039298              -0.000676128               0.999999989              -0.000038109              -0.000678471               0.999999989              -0.000042443              -0.000690908               0.999999989              -0.000049382              -0.000710243               0.999999989              -0.000058007              -0.000734639               0.999999989              -0.000067590              -0.000762691               0.999999989              -0.000077306              -0.000793286               0.999999989              -0.000086482              -0.000825555               0.999999989              -0.000094652              -0.000858839               0.999999989              -0.000101288              -0.000892489               0.999999989              -0.000105988              -0.000926174               0.999999989              -0.000108662              -0.000959627               0.999999989              -0.000109645              -0.000992972               0.999999989              -0.000109329              -0.001026320               0.999999989              -0.000108131              -0.001059764               0.999999989              -0.000080967              -0.000758951               0.999999989              -0.000039985              -0.000737179               0.999999989              -0.000025698              -0.000728104               0.999999989              -0.000022776              -0.000730295               0.999999989              -0.000025172              -0.000741005               0.999999989              -0.000030198              -0.000757982               0.999999989              -0.000036783              -0.000779787               0.999999989              -0.000044468              -0.000805324               0.999999989              -0.000052450              -0.000833632               0.999999989              -0.000060127              -0.000863901               0.999999989              -0.000067151              -0.000895568               0.999999989              -0.000072923              -0.000928068               0.999999989              -0.000076992              -0.000960921               0.999999989              -0.000078712              -0.000993812               0.999999989              -0.000078118              -0.001026570               0.999999989              -0.000075260              -0.001059237               0.999999989              -0.000070163              -0.001092044               0.999999989              -0.000061687              -0.000787314               0.999999989              -0.000028418              -0.000777235               0.999999989              -0.000015591              -0.000772874               0.999999989              -0.000011873              -0.000776310               0.999999989              -0.000012695              -0.000786563               0.999999989              -0.000015962              -0.000802365               0.999999989              -0.000020525              -0.000822589               0.999999989              -0.000026076              -0.000846327               0.999999989              -0.000032065              -0.000872977               0.999999989              -0.000037958              -0.000901862               0.999999989              -0.000043321              -0.000932477               0.999999989              -0.000047790              -0.000964397               0.999999989              -0.000050944              -0.000997055               0.999999989              -0.000052064              -0.001030119               0.999999989              -0.000050625              -0.001063258               0.999999989              -0.000046191              -0.001096236               0.999999989              -0.000038139              -0.001129109               0.999999989              -0.000041590              -0.000807849               0.999999989              -0.000018206              -0.000807190               0.999999989              -0.000008537              -0.000807463               0.999999989              -0.000005213              -0.000812824               0.999999989              -0.000005077              -0.000823548               0.999999989              -0.000006792              -0.000839113               0.999999989              -0.000009685              -0.000858677               0.999999989              -0.000013097              -0.000881541               0.999999989              -0.000016971              -0.000907141               0.999999989              -0.000020826              -0.000935167               0.999999989              -0.000024374              -0.000965143               0.999999989              -0.000027358              -0.000996651               0.999999989              -0.000029496              -0.001029342               0.999999989              -0.000030166              -0.001062843               0.999999989              -0.000028639              -0.001096829               0.999999989              -0.000024288              -0.001130937               0.999999989              -0.000016161              -0.001164787               0.999999989              -0.000020941              -0.000820205               0.999999989              -0.000008897              -0.000825663               0.999999989              -0.000003697              -0.000829305               0.999999989              -0.000001787              -0.000836391               0.999999989              -0.000001381              -0.000847890               0.999999989              -0.000002094              -0.000863651               0.999999989              -0.000003440              -0.000883101               0.999999989              -0.000005078              -0.000905674               0.999999989              -0.000006879              -0.000930949               0.999999989              -0.000008739              -0.000958515               0.999999989              -0.000010492              -0.000988057               0.999999989              -0.000012045              -0.001019316               0.999999989              -0.000013098              -0.001052002               0.999999989              -0.000013353              -0.001085929               0.999999989              -0.000012413              -0.001120714               0.999999989              -0.000009706              -0.001155813               0.999999989              -0.000004643              -0.001190674               0.999999989               0.000000000              -0.000824299               0.999999989              -0.000000000              -0.000831877               0.999999989              -0.000000000              -0.000836742               0.999999989               0.000000000              -0.000844584               0.999999989              -0.000000000              -0.000856486               0.999999989               0.000000000              -0.000872361               0.999999989              -0.000000000              -0.000891829               0.999999989               0.000000000              -0.000914347               0.999999989               0.000000000              -0.000939481               0.999999989              -0.000000000              -0.000966880               0.999999989              -0.000000000              -0.000996304               0.999999989               0.000000000              -0.001027496               0.999999989              -0.000000000              -0.001060301               0.999999989              -0.000000000              -0.001094428               0.999999989               0.000000000              -0.001129498               0.999999989              -0.000000000              -0.001165050               0.999999989               0.000000000              -0.001200359               0.999999989               0.000212198              -0.000000000               0.999999989               0.000244228              -0.000000000               0.999999989               0.000259142               0.000000000               0.999999989               0.000267775               0.000000000               0.999999989               0.000274342              -0.000000000               0.999999989               0.000280685               0.000000000               0.999999989               0.000287554               0.000000000               0.999999989               0.000295258               0.000000000               0.999999989               0.000304162               0.000000000               0.999999989               0.000314381              -0.000000000               0.999999989               0.000325867               0.000000000               0.999999989               0.000338479              -0.000000000               0.999999989               0.000352125               0.000000000               0.999999989               0.000366649              -0.000000000               0.999999989               0.000381796               0.000000000               0.999999989               0.000397295               0.000000000               0.999999989               0.000412820              -0.000000000               0.999999989               0.000211019              -0.000080805               0.999999989               0.000241303              -0.000069372               0.999999989               0.000255162              -0.000065369               0.999999989               0.000263194              -0.000065279               0.999999989               0.000269429              -0.000067448               0.999999989               0.000275596              -0.000070912               0.999999989               0.000282466              -0.000075222               0.999999989               0.000290381              -0.000080315               0.999999989               0.000299504              -0.000085978               0.999999989               0.000309802              -0.000091958               0.999999989               0.000321277              -0.000098058               0.999999989               0.000333897              -0.000104154               0.999999989               0.000347498              -0.000110008               0.999999989               0.000361817              -0.000115406               0.999999989               0.000376611              -0.000120053               0.999999989               0.000391668              -0.000123647               0.999999989               0.000406705              -0.000125947               0.999999989               0.000207570              -0.000160742               0.999999989               0.000232761              -0.000138034               0.999999989               0.000243663              -0.000130570               0.999999989               0.000250141              -0.000130895               0.999999989               0.000255652              -0.000135477               0.999999989               0.000261582              -0.000142644               0.999999989               0.000268520              -0.000151572               0.999999989               0.000276728              -0.000161766               0.999999989               0.000286196              -0.000172963               0.999999989               0.000296729              -0.000184804               0.999999989               0.000308254              -0.000196855               0.999999989               0.000320631              -0.000208826               0.999999989               0.000333617              -0.000220472               0.999999989               0.000347013              -0.000231180               0.999999989               0.000360647              -0.000240463               0.999999989               0.000374345              -0.000248057               0.999999989               0.000387951              -0.000253328               0.999999989               0.000201938              -0.000238979               0.999999989               0.000219083              -0.000205461               0.999999989               0.000225782              -0.000195389               0.999999989               0.000230247              -0.000196846               0.999999989               0.000234922              -0.000204377               0.999999989               0.000240705              -0.000215606               0.999999989               0.000247894              -0.000229331               0.999999989               0.000256575              -0.000244799               0.999999989               0.000266476              -0.000261458               0.999999989               0.000277278              -0.000278870               0.999999989               0.000288798              -0.000296496               0.999999989               0.000300675              -0.000314041               0.999999989               0.000312779              -0.000330915               0.999999989               0.000324935              -0.000346571               0.999999989               0.000336988              -0.000360594               0.999999989               0.000348962              -0.000372802               0.999999989               0.000360861              -0.000382737               0.999999989               0.000194313              -0.000314704               0.999999989               0.000201040              -0.000271253               0.999999989               0.000203018              -0.000259629               0.999999989               0.000205574              -0.000262984               0.999999989               0.000209780              -0.000273961               0.999999989               0.000215858              -0.000289510               0.999999989               0.000223740              -0.000308187               0.999999989               0.000233087              -0.000328946               0.999999989               0.000243535              -0.000350924               0.999999989               0.000254703              -0.000373563               0.999999989               0.000266189              -0.000396317               0.999999989               0.000277776              -0.000418621               0.999999989               0.000289213              -0.000440086               0.999999989               0.000300383              -0.000460264               0.999999989               0.000311243              -0.000478865               0.999999989               0.000321795              -0.000495898               0.999999989               0.000332151              -0.000511273               0.999999989               0.000184663              -0.000387246               0.999999989               0.000179454              -0.000335173               0.999999989               0.000177074              -0.000323095               0.999999989               0.000178508              -0.000328888               0.999999989               0.000183091              -0.000343594               0.999999989               0.000190136              -0.000363607               0.999999989               0.000199093              -0.000387107               0.999999989               0.000209417              -0.000412911               0.999999989               0.000220590              -0.000439820               0.999999989               0.000232154              -0.000467173               0.999999989               0.000243713              -0.000494504               0.999999989               0.000254950              -0.000521140               0.999999989               0.000265641              -0.000546791               0.999999989               0.000275820              -0.000571187               0.999999989               0.000285524              -0.000594155               0.999999989               0.000294777              -0.000615834               0.999999989               0.000303573              -0.000636431               0.999999989               0.000173046              -0.000455884               0.999999989               0.000155460              -0.000397112               0.999999989               0.000149865              -0.000385511               0.999999989               0.000151401              -0.000394008               0.999999989               0.000157221              -0.000412459               0.999999989               0.000165729              -0.000436657               0.999999989               0.000175998              -0.000464740               0.999999989               0.000187426              -0.000495226               0.999999989               0.000199377              -0.000526570               0.999999989               0.000211282              -0.000558191               0.999999989               0.000222638              -0.000589722               0.999999989               0.000233202              -0.000620390               0.999999989               0.000242959              -0.000649931               0.999999989               0.000251957              -0.000678386               0.999999989               0.000260292              -0.000705719               0.999999989               0.000268042              -0.000732090               0.999999989               0.000275314              -0.000757567               0.999999989               0.000159828              -0.000519750               0.999999989               0.000130477              -0.000456896               0.999999989               0.000123258              -0.000446372               0.999999989               0.000126071              -0.000457512               0.999999989               0.000133641              -0.000479436               0.999999989               0.000143801              -0.000507661               0.999999989               0.000155570              -0.000540015               0.999999989               0.000168116              -0.000574588               0.999999989               0.000180661              -0.000609999               0.999999989               0.000192576              -0.000645681               0.999999989               0.000203414              -0.000681021               0.999999989               0.000213074              -0.000715306               0.999999989               0.000221603              -0.000748648               0.999999989               0.000229159              -0.000781174               0.999999989               0.000236055              -0.000812847               0.999999989               0.000242354              -0.000843812               0.999999989               0.000248296              -0.000873995               0.999999989               0.000145742              -0.000577689               0.999999989               0.000105559              -0.000514368               0.999999989               0.000098770              -0.000505003               0.999999989               0.000103525              -0.000518457               0.999999989               0.000113090              -0.000543596               0.999999989               0.000125041              -0.000575583               0.999999989               0.000138299              -0.000611853               0.999999989               0.000151811              -0.000650318               0.999999989               0.000164616              -0.000689660               0.999999989               0.000176153              -0.000729011               0.999999989               0.000186078              -0.000767713               0.999999989               0.000194368              -0.000805576               0.999999989               0.000201372              -0.000842700               0.999999989               0.000207519              -0.000879176               0.999999989               0.000213038              -0.000915021               0.999999989               0.000218242              -0.000950055               0.999999989               0.000223293              -0.000984268               0.999999989               0.000131786              -0.000631780               0.999999989               0.000085918              -0.000575709               0.999999989               0.000076375              -0.000562106               0.999999989               0.000079558              -0.000570175               0.999999989               0.000087724              -0.000590076               0.999999989               0.000098217              -0.000617262               0.999999989               0.000110164              -0.000649142               0.999999989               0.000122674              -0.000683968               0.999999989               0.000134792              -0.000720388               0.999999989               0.000145798              -0.000757490               0.999999989               0.000155293              -0.000794613               0.999999989               0.000163054              -0.000831289               0.999999989               0.000169169              -0.000867487               0.999999989               0.000174156              -0.000903300               0.999999989               0.000178429              -0.000938753               0.999999989               0.000182388              -0.000973670               0.999999989               0.000186279              -0.001007854               0.999999989               0.000116175              -0.000680574               0.999999989               0.000068531              -0.000634366               0.999999989               0.000056313              -0.000619942               0.999999989               0.000057353              -0.000624185               0.999999989               0.000063758              -0.000639672               0.999999989               0.000072536              -0.000662517               0.999999989               0.000082937              -0.000690383               0.999999989               0.000094180              -0.000721613               0.999999989               0.000105271              -0.000754991               0.999999989               0.000115509              -0.000789647               0.999999989               0.000124490              -0.000824814               0.999999989               0.000131726              -0.000860006               0.999999989               0.000137077              -0.000894967               0.999999989               0.000140853              -0.000929554               0.999999989               0.000143576              -0.000964039               0.999999989               0.000145706              -0.000998383               0.999999989               0.000147589              -0.001032497               0.999999989               0.000099204              -0.000723170               0.999999989               0.000053269              -0.000688851               0.999999989               0.000039298              -0.000676128               0.999999989               0.000038109              -0.000678471               0.999999989               0.000042443              -0.000690908               0.999999989               0.000049382              -0.000710243               0.999999989               0.000058007              -0.000734639               0.999999989               0.000067590              -0.000762691               0.999999989               0.000077306              -0.000793286               0.999999989               0.000086482              -0.000825555               0.999999989               0.000094652              -0.000858839               0.999999989               0.000101288              -0.000892489               0.999999989               0.000105988              -0.000926174               0.999999989               0.000108662              -0.000959627               0.999999989               0.000109645              -0.000992972               0.999999989               0.000109329              -0.001026320               0.999999989               0.000108131              -0.001059764               0.999999989               0.000080967              -0.000758951               0.999999989               0.000039985              -0.000737179               0.999999989               0.000025698              -0.000728104               0.999999989               0.000022776              -0.000730295               0.999999989               0.000025172              -0.000741005               0.999999989               0.000030198              -0.000757982               0.999999989               0.000036783              -0.000779787               0.999999989               0.000044468              -0.000805324               0.999999989               0.000052450              -0.000833632               0.999999989               0.000060127              -0.000863901               0.999999989               0.000067151              -0.000895568               0.999999989               0.000072923              -0.000928068               0.999999989               0.000076992              -0.000960921               0.999999989               0.000078712              -0.000993812               0.999999989               0.000078118              -0.001026570               0.999999989               0.000075260              -0.001059237               0.999999989               0.000070163              -0.001092044               0.999999989               0.000061687              -0.000787314               0.999999989               0.000028418              -0.000777235               0.999999989               0.000015591              -0.000772874               0.999999989               0.000011873              -0.000776310               0.999999989               0.000012695              -0.000786563               0.999999989               0.000015962              -0.000802365               0.999999989               0.000020525              -0.000822589               0.999999989               0.000026076              -0.000846327               0.999999989               0.000032065              -0.000872977               0.999999989               0.000037958              -0.000901862               0.999999989               0.000043321              -0.000932477               0.999999989               0.000047790              -0.000964397               0.999999989               0.000050944              -0.000997055               0.999999989               0.000052064              -0.001030119               0.999999989               0.000050625              -0.001063258               0.999999989               0.000046191              -0.001096236               0.999999989               0.000038139              -0.001129109               0.999999989               0.000041590              -0.000807849               0.999999989               0.000018206              -0.000807190               0.999999989               0.000008537              -0.000807463               0.999999989               0.000005213              -0.000812824               0.999999989               0.000005077              -0.000823548               0.999999989               0.000006792              -0.000839113               0.999999989               0.000009685              -0.000858677               0.999999989               0.000013097              -0.000881541               0.999999989               0.000016971              -0.000907141               0.999999989               0.000020826              -0.000935167               0.999999989               0.000024374              -0.000965143               0.999999989               0.000027358              -0.000996651               0.999999989               0.000029496              -0.001029342               0.999999989               0.000030166              -0.001062843               0.999999989               0.000028639              -0.001096829               0.999999989               0.000024288              -0.001130937               0.999999989               0.000016161              -0.001164787               0.999999989               0.000020941              -0.000820205               0.999999989               0.000008897              -0.000825663               0.999999989               0.000003697              -0.000829305               0.999999989               0.000001787              -0.000836391               0.999999989               0.000001381              -0.000847890               0.999999989               0.000002094              -0.000863651               0.999999989               0.000003440              -0.000883101               0.999999989               0.000005078              -0.000905674               0.999999989               0.000006879              -0.000930949               0.999999989               0.000008739              -0.000958515               0.999999989               0.000010492              -0.000988057               0.999999989               0.000012045              -0.001019316               0.999999989               0.000013098              -0.001052002               0.999999989               0.000013353              -0.001085929               0.999999989               0.000012413              -0.001120714               0.999999989               0.000009706              -0.001155813               0.999999989               0.000004643              -0.001190674               0.999999989               0.000000000              -0.000824299               0.999999989              -0.000000000              -0.000831877               0.999999989              -0.000000000              -0.000836742               0.999999989               0.000000000              -0.000844584               0.999999989              -0.000000000              -0.000856486               0.999999989               0.000000000              -0.000872361               0.999999989              -0.000000000              -0.000891829               0.999999989               0.000000000              -0.000914347               0.999999989               0.000000000              -0.000939481               0.999999989              -0.000000000              -0.000966880               0.999999989              -0.000000000              -0.000996304               0.999999989               0.000000000              -0.001027496               0.999999989              -0.000000000              -0.001060301               0.999999989              -0.000000000              -0.001094428               0.999999989               0.000000000              -0.001129498               0.999999989              -0.000000000              -0.001165050               0.999999989               0.000000000              -0.001200359               0.999999989               0.000212198              -0.000000000               0.999999989               0.000244228              -0.000000000               0.999999989               0.000259142               0.000000000               0.999999989               0.000267775               0.000000000               0.999999989               0.000274342              -0.000000000               0.999999989               0.000280685               0.000000000               0.999999989               0.000287554               0.000000000               0.999999989               0.000295258               0.000000000               0.999999989               0.000304162               0.000000000               0.999999989               0.000314381              -0.000000000               0.999999989               0.000325867               0.000000000               0.999999989               0.000338479              -0.000000000               0.999999989               0.000352125               0.000000000               0.999999989               0.000366649              -0.000000000               0.999999989               0.000381796               0.000000000               0.999999989               0.000397295               0.000000000               0.999999989               0.000412820              -0.000000000               0.999999989               0.000211019               0.000080805               0.999999989               0.000241303               0.000069372               0.999999989               0.000255162               0.000065369               0.999999989               0.000263194               0.000065279               0.999999989               0.000269429               0.000067448               0.999999989               0.000275596               0.000070912               0.999999989               0.000282466               0.000075222               0.999999989               0.000290381               0.000080315               0.999999989               0.000299504               0.000085978               0.999999989               0.000309802               0.000091958               0.999999989               0.000321277               0.000098058               0.999999989               0.000333897               0.000104154               0.999999989               0.000347498               0.000110008               0.999999989               0.000361817               0.000115406               0.999999989               0.000376611               0.000120053               0.999999989               0.000391668               0.000123647               0.999999989               0.000406705               0.000125947               0.999999989               0.000207570               0.000160742               0.999999989               0.000232761               0.000138034               0.999999989               0.000243663               0.000130570               0.999999989               0.000250141               0.000130895               0.999999989               0.000255652               0.000135477               0.999999989               0.000261582               0.000142644               0.999999989               0.000268520               0.000151572               0.999999989               0.000276728               0.000161766               0.999999989               0.000286196               0.000172963               0.999999989               0.000296729               0.000184804               0.999999989               0.000308254               0.000196855               0.999999989               0.000320631               0.000208826               0.999999989               0.000333617               0.000220472               0.999999989               0.000347013               0.000231180               0.999999989               0.000360647               0.000240463               0.999999989               0.000374345               0.000248057               0.999999989               0.000387951               0.000253328               0.999999989               0.000201938               0.000238979               0.999999989               0.000219083               0.000205461               0.999999989               0.000225782               0.000195389               0.999999989               0.000230247               0.000196846               0.999999989               0.000234922               0.000204377               0.999999989               0.000240705               0.000215606               0.999999989               0.000247894               0.000229331               0.999999989               0.000256575               0.000244799               0.999999989               0.000266476               0.000261458               0.999999989               0.000277278               0.000278870               0.999999989               0.000288798               0.000296496               0.999999989               0.000300675               0.000314041               0.999999989               0.000312779               0.000330915               0.999999989               0.000324935               0.000346571               0.999999989               0.000336988               0.000360594               0.999999989               0.000348962               0.000372802               0.999999989               0.000360861               0.000382737               0.999999989               0.000194313               0.000314704               0.999999989               0.000201040               0.000271253               0.999999989               0.000203018               0.000259629               0.999999989               0.000205574               0.000262984               0.999999989               0.000209780               0.000273961               0.999999989               0.000215858               0.000289510               0.999999989               0.000223740               0.000308187               0.999999989               0.000233087               0.000328946               0.999999989               0.000243535               0.000350924               0.999999989               0.000254703               0.000373563               0.999999989               0.000266189               0.000396317               0.999999989               0.000277776               0.000418621               0.999999989               0.000289213               0.000440086               0.999999989               0.000300383               0.000460264               0.999999989               0.000311243               0.000478865               0.999999989               0.000321795               0.000495898               0.999999989               0.000332151               0.000511273               0.999999989               0.000184663               0.000387246               0.999999989               0.000179454               0.000335173               0.999999989               0.000177074               0.000323095               0.999999989               0.000178508               0.000328888               0.999999989               0.000183091               0.000343594               0.999999989               0.000190136               0.000363607               0.999999989               0.000199093               0.000387107               0.999999989               0.000209417               0.000412911               0.999999989               0.000220590               0.000439820               0.999999989               0.000232154               0.000467173               0.999999989               0.000243713               0.000494504               0.999999989               0.000254950               0.000521140               0.999999989               0.000265641               0.000546791               0.999999989               0.000275820               0.000571187               0.999999989               0.000285524               0.000594155               0.999999989               0.000294777               0.000615834               0.999999989               0.000303573               0.000636431               0.999999989               0.000173046               0.000455884               0.999999989               0.000155460               0.000397112               0.999999989               0.000149865               0.000385511               0.999999989               0.000151401               0.000394008               0.999999989               0.000157221               0.000412459               0.999999989               0.000165729               0.000436657               0.999999989               0.000175998               0.000464740               0.999999989               0.000187426               0.000495226               0.999999989               0.000199377               0.000526570               0.999999989               0.000211282               0.000558191               0.999999989               0.000222638               0.000589722               0.999999989               0.000233202               0.000620390               0.999999989               0.000242959               0.000649931               0.999999989               0.000251957               0.000678386               0.999999989               0.000260292               0.000705719               0.999999989               0.000268042               0.000732090               0.999999989               0.000275314               0.000757567               0.999999989               0.000159828               0.000519750               0.999999989               0.000130477               0.000456896               0.999999989               0.000123258               0.000446372               0.999999989               0.000126071               0.000457512               0.999999989               0.000133641               0.000479436               0.999999989               0.000143801               0.000507661               0.999999989               0.000155570               0.000540015               0.999999989               0.000168116               0.000574588               0.999999989               0.000180661               0.000609999               0.999999989               0.000192576               0.000645681               0.999999989               0.000203414               0.000681021               0.999999989               0.000213074               0.000715306               0.999999989               0.000221603               0.000748648               0.999999989               0.000229159               0.000781174               0.999999989               0.000236055               0.000812847               0.999999989               0.000242354               0.000843812               0.999999989               0.000248296               0.000873995               0.999999989               0.000145742               0.000577689               0.999999989               0.000105559               0.000514368               0.999999989               0.000098770               0.000505003               0.999999989               0.000103525               0.000518457               0.999999989               0.000113090               0.000543596               0.999999989               0.000125041               0.000575583               0.999999989               0.000138299               0.000611853               0.999999989               0.000151811               0.000650318               0.999999989               0.000164616               0.000689660               0.999999989               0.000176153               0.000729011               0.999999989               0.000186078               0.000767713               0.999999989               0.000194368               0.000805576               0.999999989               0.000201372               0.000842700               0.999999989               0.000207519               0.000879176               0.999999989               0.000213038               0.000915021               0.999999989               0.000218242               0.000950055               0.999999989               0.000223293               0.000984268               0.999999989               0.000131786               0.000631780               0.999999989               0.000085918               0.000575709               0.999999989               0.000076375               0.000562106               0.999999989               0.000079558               0.000570175               0.999999989               0.000087724               0.000590076               0.999999989               0.000098217               0.000617262               0.999999989               0.000110164               0.000649142               0.999999989               0.000122674               0.000683968               0.999999989               0.000134792               0.000720388               0.999999989               0.000145798               0.000757490               0.999999989               0.000155293               0.000794613               0.999999989               0.000163054               0.000831289               0.999999989               0.000169169               0.000867487               0.999999989               0.000174156               0.000903300               0.999999989               0.000178429               0.000938753               0.999999989               0.000182388               0.000973670               0.999999989               0.000186279               0.001007854               0.999999989               0.000116175               0.000680574               0.999999989               0.000068531               0.000634366               0.999999989               0.000056313               0.000619942               0.999999989               0.000057353               0.000624185               0.999999989               0.000063758               0.000639672               0.999999989               0.000072536               0.000662517               0.999999989               0.000082937               0.000690383               0.999999989               0.000094180               0.000721613               0.999999989               0.000105271               0.000754991               0.999999989               0.000115509               0.000789647               0.999999989               0.000124490               0.000824814               0.999999989               0.000131726               0.000860006               0.999999989               0.000137077               0.000894967               0.999999989               0.000140853               0.000929554               0.999999989               0.000143576               0.000964039               0.999999989               0.000145706               0.000998383               0.999999989               0.000147589               0.001032497               0.999999989               0.000099204               0.000723170               0.999999989               0.000053269               0.000688851               0.999999989               0.000039298               0.000676128               0.999999989               0.000038109               0.000678471               0.999999989               0.000042443               0.000690908               0.999999989               0.000049382               0.000710243               0.999999989               0.000058007               0.000734639               0.999999989               0.000067590               0.000762691               0.999999989               0.000077306               0.000793286               0.999999989               0.000086482               0.000825555               0.999999989               0.000094652               0.000858839               0.999999989               0.000101288               0.000892489               0.999999989               0.000105988               0.000926174               0.999999989               0.000108662               0.000959627               0.999999989               0.000109645               0.000992972               0.999999989               0.000109329               0.001026320               0.999999989               0.000108131               0.001059764               0.999999989               0.000080967               0.000758951               0.999999989               0.000039985               0.000737179               0.999999989               0.000025698               0.000728104               0.999999989               0.000022776               0.000730295               0.999999989               0.000025172               0.000741005               0.999999989               0.000030198               0.000757982               0.999999989               0.000036783               0.000779787               0.999999989               0.000044468               0.000805324               0.999999989               0.000052450               0.000833632               0.999999989               0.000060127               0.000863901               0.999999989               0.000067151               0.000895568               0.999999989               0.000072923               0.000928068               0.999999989               0.000076992               0.000960921               0.999999989               0.000078712               0.000993812               0.999999989               0.000078118               0.001026570               0.999999989               0.000075260               0.001059237               0.999999989               0.000070163               0.001092044               0.999999989               0.000061687               0.000787314               0.999999989               0.000028418               0.000777235               0.999999989               0.000015591               0.000772874               0.999999989               0.000011873               0.000776310               0.999999989               0.000012695               0.000786563               0.999999989               0.000015962               0.000802365               0.999999989               0.000020525               0.000822589               0.999999989               0.000026076               0.000846327               0.999999989               0.000032065               0.000872977               0.999999989               0.000037958               0.000901862               0.999999989               0.000043321               0.000932477               0.999999989               0.000047790               0.000964397               0.999999989               0.000050944               0.000997055               0.999999989               0.000052064               0.001030119               0.999999989               0.000050625               0.001063258               0.999999989               0.000046191               0.001096236               0.999999989               0.000038139               0.001129109               0.999999989               0.000041590               0.000807849               0.999999989               0.000018206               0.000807190               0.999999989               0.000008537               0.000807463               0.999999989               0.000005213               0.000812824               0.999999989               0.000005077               0.000823548               0.999999989               0.000006792               0.000839113               0.999999989               0.000009685               0.000858677               0.999999989               0.000013097               0.000881541               0.999999989               0.000016971               0.000907141               0.999999989               0.000020826               0.000935167               0.999999989               0.000024374               0.000965143               0.999999989               0.000027358               0.000996651               0.999999989               0.000029496               0.001029342               0.999999989               0.000030166               0.001062843               0.999999989               0.000028639               0.001096829               0.999999989               0.000024288               0.001130937               0.999999989               0.000016161               0.001164787               0.999999989               0.000020941               0.000820205               0.999999989               0.000008897               0.000825663               0.999999989               0.000003697               0.000829305               0.999999989               0.000001787               0.000836391               0.999999989               0.000001381               0.000847890               0.999999989               0.000002094               0.000863651               0.999999989               0.000003440               0.000883101               0.999999989               0.000005078               0.000905674               0.999999989               0.000006879               0.000930949               0.999999989               0.000008739               0.000958515               0.999999989               0.000010492               0.000988057               0.999999989               0.000012045               0.001019316               0.999999989               0.000013098               0.001052002               0.999999989               0.000013353               0.001085929               0.999999989               0.000012413               0.001120714               0.999999989               0.000009706               0.001155813               0.999999989               0.000004643               0.001190674               0.999999989               0.000000000               0.000824299               0.999999989               0.000000000               0.000831877               0.999999989              -0.000000000               0.000836742               0.999999989              -0.000000000               0.000844584               0.999999989               0.000000000               0.000856486               0.999999989              -0.000000000               0.000872361               0.999999989              -0.000000000               0.000891829               0.999999989               0.000000000               0.000914347               0.999999989              -0.000000000               0.000939481               0.999999989               0.000000000               0.000966880               0.999999989               0.000000000               0.000996304               0.999999989               0.000000000               0.001027496               0.999999989              -0.000000000               0.001060301               0.999999989              -0.000000000               0.001094428               0.999999989               0.000000000               0.001129498               0.999999989              -0.000000000               0.001165050               0.999999989              -0.000000000               0.001200359               0.999999989 </DataArray>
<DataArray type="Float64"                                    Name="defo"                                                      NumberOfComponents=" 3" format="ascii">
             -0.000212198               0.000000000               0.999999989              -0.000244228              -0.000000000               0.999999989              -0.000259142              -0.000000000               0.999999989              -0.000267775              -0.000000000               0.999999989              -0.000274342               0.000000000               0.999999989              -0.000280685               0.000000000               0.999999989              -0.000287554               0.000000000               0.999999989              -0.000295258               0.000000000               0.999999989              -0.000304162               0.000000000               0.999999989              -0.000314381               0.000000000               0.999999989              -0.000325867               0.000000000               0.999999989              -0.000338479               0.000000000               0.999999989              -0.000352125               0.000000000               0.999999989              -0.000366649               0.000000000               0.999999989              -0.000381796              -0.000000000               0.999999989              -0.000397295               0.000000000               0.999999989              -0.000412820               0.000000000               0.999999989              -0.000211019               0.000080805               0.999999989              -0.000241303               0.000069372               0.999999989              -0.000255162               0.000065369               0.999999989              -0.000263194               0.000065279               0.999999989              -0.000269429               0.000067448               0.999999989              -0.000275596               0.000070912               0.999999989              -0.000282466               0.000075222               0.999999989              -0.000290381               0.000080315               0.999999989              -0.000299504               0.000085978               0.999999989              -0.000309802               0.000091958               0.999999989              -0.000321277               0.000098058               0.999999989              -0.000333897               0.000104154               0.999999989              -0.000347498               0.000110008               0.999999989              -0.000361817               0.000115406               0.999999989              -0.000376611               0.000120053               0.999999989              -0.000391668               0.000123647               0.999999989              -0.000406705               0.000125947               0.999999989              -0.000207570               0.000160742               0.999999989              -0.000232761               0.000138034               0.999999989              -0.000243663               0.000130570               0.999999989              -0.000250141               0.000130895               0.999999989              -0.000255652               0.000135477               0.999999989              -0.000261582               0.000142644               0.999999989              -0.000268520               0.000151572               0.999999989              -0.000276728               0.000161766               0.999999989              -0.000286196               0.000172963               0.999999989              -0.000296729               0.000184804               0.999999989              -0.000308254               0.000196855               0.999999989              -0.000320631               0.000208826               0.999999989              -0.000333617               0.000220472               0.999999989              -0.000347013               0.000231180               0.999999989              -0.000360647               0.000240463               0.999999989              -0.000374345               0.000248057               0.999999989              -0.000387951               0.000253328               0.999999989              -0.000201938               0.000238979               0.999999989              -0.000219083               0.000205461               0.999999989              -0.000225782               0.000195389               0.999999989              -0.000230247               0.000196846               0.999999989              -0.000234922               0.000204377               0.999999989              -0.000240705               0.000215606               0.999999989              -0.000247894               0.000229331               0.999999989              -0.000256575               0.000244799               0.999999989              -0.000266476               0.000261458               0.999999989              -0.000277278               0.000278870               0.999999989              -0.000288798               0.000296496               0.999999989              -0.000300675               0.000314041               0.999999989              -0.000312779               0.000330915               0.999999989              -0.000324935               0.000346571               0.999999989              -0.000336988               0.000360594               0.999999989              -0.000348962               0.000372802               0.999999989              -0.000360861               0.000382737               0.999999989              -0.000194313               0.000314704               0.999999989              -0.000201040               0.000271253               0.999999989              -0.000203018               0.000259629               0.999999989              -0.000205574               0.000262984               0.999999989              -0.000209780               0.000273961               0.999999989              -0.000215858               0.000289510               0.999999989              -0.000223740               0.000308187               0.999999989              -0.000233087               0.000328946               0.999999989              -0.000243535               0.000350924               0.999999989              -0.000254703               0.000373563               0.999999989              -0.000266189               0.000396317               0.999999989              -0.000277776               0.000418621               0.999999989              -0.000289213               0.000440086               0.999999989              -0.000300383               0.000460264               0.999999989              -0.000311243               0.000478865               0.999999989              -0.000321795               0.000495898               0.999999989              -0.000332151               0.000511273               0.999999989              -0.000184663               0.000387246               0.999999989              -0.000179454               0.000335173               0.999999989              -0.000177074               0.000323095               0.999999989              -0.000178508               0.000328888               0.999999989              -0.000183091               0.000343594               0.999999989              -0.000190136               0.000363607               0.999999989              -0.000199093               0.000387107               0.999999989              -0.000209417               0.000412911               0.999999989              -0.000220590               0.000439820               0.999999989              -0.000232154               0.000467173               0.999999989              -0.000243713               0.000494504               0.999999989              -0.000254950               0.000521140               0.999999989              -0.000265641               0.000546791               0.999999989              -0.000275820               0.000571187               0.999999989              -0.000285524               0.000594155               0.999999989              -0.000294777               0.000615834               0.999999989              -0.000303573               0.000636431               0.999999989              -0.000173046               0.000455884               0.999999989              -0.000155460               0.000397112               0.999999989              -0.000149865               0.000385511               0.999999989              -0.000151401               0.000394008               0.999999989              -0.000157221               0.000412459               0.999999989              -0.000165729               0.000436657               0.999999989              -0.000175998               0.000464740               0.999999989              -0.000187426               0.000495226               0.999999989              -0.000199377               0.000526570               0.999999989              -0.000211282               0.000558191               0.999999989              -0.000222638               0.000589722               0.999999989              -0.000233202               0.000620390               0.999999989              -0.000242959               0.000649931               0.999999989              -0.000251957               0.000678386               0.999999989              -0.000260292               0.000705719               0.999999989              -0.000268042               0.000732090               0.999999989              -0.000275314               0.000757567               0.999999989              -0.000159828               0.000519750               0.999999989              -0.000130477               0.000456896               0.999999989              -0.000123258               0.000446372               0.999999989              -0.000126071               0.000457512               0.999999989              -0.000133641               0.000479436               0.999999989              -0.000143801               0.000507661               0.999999989              -0.000155570               0.000540015               0.999999989              -0.000168116               0.000574588               0.999999989              -0.000180661               0.000609999               0.999999989              -0.000192576               0.000645681               0.999999989              -0.000203414               0.000681021               0.999999989              -0.000213074               0.000715306               0.999999989              -0.000221603               0.000748648               0.999999989              -0.000229159               0.000781174               0.999999989              -0.000236055               0.000812847               0.999999989              -0.000242354               0.000843812               0.999999989              -0.000248296               0.000873995               0.999999989              -0.000145742               0.000577689               0.999999989              -0.000105559               0.000514368               0.999999989              -0.000098770               0.000505003               0.999999989              -0.000103525               0.000518457               0.999999989              -0.000113090               0.000543596               0.999999989              -0.000125041               0.000575583               0.999999989              -0.000138299               0.000611853               0.999999989              -0.000151811               0.000650318               0.999999989              -0.000164616               0.000689660               0.999999989              -0.000176153               0.000729011               0.999999989              -0.000186078               0.000767713               0.999999989              -0.000194368               0.000805576               0.999999989              -0.000201372               0.000842700               0.999999989              -0.000207519               0.000879176               0.999999989              -0.000213038               0.000915021               0.999999989              -0.000218242               0.000950055               0.999999989              -0.000223293               0.000984268               0.999999989              -0.000131786               0.000631780               0.999999989              -0.000085918               0.000575709               0.999999989              -0.000076375               0.000562106               0.999999989              -0.000079558               0.000570175               0.999999989              -0.000087724               0.000590076               0.999999989              -0.000098217               0.000617262               0.999999989              -0.000110164               0.000649142               0.999999989              -0.000122674               0.000683968               0.999999989              -0.000134792               0.000720388               0.999999989              -0.000145798               0.000757490               0.999999989              -0.000155293               0.000794613               0.999999989              -0.000163054               0.000831289               0.999999989              -0.000169169               0.000867487               0.999999989              -0.000174156               0.000903300               0.999999989              -0.000178429               0.000938753               0.999999989              -0.000182388               0.000973670               0.999999989              -0.000186279               0.001007854               0.999999989              -0.000116175               0.000680574               0.999999989              -0.000068531               0.000634366               0.999999989              -0.000056313               0.000619942               0.999999989              -0.000057353               0.000624185               0.999999989              -0.000063758               0.000639672               0.999999989              -0.000072536               0.000662517               0.999999989              -0.000082937               0.000690383               0.999999989              -0.000094180               0.000721613               0.999999989              -0.000105271               0.000754991               0.999999989              -0.000115509               0.000789647               0.999999989              -0.000124490               0.000824814               0.999999989              -0.000131726               0.000860006               0.999999989              -0.000137077               0.000894967               0.999999989              -0.000140853               0.000929554               0.999999989              -0.000143576               0.000964039               0.999999989              -0.000145706               0.000998383               0.999999989              -0.000147589               0.001032497               0.999999989              -0.000099204               0.000723170               0.999999989              -0.000053269               0.000688851               0.999999989              -0.000039298               0.000676128               0.999999989              -0.000038109               0.000678471               0.999999989              -0.000042443               0.000690908               0.999999989              -0.000049382               0.000710243               0.999999989              -0.000058007               0.000734639               0.999999989              -0.000067590               0.000762691               0.999999989              -0.000077306               0.000793286               0.999999989              -0.000086482               0.000825555               0.999999989              -0.000094652               0.000858839               0.999999989              -0.000101288               0.000892489               0.999999989              -0.000105988               0.000926174               0.999999989              -0.000108662               0.000959627               0.999999989              -0.000109645               0.000992972               0.999999989              -0.000109329               0.001026320               0.999999989              -0.000108131               0.001059764               0.999999989              -0.000080967               0.000758951               0.999999989              -0.000039985               0.000737179               0.999999989              -0.000025698               0.000728104               0.999999989              -0.000022776               0.000730295               0.999999989              -0.000025172               0.000741005               0.999999989              -0.000030198               0.000757982               0.999999989              -0.000036783               0.000779787               0.999999989              -0.000044468               0.000805324               0.999999989              -0.000052450               0.000833632               0.999999989              -0.000060127               0.000863901               0.999999989              -0.000067151               0.000895568               0.999999989              -0.000072923               0.000928068               0.999999989              -0.000076992               0.000960921               0.999999989              -0.000078712               0.000993812               0.999999989              -0.000078118               0.001026570               0.999999989              -0.000075260               0.001059237               0.999999989              -0.000070163               0.001092044               0.999999989              -0.000061687               0.000787314               0.999999989              -0.000028418               0.000777235               0.999999989              -0.000015591               0.000772874               0.999999989              -0.000011873               0.000776310               0.999999989              -0.000012695               0.000786563               0.999999989              -0.000015962               0.000802365               0.999999989              -0.000020525               0.000822589               0.999999989              -0.000026076               0.000846327               0.999999989              -0.000032065               0.000872977               0.999999989              -0.000037958               0.000901862               0.999999989              -0.000043321               0.000932477               0.999999989              -0.000047790               0.000964397               0.999999989              -0.000050944               0.000997055               0.999999989              -0.000052064               0.001030119               0.999999989              -0.000050625               0.001063258               0.999999989              -0.000046191               0.001096236               0.999999989              -0.000038139               0.001129109               0.999999989              -0.000041590               0.000807849               0.999999989              -0.000018206               0.000807190               0.999999989              -0.000008537               0.000807463               0.999999989              -0.000005213               0.000812824               0.999999989              -0.000005077               0.000823548               0.999999989              -0.000006792               0.000839113               0.999999989              -0.000009685               0.000858677               0.999999989              -0.000013097               0.000881541               0.999999989              -0.000016971               0.000907141               0.999999989              -0.000020826               0.000935167               0.999999989              -0.000024374               0.000965143               0.999999989              -0.000027358               0.000996651               0.999999989              -0.000029496               0.001029342               0.999999989              -0.000030166               0.001062843               0.999999989              -0.000028639               0.001096829               0.999999989              -0.000024288               0.001130937               0.999999989              -0.000016161               0.001164787               0.999999989              -0.000020941               0.000820205               0.999999989              -0.000008897               0.000825663               0.999999989              -0.000003697               0.000829305               0.999999989              -0.000001787               0.000836391               0.999999989              -0.000001381               0.000847890               0.999999989              -0.000002094               0.000863651               0.999999989              -0.000003440               0.000883101               0.999999989              -0.000005078               0.000905674               0.999999989              -0.000006879               0.000930949               0.999999989              -0.000008739               0.000958515               0.999999989              -0.000010492               0.000988057               0.999999989              -0.000012045               0.001019316               0.999999989              -0.000013098               0.001052002               0.999999989              -0.000013353               0.001085929               0.999999989              -0.000012413               0.001120714               0.999999989              -0.000009706               0.001155813               0.999999989              -0.000004643               0.001190674               0.999999989               0.000000000               0.000824299               0.999999989               0.000000000               0.000831877               0.999999989              -0.000000000               0.000836742               0.999999989              -0.000000000               0.000844584               0.999999989               0.000000000               0.000856486               0.999999989              -0.000000000               0.000872361               0.999999989              -0.000000000               0.000891829               0.999999989               0.000000000               0.000914347               0.999999989              -0.000000000               0.000939481               0.999999989               0.000000000               0.000966880               0.999999989               0.000000000               0.000996304               0.999999989               0.000000000               0.001027496               0.999999989              -0.000000000               0.001060301               0.999999989              -0.000000000               0.001094428               0.999999989               0.000000000               0.001129498               0.999999989              -0.000000000               0.001165050               0.999999989              -0.000000000               0.001200359               0.999999989              -0.000212198               0.000000000               0.999999989              -0.000244228              -0.000000000               0.999999989              -0.000259142              -0.000000000               0.999999989              -0.000267775              -0.000000000               0.999999989              -0.000274342               0.000000000               0.999999989              -0.000280685               0.000000000               0.999999989              -0.000287554               0.000000000               0.999999989              -0.000295258               0.000000000               0.999999989              -0.000304162               0.000000000               0.999999989              -0.000314381               0.000000000               0.999999989              -0.000325867               0.000000000               0.999999989              -0.000338479               0.000000000               0.999999989              -0.000352125               0.000000000               0.999999989              -0.000366649               0.000000000               0.999999989              -0.000381796              -0.000000000               0.999999989              -0.000397295               0.000000000               0.999999989              -0.000412820               0.000000000               0.999999989              -0.000211019              -0.000080805               0.999999989              -0.000241303              -0.000069372               0.999999989              -0.000255162              -0.000065369               0.999999989              -0.000263194              -0.000065279               0.999999989              -0.000269429              -0.000067448               0.999999989              -0.000275596              -0.000070912               0.999999989              -0.000282466              -0.000075222               0.999999989              -0.000290381              -0.000080315               0.999999989              -0.000299504              -0.000085978               0.999999989              -0.000309802              -0.000091958               0.999999989              -0.000321277              -0.000098058               0.999999989              -0.000333897              -0.000104154               0.999999989              -0.000347498              -0.000110008               0.999999989              -0.000361817              -0.000115406               0.999999989              -0.000376611              -0.000120053               0.999999989              -0.000391668              -0.000123647               0.999999989              -0.000406705              -0.000125947               0.999999989              -0.000207570              -0.000160742               0.999999989              -0.000232761              -0.000138034               0.999999989              -0.000243663              -0.000130570               0.999999989              -0.000250141              -0.000130895               0.999999989              -0.000255652              -0.000135477               0.999999989              -0.000261582              -0.000142644               0.999999989              -0.000268520              -0.000151572               0.999999989              -0.000276728              -0.000161766               0.999999989              -0.000286196              -0.000172963               0.999999989              -0.000296729              -0.000184804               0.999999989              -0.000308254              -0.000196855               0.999999989              -0.000320631              -0.000208826               0.999999989              -0.000333617              -0.000220472               0.999999989              -0.000347013              -0.000231180               0.999999989              -0.000360647              -0.000240463               0.999999989              -0.000374345              -0.000248057               0.999999989              -0.000387951              -0.000253328               0.999999989              -0.000201938              -0.000238979               0.999999989              -0.000219083              -0.000205461               0.999999989              -0.000225782              -0.000195389               0.999999989              -0.000230247              -0.000196846               0.999999989              -0.000234922              -0.000204377               0.999999989              -0.000240705              -0.000215606               0.999999989              -0.000247894              -0.000229331               0.999999989              -0.000256575              -0.000244799               0.999999989              -0.000266476              -0.000261458               0.999999989              -0.000277278              -0.000278870               0.999999989              -0.000288798              -0.000296496               0.999999989              -0.000300675              -0.000314041               0.999999989              -0.000312779              -0.000330915               0.999999989              -0.000324935              -0.000346571               0.999999989              -0.000336988              -0.000360594               0.999999989              -0.000348962              -0.000372802               0.999999989              -0.000360861              -0.000382737               0.999999989              -0.000194313              -0.000314704               0.999999989              -0.000201040              -0.000271253               0.999999989              -0.000203018              -0.000259629               0.999999989              -0.000205574              -0.000262984               0.999999989              -0.000209780              -0.000273961               0.999999989              -0.000215858              -0.000289510               0.999999989              -0.000223740              -0.000308187               0.999999989              -0.000233087              -0.000328946               0.999999989              -0.000243535              -0.000350924               0.999999989              -0.000254703              -0.000373563               0.999999989              -0.000266189              -0.000396317               0.999999989              -0.000277776              -0.000418621               0.999999989              -0.000289213              -0.000440086               0.999999989              -0.000300383              -0.000460264               0.999999989              -0.000311243              -0.000478865               0.999999989              -0.000321795              -0.000495898               0.999999989              -0.000332151              -0.000511273               0.999999989              -0.000184663              -0.000387246               0.999999989              -0.000179454              -0.000335173               0.999999989              -0.000177074              -0.000323095               0.999999989              -0.000178508              -0.000328888               0.999999989              -0.000183091              -0.000343594               0.999999989              -0.000190136              -0.000363607               0.999999989              -0.000199093              -0.000387107               0.999999989              -0.000209417              -0.000412911               0.999999989              -0.000220590              -0.000439820               0.999999989              -0.000232154              -0.000467173               0.999999989              -0.000243713              -0.000494504               0.999999989              -0.000254950              -0.000521140               0.999999989              -0.000265641              -0.000546791               0.999999989              -0.000275820              -0.000571187               0.999999989              -0.000285524              -0.000594155               0.999999989              -0.000294777              -0.000615834               0.999999989              -0.000303573              -0.000636431               0.999999989              -0.000173046              -0.000455884               0.999999989              -0.000155460              -0.000397112               0.999999989              -0.000149865              -0.000385511               0.999999989              -0.000151401              -0.000394008               0.999999989              -0.000157221              -0.000412459               0.999999989              -0.000165729              -0.000436657               0.999999989              -0.000175998              -0.000464740               0.999999989              -0.000187426              -0.000495226               0.999999989              -0.000199377              -0.000526570               0.999999989              -0.000211282              -0.000558191               0.999999989              -0.000222638              -0.000589722               0.999999989              -0.000233202              -0.000620390               0.999999989              -0.000242959              -0.000649931               0.999999989              -0.000251957              -0.000678386               0.999999989              -0.000260292              -0.000705719               0.999999989              -0.000268042              -0.000732090               0.999999989              -0.000275314              -0.000757567               0.999999989              -0.000159828              -0.000519750               0.999999989              -0.000130477              -0.000456896               0.999999989              -0.000123258              -0.000446372               0.999999989              -0.000126071              -0.000457512               0.999999989              -0.000133641              -0.000479436               0.999999989              -0.000143801              -0.000507661               0.999999989              -0.000155570              -0.000540015               0.999999989              -0.000168116              -0.000574588               0.999999989              -0.000180661              -0.000609999               0.999999989              -0.000192576              -0.000645681               0.999999989              -0.000203414              -0.000681021               0.999999989              -0.000213074              -0.000715306               0.999999989              -0.000221603              -0.000748648               0.999999989              -0.000229159              -0.000781174               0.999999989              -0.000236055              -0.000812847               0.999999989              -0.000242354              -0.000843812               0.999999989              -0.000248296              -0.000873995               0.999999989              -0.000145742              -0.000577689               0.999999989              -0.000105559              -0.000514368               0.999999989              -0.000098770              -0.000505003               0.999999989              -0.000103525              -0.000518457               0.999999989              -0.000113090              -0.000543596               0.999999989              -0.000125041              -0.000575583               0.999999989              -0.000138299              -0.000611853               0.999999989              -0.000151811              -0.000650318               0.999999989              -0.000164616              -0.000689660               0.999999989              -0.000176153              -0.000729011               0.999999989              -0.000186078              -0.000767713               0.999999989              -0.000194368              -0.000805576               0.999999989              -0.000201372              -0.000842700               0.999999989              -0.000207519              -0.000879176               0.999999989              -0.000213038              -0.000915021               0.999999989              -0.000218242              -0.000950055               0.999999989              -0.000223293              -0.000984268               0.999999989              -0.000131786              -0.000631780               0.999999989              -0.000085918              -0.000575709               0.999999989              -0.000076375              -0.000562106               0.999999989              -0.000079558              -0.000570175               0.999999989              -0.000087724              -0.000590076               0.999999989              -0.000098217              -0.000617262               0.999999989              -0.000110164              -0.000649142               0.999999989              -0.000122674              -0.000683968               0.999999989              -0.000134792              -0.000720388               0.999999989              -0.000145798              -0.000757490               0.999999989              -0.000155293              -0.000794613               0.999999989              -0.000163054              -0.000831289               0.999999989              -0.000169169              -0.000867487               0.999999989              -0.000174156              -0.000903300               0.999999989              -0.000178429              -0.000938753               0.999999989              -0.000182388              -0.000973670               0.999999989              -0.000186279              -0.001007854               0.999999989              -0.000116175              -0.000680574               0.999999989              -0.000068531              -0.000634366               0.999999989              -0.000056313              -0.000619942               0.999999989              -0.000057353              -0.000624185               0.999999989              -0.000063758              -0.000639672               0.999999989              -0.000072536              -0.000662517               0.999999989              -0.000082937              -0.000690383               0.999999989              -0.000094180              -0.000721613               0.999999989              -0.000105271              -0.000754991               0.999999989              -0.000115509              -0.000789647               0.999999989              -0.000124490              -0.000824814               0.999999989              -0.000131726              -0.000860006               0.999999989              -0.000137077              -0.000894967               0.999999989              -0.000140853              -0.000929554               0.999999989              -0.000143576              -0.000964039               0.999999989              -0.000145706              -0.000998383               0.999999989              -0.000147589              -0.001032497               0.999999989              -0.000099204              -0.000723170               0.999999989              -0.000053269              -0.000688851               0.999999989              -0.000039298              -0.000676128               0.999999989              -0.000038109              -0.000678471               0.999999989              -0.000042443              -0.000690908               0.999999989              -0.000049382              -0.000710243               0.999999989              -0.000058007              -0.000734639               0.999999989              -0.000067590              -0.000762691               0.999999989              -0.000077306              -0.000793286               0.999999989              -0.000086482              -0.000825555               0.999999989              -0.000094652              -0.000858839               0.999999989              -0.000101288              -0.000892489               0.999999989              -0.000105988              -0.000926174               0.999999989              -0.000108662              -0.000959627               0.999999989              -0.000109645              -0.000992972               0.999999989              -0.000109329              -0.001026320               0.999999989              -0.000108131              -0.001059764               0.999999989              -0.000080967              -0.000758951               0.999999989              -0.000039985              -0.000737179               0.999999989              -0.000025698              -0.000728104               0.999999989              -0.000022776              -0.000730295               0.999999989              -0.000025172              -0.000741005               0.999999989              -0.000030198              -0.000757982               0.999999989              -0.000036783              -0.000779787               0.999999989              -0.000044468              -0.000805324               0.999999989              -0.000052450              -0.000833632               0.999999989              -0.000060127              -0.000863901               0.999999989              -0.000067151              -0.000895568               0.999999989              -0.000072923              -0.000928068               0.999999989              -0.000076992              -0.000960921               0.999999989              -0.000078712              -0.000993812               0.999999989              -0.000078118              -0.001026570               0.999999989              -0.000075260              -0.001059237               0.999999989              -0.000070163              -0.001092044               0.999999989              -0.000061687              -0.000787314               0.999999989              -0.000028418              -0.000777235               0.999999989              -0.000015591              -0.000772874               0.999999989              -0.000011873              -0.000776310               0.999999989              -0.000012695              -0.000786563               0.999999989              -0.000015962              -0.000802365               0.999999989              -0.000020525              -0.000822589               0.999999989              -0.000026076              -0.000846327               0.999999989              -0.000032065              -0.000872977               0.999999989              -0.000037958              -0.000901862               0.999999989              -0.000043321              -0.000932477               0.999999989              -0.000047790              -0.000964397               0.999999989              -0.000050944              -0.000997055               0.999999989              -0.000052064              -0.001030119               0.999999989              -0.000050625              -0.001063258               0.999999989              -0.000046191              -0.001096236               0.999999989              -0.000038139              -0.001129109               0.999999989              -0.000041590              -0.000807849               0.999999989              -0.000018206              -0.000807190               0.999999989              -0.000008537              -0.000807463               0.999999989              -0.000005213              -0.000812824               0.999999989              -0.000005077              -0.000823548               0.999999989              -0.000006792              -0.000839113               0.999999989              -0.000009685              -0.000858677               0.999999989              -0.000013097              -0.000881541               0.999999989              -0.000016971              -0.000907141               0.999999989              -0.000020826              -0.000935167               0.999999989              -0.000024374              -0.000965143               0.999999989              -0.000027358              -0.000996651               0.999999989              -0.000029496              -0.001029342               0.999999989              -0.000030166              -0.001062843               0.999999989              -0.000028639              -0.001096829               0.999999989              -0.000024288              -0.001130937               0.999999989              -0.000016161              -0.001164787               0.999999989              -0.000020941              -0.000820205               0.999999989              -0.000008897              -0.000825663               0.999999989              -0.000003697              -0.000829305               0.999999989              -0.000001787              -0.000836391               0.999999989              -0.000001381              -0.000847890               0.999999989              -0.000002094              -0.000863651               0.999999989              -0.000003440              -0.000883101               0.999999989              -0.000005078              -0.000905674               0.999999989              -0.000006879              -0.000930949               0.999999989              -0.000008739              -0.000958515               0.999999989              -0.000010492              -0.000988057               0.999999989              -0.000012045              -0.001019316               0.999999989              -0.000013098              -0.001052002               0.999999989              -0.000013353              -0.001085929               0.999999989              -0.000012413              -0.001120714               0.999999989              -0.000009706              -0.001155813               0.999999989              -0.000004643              -0.001190674               0.999999989               0.000000000              -0.000824299               0.999999989              -0.000000000              -0.000831877               0.999999989              -0.000000000              -0.000836742               0.999999989               0.000000000              -0.000844584               0.999999989              -0.000000000              -0.000856486               0.999999989               0.000000000              -0.000872361               0.999999989              -0.000000000              -0.000891829               0.999999989               0.000000000              -0.000914347               0.999999989               0.000000000              -0.000939481               0.999999989              -0.000000000              -0.000966880               0.999999989              -0.000000000              -0.000996304               0.999999989               0.000000000              -0.001027496               0.999999989              -0.000000000              -0.001060301               0.999999989              -0.000000000              -0.001094428               0.999999989               0.000000000              -0.001129498               0.999999989              -0.000000000              -0.001165050               0.999999989               0.000000000              -0.001200359               0.999999989               0.000212198              -0.000000000               0.999999989               0.000244228              -0.000000000               0.999999989               0.000259142               0.000000000               0.999999989               0.000267775               0.000000000               0.999999989               0.000274342              -0.000000000               0.999999989               0.000280685               0.000000000               0.999999989               0.000287554               0.000000000               0.999999989               0.000295258               0.000000000               0.999999989               0.000304162               0.000000000               0.999999989               0.000314381              -0.000000000               0.999999989               0.000325867               0.000000000               0.999999989               0.000338479              -0.000000000               0.999999989               0.000352125               0.000000000               0.999999989               0.000366649              -0.000000000               0.999999989               0.000381796               0.000000000               0.999999989               0.000397295               0.000000000               0.999999989               0.000412820              -0.000000000               0.999999989               0.000211019              -0.000080805               0.999999989               0.000241303              -0.000069372               0.999999989               0.000255162              -0.000065369               0.999999989               0.000263194              -0.000065279               0.999999989               0.000269429              -0.000067448               0.999999989               0.000275596              -0.000070912               0.999999989               0.000282466              -0.000075222               0.999999989               0.000290381              -0.000080315               0.999999989               0.000299504              -0.000085978               0.999999989               0.000309802              -0.000091958               0.999999989               0.000321277              -0.000098058               0.999999989               0.000333897              -0.000104154               0.999999989               0.000347498              -0.000110008               0.999999989               0.000361817              -0.000115406               0.999999989               0.000376611              -0.000120053               0.999999989               0.000391668              -0.000123647               0.999999989               0.000406705              -0.000125947               0.999999989               0.000207570              -0.000160742               0.999999989               0.000232761              -0.000138034               0.999999989               0.000243663              -0.000130570               0.999999989               0.000250141              -0.000130895               0.999999989               0.000255652              -0.000135477               0.999999989               0.000261582              -0.000142644               0.999999989               0.000268520              -0.000151572               0.999999989               0.000276728              -0.000161766               0.999999989               0.000286196              -0.000172963               0.999999989               0.000296729              -0.000184804               0.999999989               0.000308254              -0.000196855               0.999999989               0.000320631              -0.000208826               0.999999989               0.000333617              -0.000220472               0.999999989               0.000347013              -0.000231180               0.999999989               0.000360647              -0.000240463               0.999999989               0.000374345              -0.000248057               0.999999989               0.000387951              -0.000253328               0.999999989               0.000201938              -0.000238979               0.999999989               0.000219083              -0.000205461               0.999999989               0.000225782              -0.000195389               0.999999989               0.000230247              -0.000196846               0.999999989               0.000234922              -0.000204377               0.999999989               0.000240705              -0.000215606               0.999999989               0.000247894              -0.000229331               0.999999989               0.000256575              -0.000244799               0.999999989               0.000266476              -0.000261458               0.999999989               0.000277278              -0.000278870               0.999999989               0.000288798              -0.000296496               0.999999989               0.000300675              -0.000314041               0.999999989               0.000312779              -0.000330915               0.999999989               0.000324935              -0.000346571               0.999999989               0.000336988              -0.000360594               0.999999989               0.000348962              -0.000372802               0.999999989               0.000360861              -0.000382737               0.999999989               0.000194313              -0.000314704               0.999999989               0.000201040              -0.000271253               0.999999989               0.000203018              -0.000259629               0.999999989               0.000205574              -0.000262984               0.999999989               0.000209780              -0.000273961               0.999999989               0.000215858              -0.000289510               0.999999989               0.000223740              -0.000308187               0.999999989               0.000233087              -0.000328946               0.999999989               0.000243535              -0.000350924               0.999999989               0.000254703              -0.000373563               0.999999989               0.000266189              -0.000396317               0.999999989               0.000277776              -0.000418621               0.999999989               0.000289213              -0.000440086               0.999999989               0.000300383              -0.000460264               0.999999989               0.000311243              -0.000478865               0.999999989               0.000321795              -0.000495898               0.999999989               0.000332151              -0.000511273               0.999999989               0.000184663              -0.000387246               0.999999989               0.000179454              -0.000335173               0.999999989               0.000177074              -0.000323095               0.999999989               0.000178508              -0.000328888               0.999999989               0.000183091              -0.000343594               0.999999989               0.000190136              -0.000363607               0.999999989               0.000199093              -0.000387107               0.999999989               0.000209417              -0.000412911               0.999999989               0.000220590              -0.000439820               0.999999989               0.000232154              -0.000467173               0.999999989               0.000243713              -0.000494504               0.999999989               0.000254950              -0.000521140               0.999999989               0.000265641              -0.000546791               0.999999989               0.000275820              -0.000571187               0.999999989               0.000285524              -0.000594155               0.999999989               0.000294777              -0.000615834               0.999999989               0.000303573              -0.000636431               0.999999989               0.000173046              -0.000455884               0.999999989               0.000155460              -0.000397112               0.999999989               0.000149865              -0.000385511               0.999999989               0.000151401              -0.000394008               0.999999989               0.000157221              -0.000412459               0.999999989               0.000165729              -0.000436657               0.999999989               0.000175998              -0.000464740               0.999999989               0.000187426              -0.000495226               0.999999989               0.000199377              -0.000526570               0.999999989               0.000211282              -0.000558191               0.999999989               0.000222638              -0.000589722               0.999999989               0.000233202              -0.000620390               0.999999989               0.000242959              -0.000649931               0.999999989               0.000251957              -0.000678386               0.999999989               0.000260292              -0.000705719               0.999999989               0.000268042              -0.000732090               0.999999989               0.000275314              -0.000757567               0.999999989               0.000159828              -0.000519750               0.999999989               0.000130477              -0.000456896               0.999999989               0.000123258              -0.000446372               0.999999989               0.000126071              -0.000457512               0.999999989               0.000133641              -0.000479436               0.999999989               0.000143801              -0.000507661               0.999999989               0.000155570              -0.000540015               0.999999989               0.000168116              -0.000574588               0.999999989               0.000180661              -0.000609999               0.999999989               0.000192576              -0.000645681               0.999999989               0.000203414              -0.000681021               0.999999989               0.000213074              -0.000715306               0.999999989               0.000221603              -0.000748648               0.999999989               0.000229159              -0.000781174               0.999999989               0.000236055              -0.000812847               0.999999989               0.000242354              -0.000843812               0.999999989               0.000248296              -0.000873995               0.999999989               0.000145742              -0.000577689               0.999999989               0.000105559              -0.000514368               0.999999989               0.000098770              -0.000505003               0.999999989               0.000103525              -0.000518457               0.999999989               0.000113090              -0.000543596               0.999999989               0.000125041              -0.000575583               0.999999989               0.000138299              -0.000611853               0.999999989               0.000151811              -0.000650318               0.999999989               0.000164616              -0.000689660               0.999999989               0.000176153              -0.000729011               0.999999989               0.000186078              -0.000767713               0.999999989               0.000194368              -0.000805576               0.999999989               0.000201372              -0.000842700               0.999999989               0.000207519              -0.000879176               0.999999989               0.000213038              -0.000915021               0.999999989               0.000218242              -0.000950055               0.999999989               0.000223293              -0.000984268               0.999999989               0.000131786              -0.000631780               0.999999989               0.000085918              -0.000575709               0.999999989               0.000076375              -0.000562106               0.999999989               0.000079558              -0.000570175               0.999999989               0.000087724              -0.000590076               0.999999989               0.000098217              -0.000617262               0.999999989               0.000110164              -0.000649142               0.999999989               0.000122674              -0.000683968               0.999999989               0.000134792              -0.000720388               0.999999989               0.000145798              -0.000757490               0.999999989               0.000155293              -0.000794613               0.999999989               0.000163054              -0.000831289               0.999999989               0.000169169              -0.000867487               0.999999989               0.000174156              -0.000903300               0.999999989               0.000178429              -0.000938753               0.999999989               0.000182388              -0.000973670               0.999999989               0.000186279              -0.001007854               0.999999989               0.000116175              -0.000680574               0.999999989               0.000068531              -0.000634366               0.999999989               0.000056313              -0.000619942               0.999999989               0.000057353              -0.000624185               0.999999989               0.000063758              -0.000639672               0.999999989               0.000072536              -0.000662517               0.999999989               0.000082937              -0.000690383               0.999999989               0.000094180              -0.000721613               0.999999989               0.000105271              -0.000754991               0.999999989               0.000115509              -0.000789647               0.999999989               0.000124490              -0.000824814               0.999999989               0.000131726              -0.000860006               0.999999989               0.000137077              -0.000894967               0.999999989               0.000140853              -0.000929554               0.999999989               0.000143576              -0.000964039               0.999999989               0.000145706              -0.000998383               0.999999989               0.000147589              -0.001032497               0.999999989               0.000099204              -0.000723170               0.999999989               0.000053269              -0.000688851               0.999999989               0.000039298              -0.000676128               0.999999989               0.000038109              -0.000678471               0.999999989               0.000042443              -0.000690908               0.999999989               0.000049382              -0.000710243               0.999999989               0.000058007              -0.000734639               0.999999989               0.000067590              -0.000762691               0.999999989               0.000077306              -0.000793286               0.999999989               0.000086482              -0.000825555               0.999999989               0.000094652              -0.000858839               0.999999989               0.000101288              -0.000892489               0.999999989               0.000105988              -0.000926174               0.999999989               0.000108662              -0.000959627               0.999999989               0.000109645              -0.000992972               0.999999989               0.000109329              -0.001026320               0.999999989               0.000108131              -0.001059764               0.999999989               0.000080967              -0.000758951               0.999999989               0.000039985              -0.000737179               0.999999989               0.000025698              -0.000728104               0.999999989               0.000022776              -0.000730295               0.999999989               0.000025172              -0.000741005               0.999999989               0.000030198              -0.000757982               0.999999989               0.000036783              -0.000779787               0.999999989               0.000044468              -0.000805324               0.999999989               0.000052450              -0.000833632               0.999999989               0.000060127              -0.000863901               0.999999989               0.000067151              -0.000895568               0.999999989               0.000072923              -0.000928068               0.999999989               0.000076992              -0.000960921               0.999999989               0.000078712              -0.000993812               0.999999989               0.000078118              -0.001026570               0.999999989               0.000075260              -0.001059237               0.999999989               0.000070163              -0.001092044               0.999999989               0.000061687              -0.000787314               0.999999989               0.000028418              -0.000777235               0.999999989               0.000015591              -0.000772874               0.999999989               0.000011873              -0.000776310               0.999999989               0.000012695              -0.000786563               0.999999989               0.000015962              -0.000802365               0.999999989               0.000020525              -0.000822589               0.999999989               0.000026076              -0.000846327               0.999999989               0.000032065              -0.000872977               0.999999989               0.000037958              -0.000901862               0.999999989               0.000043321              -0.000932477               0.999999989               0.000047790              -0.000964397               0.999999989               0.000050944              -0.000997055               0.999999989               0.000052064              -0.001030119               0.999999989               0.000050625              -0.001063258               0.999999989               0.000046191              -0.001096236               0.999999989               0.000038139              -0.001129109               0.999999989               0.000041590              -0.000807849               0.999999989               0.000018206              -0.000807190               0.999999989               0.000008537              -0.000807463               0.999999989               0.000005213              -0.000812824               0.999999989               0.000005077              -0.000823548               0.999999989               0.000006792              -0.000839113               0.999999989               0.000009685              -0.000858677               0.999999989               0.000013097              -0.000881541               0.999999989               0.000016971              -0.000907141               0.999999989               0.000020826              -0.000935167               0.999999989               0.000024374              -0.000965143               0.999999989               0.000027358              -0.000996651               0.999999989               0.000029496              -0.001029342               0.999999989               0.000030166              -0.001062843               0.999999989               0.000028639              -0.001096829               0.999999989               0.000024288              -0.001130937               0.999999989               0.000016161              -0.001164787               0.999999989               0.000020941              -0.000820205               0.999999989               0.000008897              -0.000825663               0.999999989               0.000003697              -0.000829305               0.999999989               0.000001787              -0.000836391               0.999999989               0.000001381              -0.000847890               0.999999989               0.000002094              -0.000863651               0.999999989               0.000003440              -0.000883101               0.999999989               0.000005078              -0.000905674               0.999999989               0.000006879              -0.000930949               0.999999989               0.000008739              -0.000958515               0.999999989               0.000010492              -0.000988057               0.999999989               0.000012045              -0.001019316               0.999999989               0.000013098              -0.001052002               0.999999989               0.000013353              -0.001085929               0.999999989               0.000012413              -0.001120714               0.999999989               0.000009706              -0.001155813               0.999999989               0.000004643              -0.001190674               0.999999989               0.000000000              -0.000824299               0.999999989              -0.000000000              -0.000831877               0.999999989              -0.000000000              -0.000836742               0.999999989               0.000000000              -0.000844584               0.999999989              -0.000000000              -0.000856486               0.999999989               0.000000000              -0.000872361               0.999999989              -0.000000000              -0.000891829               0.999999989               0.000000000              -0.000914347               0.999999989               0.000000000              -0.000939481               0.999999989              -0.000000000              -0.000966880               0.999999989              -0.000000000              -0.000996304               0.999999989               0.000000000              -0.001027496               0.999999989              -0.000000000              -0.001060301               0.999999989              -0.000000000              -0.001094428               0.999999989               0.000000000              -0.001129498               0.999999989              -0.000000000              -0.001165050               0.999999989               0.000000000              -0.001200359               0.999999989               0.000212198              -0.000000000               0.999999989               0.000244228              -0.000000000               0.999999989               0.000259142               0.000000000               0.999999989               0.000267775               0.000000000               0.999999989               0.000274342              -0.000000000               0.999999989               0.000280685               0.000000000               0.999999989               0.000287554               0.000000000               0.999999989               0.000295258               0.000000000               0.999999989               0.000304162               0.000000000               0.999999989               0.000314381              -0.000000000               0.999999989               0.000325867               0.000000000               0.999999989               0.000338479              -0.000000000               0.999999989               0.000352125               0.000000000               0.999999989               0.000366649              -0.000000000               0.999999989               0.000381796               0.000000000               0.999999989               0.000397295               0.000000000               0.999999989               0.000412820              -0.000000000               0.999999989               0.000211019               0.000080805               0.999999989               0.000241303               0.000069372               0.999999989               0.000255162               0.000065369               0.999999989               0.000263194               0.000065279               0.999999989               0.000269429               0.000067448               0.999999989               0.000275596               0.000070912               0.999999989               0.000282466               0.000075222               0.999999989               0.000290381               0.000080315               0.999999989               0.000299504               0.000085978               0.999999989               0.000309802               0.000091958               0.999999989               0.000321277               0.000098058               0.999999989               0.000333897               0.000104154               0.999999989               0.000347498               0.000110008               0.999999989               0.000361817               0.000115406               0.999999989               0.000376611               0.000120053               0.999999989               0.000391668               0.000123647               0.999999989               0.000406705               0.000125947               0.999999989               0.000207570               0.000160742               0.999999989               0.000232761               0.000138034               0.999999989               0.000243663               0.000130570               0.999999989               0.000250141               0.000130895               0.999999989               0.000255652               0.000135477               0.999999989               0.000261582               0.000142644               0.999999989               0.000268520               0.000151572               0.999999989               0.000276728               0.000161766               0.999999989               0.000286196               0.000172963               0.999999989               0.000296729               0.000184804               0.999999989               0.000308254               0.000196855               0.999999989               0.000320631               0.000208826               0.999999989               0.000333617               0.000220472               0.999999989               0.000347013               0.000231180               0.999999989               0.000360647               0.000240463               0.999999989               0.000374345               0.000248057               0.999999989               0.000387951               0.000253328               0.999999989               0.000201938               0.000238979               0.999999989               0.000219083               0.000205461               0.999999989               0.000225782               0.000195389               0.999999989               0.000230247               0.000196846               0.999999989               0.000234922               0.000204377               0.999999989               0.000240705               0.000215606               0.999999989               0.000247894               0.000229331               0.999999989               0.000256575               0.000244799               0.999999989               0.000266476               0.000261458               0.999999989               0.000277278               0.000278870               0.999999989               0.000288798               0.000296496               0.999999989               0.000300675               0.000314041               0.999999989               0.000312779               0.000330915               0.999999989               0.000324935               0.000346571               0.999999989               0.000336988               0.000360594               0.999999989               0.000348962               0.000372802               0.999999989               0.000360861               0.000382737               0.999999989               0.000194313               0.000314704               0.999999989               0.000201040               0.000271253               0.999999989               0.000203018               0.000259629               0.999999989               0.000205574               0.000262984               0.999999989               0.000209780               0.000273961               0.999999989               0.000215858               0.000289510               0.999999989               0.000223740               0.000308187               0.999999989               0.000233087               0.000328946               0.999999989               0.000243535               0.000350924               0.999999989               0.000254703               0.000373563               0.999999989               0.000266189               0.000396317               0.999999989               0.000277776               0.000418621               0.999999989               0.000289213               0.000440086               0.999999989               0.000300383               0.000460264               0.999999989               0.000311243               0.000478865               0.999999989               0.000321795               0.000495898               0.999999989               0.000332151               0.000511273               0.999999989               0.000184663               0.000387246               0.999999989               0.000179454               0.000335173               0.999999989               0.000177074               0.000323095               0.999999989               0.000178508               0.000328888               0.999999989               0.000183091               0.000343594               0.999999989               0.000190136               0.000363607               0.999999989               0.000199093               0.000387107               0.999999989               0.000209417               0.000412911               0.999999989               0.000220590               0.000439820               0.999999989               0.000232154               0.000467173               0.999999989               0.000243713               0.000494504               0.999999989               0.000254950               0.000521140               0.999999989               0.000265641               0.000546791               0.999999989               0.000275820               0.000571187               0.999999989               0.000285524               0.000594155               0.999999989               0.000294777               0.000615834               0.999999989               0.000303573               0.000636431               0.999999989               0.000173046               0.000455884               0.999999989               0.000155460               0.000397112               0.999999989               0.000149865               0.000385511               0.999999989               0.000151401               0.000394008               0.999999989               0.000157221               0.000412459               0.999999989               0.000165729               0.000436657               0.999999989               0.000175998               0.000464740               0.999999989               0.000187426               0.000495226               0.999999989               0.000199377               0.000526570               0.999999989               0.000211282               0.000558191               0.999999989               0.000222638               0.000589722               0.999999989               0.000233202               0.000620390               0.999999989               0.000242959               0.000649931               0.999999989               0.000251957               0.000678386               0.999999989               0.000260292               0.000705719               0.999999989               0.000268042               0.000732090               0.999999989               0.000275314               0.000757567               0.999999989               0.000159828               0.000519750               0.999999989               0.000130477               0.000456896               0.999999989               0.000123258               0.000446372               0.999999989               0.000126071               0.000457512               0.999999989               0.000133641               0.000479436               0.999999989               0.000143801               0.000507661               0.999999989               0.000155570               0.000540015               0.999999989               0.000168116               0.000574588               0.999999989               0.000180661               0.000609999               0.999999989               0.000192576               0.000645681               0.999999989               0.000203414               0.000681021               0.999999989               0.000213074               0.000715306               0.999999989               0.000221603               0.000748648               0.999999989               0.000229159               0.000781174               0.999999989               0.000236055               0.000812847               0.999999989               0.000242354               0.000843812               0.999999989               0.000248296               0.000873995               0.999999989               0.000145742               0.000577689               0.999999989               0.000105559               0.000514368               0.999999989               0.000098770               0.000505003               0.999999989               0.000103525               0.000518457               0.999999989               0.000113090               0.000543596               0.999999989               0.000125041               0.000575583               0.999999989               0.000138299               0.000611853               0.999999989               0.000151811               0.000650318               0.999999989               0.000164616               0.000689660               0.999999989               0.000176153               0.000729011               0.999999989               0.000186078               0.000767713               0.999999989               0.000194368               0.000805576               0.999999989               0.000201372               0.000842700               0.999999989               0.000207519               0.000879176               0.999999989               0.000213038               0.000915021               0.999999989               0.000218242               0.000950055               0.999999989               0.000223293               0.000984268               0.999999989               0.000131786               0.000631780               0.999999989               0.000085918               0.000575709               0.999999989               0.000076375               0.000562106               0.999999989               0.000079558               0.000570175               0.999999989               0.000087724               0.000590076               0.999999989               0.000098217               0.000617262               0.999999989               0.000110164               0.000649142               0.999999989               0.000122674               0.000683968               0.999999989               0.000134792               0.000720388               0.999999989               0.000145798               0.000757490               0.999999989               0.000155293               0.000794613               0.999999989               0.000163054               0.000831289               0.999999989               0.000169169               0.000867487               0.999999989               0.000174156               0.000903300               0.999999989               0.000178429               0.000938753               0.999999989               0.000182388               0.000973670               0.999999989               0.000186279               0.001007854               0.999999989               0.000116175               0.000680574               0.999999989               0.000068531               0.000634366               0.999999989               0.000056313               0.000619942               0.999999989               0.000057353               0.000624185               0.999999989               0.000063758               0.000639672               0.999999989               0.000072536               0.000662517               0.999999989               0.000082937               0.000690383               0.999999989               0.000094180               0.000721613               0.999999989               0.000105271               0.000754991               0.999999989               0.000115509               0.000789647               0.999999989               0.000124490               0.000824814               0.999999989               0.000131726               0.000860006               0.999999989               0.000137077               0.000894967               0.999999989               0.000140853               0.000929554               0.999999989               0.000143576               0.000964039               0.999999989               0.000145706               0.000998383               0.999999989               0.000147589               0.001032497               0.999999989               0.000099204               0.000723170               0.999999989               0.000053269               0.000688851               0.999999989               0.000039298               0.000676128               0.999999989               0.000038109               0.000678471               0.999999989               0.000042443               0.000690908               0.999999989               0.000049382               0.000710243               0.999999989               0.000058007               0.000734639               0.999999989               0.000067590               0.000762691               0.999999989               0.000077306               0.000793286               0.999999989               0.000086482               0.000825555               0.999999989               0.000094652               0.000858839               0.999999989               0.000101288               0.000892489               0.999999989               0.000105988               0.000926174               0.999999989               0.000108662               0.000959627               0.999999989               0.000109645               0.000992972               0.999999989               0.000109329               0.001026320               0.999999989               0.000108131               0.001059764               0.999999989               0.000080967               0.000758951               0.999999989               0.000039985               0.000737179               0.999999989               0.000025698               0.000728104               0.999999989               0.000022776               0.000730295               0.999999989               0.000025172               0.000741005               0.999999989               0.000030198               0.000757982               0.999999989               0.000036783               0.000779787               0.999999989               0.000044468               0.000805324               0.999999989               0.000052450               0.000833632               0.999999989               0.000060127               0.000863901               0.999999989               0.000067151               0.000895568               0.999999989               0.000072923               0.000928068               0.999999989               0.000076992               0.000960921               0.999999989               0.000078712               0.000993812               0.999999989               0.000078118               0.001026570               0.999999989               0.000075260               0.001059237               0.999999989               0.000070163               0.001092044               0.999999989               0.000061687               0.000787314               0.999999989               0.000028418               0.000777235               0.999999989               0.000015591               0.000772874               0.999999989               0.000011873               0.000776310               0.999999989               0.000012695               0.000786563               0.999999989               0.000015962               0.000802365               0.999999989               0.000020525               0.000822589               0.999999989               0.000026076               0.000846327               0.999999989               0.000032065               0.000872977               0.999999989               0.000037958               0.000901862               0.999999989               0.000043321               0.000932477               0.999999989               0.000047790               0.000964397               0.999999989               0.000050944               0.000997055               0.999999989               0.000052064               0.001030119               0.999999989               0.000050625               0.001063258               0.999999989               0.000046191               0.001096236               0.999999989               0.000038139               0.001129109               0.999999989               0.000041590               0.000807849               0.999999989               0.000018206               0.000807190               0.999999989               0.000008537               0.000807463               0.999999989               0.000005213               0.000812824               0.999999989               0.000005077               0.000823548               0.999999989               0.000006792               0.000839113               0.999999989               0.000009685               0.000858677               0.999999989               0.000013097               0.000881541               0.999999989               0.000016971               0.000907141               0.999999989               0.000020826               0.000935167               0.999999989               0.000024374               0.000965143               0.999999989               0.000027358               0.000996651               0.999999989               0.000029496               0.001029342               0.999999989               0.000030166               0.001062843               0.999999989               0.000028639               0.001096829               0.999999989               0.000024288               0.001130937               0.999999989               0.000016161               0.001164787               0.999999989               0.000020941               0.000820205               0.999999989               0.000008897               0.000825663               0.999999989               0.000003697               0.000829305               0.999999989               0.000001787               0.000836391               0.999999989               0.000001381               0.000847890               0.999999989               0.000002094               0.000863651               0.999999989               0.000003440               0.000883101               0.999999989               0.000005078               0.000905674               0.999999989               0.000006879               0.000930949               0.999999989               0.000008739               0.000958515               0.999999989               0.000010492               0.000988057               0.999999989               0.000012045               0.001019316               0.999999989               0.000013098               0.001052002               0.999999989               0.000013353               0.001085929               0.999999989               0.000012413               0.001120714               0.999999989               0.000009706               0.001155813               0.999999989               0.000004643               0.001190674               0.999999989               0.000000000               0.000824299               0.999999989               0.000000000               0.000831877               0.999999989              -0.000000000               0.000836742               0.999999989              -0.000000000               0.000844584               0.999999989               0.000000000               0.000856486               0.999999989              -0.000000000               0.000872361               0.999999989              -0.000000000               0.000891829               0.999999989               0.000000000               0.000914347               0.999999989              -0.000000000               0.000939481               0.999999989               0.000000000               0.000966880               0.999999989               0.000000000               0.000996304               0.999999989               0.000000000               0.001027496               0.999999989              -0.000000000               0.001060301               0.999999989              -0.000000000               0.001094428               0.999999989               0.000000000               0.001129498               0.999999989              -0.000000000               0.001165050               0.999999989              -0.000000000               0.001200359               0.999999989 </DataArray>
<DataArray type="Float64"                                    Name="stress"                                                      NumberOfComponents="10" format="ascii">
              0.001335925               0.014992473              -0.000000000              -0.001373084               0.005455135               0.004082052               0.000000000               0.000000000               0.000000000               0.000000000               0.001411625               0.012115143              -0.000000000              -0.000985031               0.004366684               0.003381653               0.000000000               0.000000000               0.000000000               0.000000000               0.001923015               0.009787185               0.000000000              -0.000502266               0.003429784               0.002927518               0.000000000               0.000000000               0.000000000               0.000000000               0.001946585               0.008489017               0.000000000              -0.000331157               0.002940030               0.002608873               0.000000000               0.000000000               0.000000000               0.000000000               0.001804808               0.007700871              -0.000000000              -0.000285805               0.002662200               0.002376395               0.000000000               0.000000000               0.000000000               0.000000000               0.001608396               0.007183593               0.000000000              -0.000294800               0.002492774               0.002197974               0.000000000               0.000000000               0.000000000               0.000000000               0.001405223               0.006829020               0.000000000              -0.000326668               0.002385207               0.002058539               0.000000000               0.000000000               0.000000000               0.000000000               0.001203042               0.006583968               0.000000000              -0.000371854               0.002318586               0.001946731               0.000000000               0.000000000               0.000000000               0.000000000               0.001002937               0.006408279              -0.000000000              -0.000424932               0.002277716               0.001852783               0.000000000               0.000000000               0.000000000               0.000000000               0.000814205               0.006274055              -0.000000000              -0.000478929               0.002250974               0.001772045               0.000000000               0.000000000               0.000000000               0.000000000               0.000640686               0.006162921              -0.000000000              -0.000530107               0.002230989               0.001700882               0.000000000               0.000000000               0.000000000               0.000000000               0.000483519               0.006062899              -0.000000000              -0.000576541               0.002213126               0.001636585               0.000000000               0.000000000               0.000000000               0.000000000               0.000343723               0.005961854               0.000000000              -0.000616334               0.002192710               0.001576375               0.000000000               0.000000000               0.000000000               0.000000000               0.000225980               0.005850962              -0.000000000              -0.000646626               0.002165843               0.001519217               0.000000000               0.000000000               0.000000000               0.000000000               0.000130281               0.005719676               0.000000000              -0.000666102               0.002128574               0.001462471               0.000000000               0.000000000               0.000000000               0.000000000               0.000057556               0.005559616               0.000000000              -0.000673367               0.002077643               0.001404276               0.000000000               0.000000000               0.000000000               0.000000000               0.000015374               0.005435722               0.000000000              -0.000673698               0.002036455               0.001362757               0.000000000               0.000000000               0.000000000               0.000000000               0.001401823               0.014712341              -0.001081122              -0.001313356               0.005341850               0.004028494               0.000000000               0.000000000               0.000000000               0.000000000               0.001412239               0.011923300              -0.000629379              -0.000960821               0.004294667               0.003333846               0.000000000               0.000000000               0.000000000               0.000000000               0.001854601               0.009694150              -0.000172312              -0.000516292               0.003403449               0.002887156               0.000000000               0.000000000               0.000000000               0.000000000               0.001850509               0.008449473               0.000030116              -0.000362242               0.002937210               0.002574968               0.000000000               0.000000000               0.000000000               0.000000000               0.001700012               0.007686038               0.000120173              -0.000323250               0.002669737               0.002346487               0.000000000               0.000000000               0.000000000               0.000000000               0.001502635               0.007183806               0.000158066              -0.000334487               0.002506074               0.002171587               0.000000000               0.000000000               0.000000000               0.000000000               0.001298044               0.006838855               0.000173549              -0.000368089               0.002402292               0.002034202               0.000000000               0.000000000               0.000000000               0.000000000               0.001098208               0.006593696               0.000177768              -0.000412383               0.002335338               0.001922955               0.000000000               0.000000000               0.000000000               0.000000000               0.000911724               0.006416046               0.000174428              -0.000460108               0.002292030               0.001831922               0.000000000               0.000000000               0.000000000               0.000000000               0.000739710               0.006280561               0.000166771              -0.000507678               0.002262725               0.001755048               0.000000000               0.000000000               0.000000000               0.000000000               0.000577165               0.006165921               0.000157223              -0.000554302               0.002240054               0.001685752               0.000000000               0.000000000               0.000000000               0.000000000               0.000429351               0.006061862               0.000145498              -0.000596725               0.002219509               0.001622784               0.000000000               0.000000000               0.000000000               0.000000000               0.000303688               0.005961511               0.000129645              -0.000631304               0.002197585               0.001566281               0.000000000               0.000000000               0.000000000               0.000000000               0.000200238               0.005852346               0.000108048              -0.000656452               0.002169580               0.001513128               0.000000000               0.000000000               0.000000000               0.000000000               0.000115251               0.005724793               0.000079680              -0.000672378               0.002132372               0.001459993               0.000000000               0.000000000               0.000000000               0.000000000               0.000050326               0.005575202               0.000043455              -0.000678026               0.002084391               0.001406365               0.000000000               0.000000000               0.000000000               0.000000000               0.000011743               0.005460699               0.000026113              -0.000678182               0.002046276               0.001368094               0.000000000               0.000000000               0.000000000               0.000000000               0.001577237               0.013911941              -0.002036205              -0.001147527               0.005019776               0.003872249               0.000000000               0.000000000               0.000000000               0.000000000               0.001407391               0.011381108              -0.001189274              -0.000894865               0.004091953               0.003197088               0.000000000               0.000000000               0.000000000               0.000000000               0.001656302               0.009426424              -0.000338603              -0.000557188               0.003327839               0.002770651               0.000000000               0.000000000               0.000000000               0.000000000               0.001576524               0.008324253               0.000026812              -0.000449334               0.002924501               0.002475167               0.000000000               0.000000000               0.000000000               0.000000000               0.001404803               0.007633210               0.000187145              -0.000427349               0.002686828               0.002259478               0.000000000               0.000000000               0.000000000               0.000000000               0.001210673               0.007172091               0.000257064              -0.000442508               0.002538176               0.002095668               0.000000000               0.000000000               0.000000000               0.000000000               0.001016624               0.006850161               0.000285371              -0.000475035               0.002441709               0.001966674               0.000000000               0.000000000               0.000000000               0.000000000               0.000834467               0.006612610               0.000294364              -0.000513650               0.002375398               0.001861748               0.000000000               0.000000000               0.000000000               0.000000000               0.000676935               0.006432046               0.000293661              -0.000550154               0.002327379               0.001777225               0.000000000               0.000000000               0.000000000               0.000000000               0.000538928               0.006288448               0.000284175              -0.000583957               0.002290781               0.001706824               0.000000000               0.000000000               0.000000000               0.000000000               0.000413326               0.006164986               0.000269610              -0.000615625               0.002260183               0.001644559               0.000000000               0.000000000               0.000000000               0.000000000               0.000304858               0.006054180               0.000253532              -0.000642449               0.002232190               0.001589740               0.000000000               0.000000000               0.000000000               0.000000000               0.000214696               0.005946832               0.000228992              -0.000662841               0.002203204               0.001540363               0.000000000               0.000000000               0.000000000               0.000000000               0.000140363               0.005835410               0.000191184              -0.000676789               0.002170713               0.001493925               0.000000000               0.000000000               0.000000000               0.000000000               0.000079527               0.005718528               0.000143918              -0.000684992               0.002134488               0.001449496               0.000000000               0.000000000               0.000000000               0.000000000               0.000033539               0.005599050               0.000082023              -0.000687302               0.002095432               0.001408130               0.000000000               0.000000000               0.000000000               0.000000000               0.000006185               0.005516719               0.000049562              -0.000687269               0.002067977               0.001380709               0.000000000               0.000000000               0.000000000               0.000000000               0.001803683               0.012693778              -0.002763429              -0.000910341               0.004534663               0.003624323               0.000000000               0.000000000               0.000000000               0.000000000               0.001376036               0.010566814              -0.001626835              -0.000804837               0.003790515               0.002985678               0.000000000               0.000000000               0.000000000               0.000000000               0.001349570               0.009020250              -0.000494893              -0.000621441               0.003213867               0.002592426               0.000000000               0.000000000               0.000000000               0.000000000               0.001176812               0.008118214              -0.000024960              -0.000573471               0.002897201               0.002323730               0.000000000               0.000000000               0.000000000               0.000000000               0.000988608               0.007530853               0.000177533              -0.000570627               0.002700468               0.002129841               0.000000000               0.000000000               0.000000000               0.000000000               0.000807941               0.007123926               0.000267768              -0.000587512               0.002570455               0.001982944               0.000000000               0.000000000               0.000000000               0.000000000               0.000640746               0.006830241               0.000305939              -0.000613499               0.002481224               0.001867725               0.000000000               0.000000000               0.000000000               0.000000000               0.000494835               0.006607190               0.000319445              -0.000640334               0.002415819               0.001775485               0.000000000               0.000000000               0.000000000               0.000000000               0.000378662               0.006426560               0.000321617              -0.000661320               0.002362605               0.001701285               0.000000000               0.000000000               0.000000000               0.000000000               0.000284783               0.006271748               0.000314503              -0.000677173               0.002316286               0.001639113               0.000000000               0.000000000               0.000000000               0.000000000               0.000210426               0.006134470               0.000301447              -0.000687897               0.002274102               0.001586205               0.000000000               0.000000000               0.000000000               0.000000000               0.000152651               0.006006046               0.000282228              -0.000693510               0.002233165               0.001539655               0.000000000               0.000000000               0.000000000               0.000000000               0.000104822               0.005881157               0.000250495              -0.000695835               0.002192311               0.001496476               0.000000000               0.000000000               0.000000000               0.000000000               0.000069462               0.005764438               0.000205196              -0.000694505               0.002152962               0.001458457               0.000000000               0.000000000               0.000000000               0.000000000               0.000041179               0.005659135               0.000151270              -0.000691948               0.002117009               0.001425061               0.000000000               0.000000000               0.000000000               0.000000000               0.000016271               0.005569911               0.000084840              -0.000690136               0.002086664               0.001396528               0.000000000               0.000000000               0.000000000               0.000000000               0.000001354               0.005522137               0.000049482              -0.000689758               0.002070613               0.001380856               0.000000000               0.000000000               0.000000000               0.000000000               0.001997469               0.011198333              -0.003203931              -0.000650742               0.003949654               0.003298912               0.000000000               0.000000000               0.000000000               0.000000000               0.001291448               0.009580407              -0.001915781              -0.000713257               0.003431189               0.002717932               0.000000000               0.000000000               0.000000000               0.000000000               0.000969460               0.008526783              -0.000643459              -0.000702299               0.003076332               0.002374033               0.000000000               0.000000000               0.000000000               0.000000000               0.000719375               0.007846458              -0.000134312              -0.000711040               0.002852473               0.002141433               0.000000000               0.000000000               0.000000000               0.000000000               0.000534742               0.007368996               0.000080736              -0.000720595               0.002696506               0.001975911               0.000000000               0.000000000               0.000000000               0.000000000               0.000385899               0.007019745               0.000180361              -0.000732754               0.002584143               0.001851389               0.000000000               0.000000000               0.000000000               0.000000000               0.000264048               0.006754151               0.000229217              -0.000745249               0.002499777               0.001754528               0.000000000               0.000000000               0.000000000               0.000000000               0.000168474               0.006541035               0.000250395              -0.000754450               0.002431806               0.001677357               0.000000000               0.000000000               0.000000000               0.000000000               0.000097163               0.006355213               0.000257351              -0.000757964               0.002371038               0.001613074               0.000000000               0.000000000               0.000000000               0.000000000               0.000050150               0.006187658               0.000256223              -0.000754649               0.002314082               0.001559433               0.000000000               0.000000000               0.000000000               0.000000000               0.000021989               0.006034290               0.000245636              -0.000746038               0.002260089               0.001514051               0.000000000               0.000000000               0.000000000               0.000000000               0.000006557               0.005887697               0.000226452              -0.000733501               0.002207046               0.001473545               0.000000000               0.000000000               0.000000000               0.000000000              -0.000000646               0.005751927               0.000197517              -0.000719231               0.002157034               0.001437802               0.000000000               0.000000000               0.000000000               0.000000000              -0.000003097               0.005632243               0.000156768              -0.000705190               0.002112459               0.001407269               0.000000000               0.000000000               0.000000000               0.000000000              -0.000001938               0.005533030               0.000109978              -0.000692354               0.002075110               0.001382756               0.000000000               0.000000000               0.000000000               0.000000000              -0.000001593               0.005458449               0.000059040              -0.000682902               0.002047099               0.001364197               0.000000000               0.000000000               0.000000000               0.000000000              -0.000005450               0.005423611               0.000034123              -0.000679993               0.002034517               0.001354523               0.000000000               0.000000000               0.000000000               0.000000000               0.002073205               0.009567660              -0.003352584              -0.000418508               0.003328690               0.002910182               0.000000000               0.000000000               0.000000000               0.000000000               0.001134174               0.008522817              -0.002064707              -0.000640037               0.003054256               0.002414219               0.000000000               0.000000000               0.000000000               0.000000000               0.000557388               0.007990851              -0.000798718              -0.000789834               0.002926868               0.002137034               0.000000000               0.000000000               0.000000000               0.000000000               0.000272216               0.007524350              -0.000305245              -0.000838461               0.002787578               0.001949118               0.000000000               0.000000000               0.000000000               0.000000000               0.000119339               0.007147477              -0.000091777              -0.000848680               0.002665362               0.001816682               0.000000000               0.000000000               0.000000000               0.000000000               0.000021218               0.006846795               0.000018530              -0.000847891               0.002564872               0.001716982               0.000000000               0.000000000               0.000000000               0.000000000              -0.000049130               0.006602420               0.000083894              -0.000843724               0.002482026               0.001638302               0.000000000               0.000000000               0.000000000               0.000000000              -0.000095231               0.006392572               0.000118068              -0.000834781               0.002409096               0.001574315               0.000000000               0.000000000               0.000000000               0.000000000              -0.000120846               0.006198335               0.000134588              -0.000820107               0.002339460               0.001519353               0.000000000               0.000000000               0.000000000               0.000000000              -0.000125717               0.006020388               0.000145187              -0.000799690               0.002273339               0.001473649               0.000000000               0.000000000               0.000000000               0.000000000              -0.000113750               0.005859488               0.000145005              -0.000775090               0.002211507               0.001436416               0.000000000               0.000000000               0.000000000               0.000000000              -0.000092608               0.005710340               0.000134857              -0.000748519               0.002152934               0.001404415               0.000000000               0.000000000               0.000000000               0.000000000              -0.000071114               0.005573913               0.000118133              -0.000723405               0.002099087               0.001375682               0.000000000               0.000000000               0.000000000               0.000000000              -0.000054102               0.005456992               0.000092412              -0.000702410               0.002053116               0.001350706               0.000000000               0.000000000               0.000000000               0.000000000              -0.000037438               0.005364893               0.000062603              -0.000684649               0.002016496               0.001331847               0.000000000               0.000000000               0.000000000               0.000000000              -0.000018883               0.005298647               0.000033918              -0.000669410               0.001989335               0.001319925               0.000000000               0.000000000               0.000000000               0.000000000              -0.000013718               0.005264675               0.000022762              -0.000663227               0.001975950               0.001312723               0.000000000               0.000000000               0.000000000               0.000000000               0.001990894               0.007922128              -0.003251935              -0.000243684               0.002721910               0.002478226               0.000000000               0.000000000               0.000000000               0.000000000               0.000916456               0.007473975              -0.002108518              -0.000590576               0.002688158               0.002097582               0.000000000               0.000000000               0.000000000               0.000000000               0.000165797               0.007438318              -0.000973101              -0.000867614               0.002768619               0.001901005               0.000000000               0.000000000               0.000000000               0.000000000              -0.000104236               0.007159939              -0.000522250              -0.000934079               0.002697982               0.001763903               0.000000000               0.000000000               0.000000000               0.000000000              -0.000204657               0.006867790              -0.000306052              -0.000935218               0.002600980               0.001665762               0.000000000               0.000000000               0.000000000               0.000000000              -0.000247315               0.006610337              -0.000176136              -0.000919033               0.002509768               0.001590735               0.000000000               0.000000000               0.000000000               0.000000000              -0.000268095               0.006385135              -0.000088773              -0.000898675               0.002427915               0.001529240               0.000000000               0.000000000               0.000000000               0.000000000              -0.000274211               0.006172740              -0.000035765              -0.000874420               0.002349033               0.001474613               0.000000000               0.000000000               0.000000000               0.000000000              -0.000260241               0.005975694              -0.000002477              -0.000844550               0.002273395               0.001428845               0.000000000               0.000000000               0.000000000               0.000000000              -0.000224391               0.005801061               0.000025964              -0.000809277               0.002203427               0.001394149               0.000000000               0.000000000               0.000000000               0.000000000              -0.000177611               0.005640907               0.000042835              -0.000771715               0.002137522               0.001365807               0.000000000               0.000000000               0.000000000               0.000000000              -0.000133471               0.005491448               0.000047223              -0.000736481               0.002075958               0.001339477               0.000000000               0.000000000               0.000000000               0.000000000              -0.000096408               0.005360731               0.000047090              -0.000706243               0.002022307               0.001316064               0.000000000               0.000000000               0.000000000               0.000000000              -0.000067969               0.005254152               0.000041059              -0.000682256               0.001978785               0.001296529               0.000000000               0.000000000               0.000000000               0.000000000              -0.000042921               0.005173193               0.000030200              -0.000662743               0.001945295               0.001282552               0.000000000               0.000000000               0.000000000               0.000000000              -0.000019981               0.005113895               0.000017314              -0.000646728               0.001920191               0.001273462               0.000000000               0.000000000               0.000000000               0.000000000              -0.000014208               0.005079344               0.000013093              -0.000640244               0.001906513               0.001266268               0.000000000               0.000000000               0.000000000               0.000000000               0.001769327               0.006364122              -0.002955249              -0.000132021               0.002165359               0.002033338               0.000000000               0.000000000               0.000000000               0.000000000               0.000661243               0.006489902              -0.002076099              -0.000563272               0.002351036               0.001787764               0.000000000               0.000000000               0.000000000               0.000000000              -0.000161015               0.006876933              -0.001162414              -0.000919995               0.002598953               0.001678958               0.000000000               0.000000000               0.000000000               0.000000000              -0.000374676               0.006753846              -0.000752601              -0.000984732               0.002579503               0.001594771               0.000000000               0.000000000               0.000000000               0.000000000              -0.000413944               0.006539851              -0.000521195              -0.000972708               0.002504164               0.001531456               0.000000000               0.000000000               0.000000000               0.000000000              -0.000409350               0.006326775              -0.000366924              -0.000944351               0.002423687               0.001479337               0.000000000               0.000000000               0.000000000               0.000000000              -0.000391158               0.006119706              -0.000258313              -0.000911645               0.002343764               0.001432118               0.000000000               0.000000000               0.000000000               0.000000000              -0.000358866               0.005915579              -0.000183676              -0.000874020               0.002263180               0.001389160               0.000000000               0.000000000               0.000000000               0.000000000              -0.000308242               0.005729928              -0.000127036              -0.000831830               0.002187233               0.001355404               0.000000000               0.000000000               0.000000000               0.000000000              -0.000243036               0.005560517              -0.000078482              -0.000786201               0.002115554               0.001329353               0.000000000               0.000000000               0.000000000               0.000000000              -0.000177157               0.005398588              -0.000043755              -0.000741256               0.002046597               0.001305341               0.000000000               0.000000000               0.000000000               0.000000000              -0.000121915               0.005253955              -0.000020213              -0.000702461               0.001985454               0.001282993               0.000000000               0.000000000               0.000000000               0.000000000              -0.000078974               0.005134304              -0.000000652              -0.000671402               0.001935218               0.001263817               0.000000000               0.000000000               0.000000000               0.000000000              -0.000050538               0.005036544               0.000010710              -0.000648518               0.001895004               0.001246486               0.000000000               0.000000000               0.000000000               0.000000000              -0.000030052               0.004958397               0.000013880              -0.000631068               0.001863138               0.001232071               0.000000000               0.000000000               0.000000000               0.000000000              -0.000014498               0.004892475               0.000010329              -0.000616994               0.001836474               0.001219479               0.000000000               0.000000000               0.000000000               0.000000000              -0.000013010               0.004850837               0.000009704              -0.000611232               0.001820673               0.001209442               0.000000000               0.000000000               0.000000000               0.000000000               0.001467527               0.005017367              -0.002534610              -0.000076852               0.001698055               0.001621204               0.000000000               0.000000000               0.000000000               0.000000000               0.000428246               0.005603192              -0.002005233              -0.000539807               0.002047647               0.001507840               0.000000000               0.000000000               0.000000000               0.000000000              -0.000382815               0.006340684              -0.001376424              -0.000936140               0.002425586               0.001489447               0.000000000               0.000000000               0.000000000               0.000000000              -0.000530561               0.006378425              -0.000996182              -0.000996261               0.002458207               0.001461946               0.000000000               0.000000000               0.000000000               0.000000000              -0.000523750               0.006252372              -0.000743304              -0.000977951               0.002410087               0.001432136               0.000000000               0.000000000               0.000000000               0.000000000              -0.000487209               0.006089961              -0.000564296              -0.000943946               0.002344615               0.001400669               0.000000000               0.000000000               0.000000000               0.000000000              -0.000439413               0.005911919              -0.000433943              -0.000903767               0.002271876               0.001368108               0.000000000               0.000000000               0.000000000               0.000000000              -0.000372682               0.005732306              -0.000336125              -0.000856292               0.002196180               0.001339888               0.000000000               0.000000000               0.000000000               0.000000000              -0.000292361               0.005562130              -0.000256617              -0.000804900               0.002122325               0.001317425               0.000000000               0.000000000               0.000000000               0.000000000              -0.000211602               0.005395303              -0.000188369              -0.000753762               0.002049670               0.001295909               0.000000000               0.000000000               0.000000000               0.000000000              -0.000139135               0.005235091              -0.000130580              -0.000706560               0.001980533               0.001273973               0.000000000               0.000000000               0.000000000               0.000000000              -0.000085172               0.005095127              -0.000081800              -0.000668829               0.001921301               0.001252473               0.000000000               0.000000000               0.000000000               0.000000000              -0.000054832               0.004976977              -0.000042194              -0.000642683               0.001873203               0.001230521               0.000000000               0.000000000               0.000000000               0.000000000              -0.000040780               0.004877082              -0.000014496              -0.000624926               0.001833986               0.001209060               0.000000000               0.000000000               0.000000000               0.000000000              -0.000037689               0.004786596               0.000000005              -0.000612456               0.001799668               0.001187212               0.000000000               0.000000000               0.000000000               0.000000000              -0.000040811               0.004697402               0.000002727              -0.000602478               0.001766611               0.001164133               0.000000000               0.000000000               0.000000000               0.000000000              -0.000042505               0.004647348               0.000003256              -0.000596856               0.001748053               0.001151196               0.000000000               0.000000000               0.000000000               0.000000000               0.001059023               0.003745390              -0.002061785              -0.000071043               0.001272131               0.001201088               0.000000000               0.000000000               0.000000000               0.000000000               0.000253804               0.004591155              -0.001912326              -0.000478719               0.001689942               0.001211223               0.000000000               0.000000000               0.000000000               0.000000000              -0.000464482               0.005582136              -0.001610755              -0.000871946               0.002151342               0.001279395               0.000000000               0.000000000               0.000000000               0.000000000              -0.000584377               0.005831819              -0.001276807              -0.000948117               0.002259959               0.001311842               0.000000000               0.000000000               0.000000000               0.000000000              -0.000559764               0.005840814              -0.001006901              -0.000940011               0.002260255               0.001320244               0.000000000               0.000000000               0.000000000               0.000000000              -0.000511562               0.005771139              -0.000803452              -0.000913226               0.002228102               0.001314876               0.000000000               0.000000000               0.000000000               0.000000000              -0.000453910               0.005667415              -0.000652487              -0.000878641               0.002182000               0.001303359               0.000000000               0.000000000               0.000000000               0.000000000              -0.000380897               0.005547291              -0.000531778              -0.000836246               0.002127827               0.001291581               0.000000000               0.000000000               0.000000000               0.000000000              -0.000299031               0.005419529              -0.000427189              -0.000789576               0.002069683               0.001280108               0.000000000               0.000000000               0.000000000               0.000000000              -0.000218812               0.005286861              -0.000334590              -0.000742910               0.002009906               0.001266996               0.000000000               0.000000000               0.000000000               0.000000000              -0.000147822               0.005150013              -0.000251152              -0.000699183               0.001949715               0.001250532               0.000000000               0.000000000               0.000000000               0.000000000              -0.000094564               0.005019915              -0.000174179              -0.000662949               0.001894271               0.001231322               0.000000000               0.000000000               0.000000000               0.000000000              -0.000065869               0.004904335              -0.000108179              -0.000637741               0.001847342               0.001209601               0.000000000               0.000000000               0.000000000               0.000000000              -0.000059758               0.004802487              -0.000056921              -0.000622718               0.001808386               0.001185667               0.000000000               0.000000000               0.000000000               0.000000000              -0.000068718               0.004706749              -0.000022898              -0.000614111               0.001773605               0.001159493               0.000000000               0.000000000               0.000000000               0.000000000              -0.000088431               0.004607415              -0.000005535              -0.000609087               0.001738819               0.001129732               0.000000000               0.000000000               0.000000000               0.000000000              -0.000099026               0.004556003              -0.000000168              -0.000606634               0.001720864               0.001114230               0.000000000               0.000000000               0.000000000               0.000000000               0.000463619               0.002582582              -0.001558248              -0.000148967               0.000910507               0.000761540               0.000000000               0.000000000               0.000000000               0.000000000               0.000045245               0.003589383              -0.001762245              -0.000431707               0.001340350               0.000908644               0.000000000               0.000000000               0.000000000               0.000000000              -0.000472341               0.004733615              -0.001787501              -0.000768829               0.001834132               0.001065303               0.000000000               0.000000000               0.000000000               0.000000000              -0.000565767               0.005181487              -0.001543602              -0.000859847               0.002013760               0.001153913               0.000000000               0.000000000               0.000000000               0.000000000              -0.000536172               0.005345690              -0.001284736              -0.000869274               0.002071637               0.001202362               0.000000000               0.000000000               0.000000000               0.000000000              -0.000481544               0.005392663              -0.001069947              -0.000854660               0.002082423               0.001227763               0.000000000               0.000000000               0.000000000               0.000000000              -0.000424638               0.005382092              -0.000903567              -0.000831999               0.002071346               0.001239347               0.000000000               0.000000000               0.000000000               0.000000000              -0.000360727               0.005336651              -0.000763621              -0.000802352               0.002046316               0.001243964               0.000000000               0.000000000               0.000000000               0.000000000              -0.000288711               0.005270540              -0.000638008              -0.000767082               0.002012523               0.001245441               0.000000000               0.000000000               0.000000000               0.000000000              -0.000214496               0.005186902              -0.000525612              -0.000728797               0.001971882               0.001243085               0.000000000               0.000000000               0.000000000               0.000000000              -0.000144526               0.005086855              -0.000421260              -0.000690053               0.001925619               0.001235566               0.000000000               0.000000000               0.000000000               0.000000000              -0.000086089               0.004979845              -0.000319989              -0.000654762               0.001878186               0.001223423               0.000000000               0.000000000               0.000000000               0.000000000              -0.000051363               0.004868974              -0.000226402              -0.000627881               0.001832269               0.001204388               0.000000000               0.000000000               0.000000000               0.000000000              -0.000045582               0.004766801              -0.000145675              -0.000612942               0.001793232               0.001180290               0.000000000               0.000000000               0.000000000               0.000000000              -0.000065178               0.004677926              -0.000081147              -0.000609181               0.001762353               0.001153172               0.000000000               0.000000000               0.000000000               0.000000000              -0.000108361               0.004590497              -0.000033214              -0.000614446               0.001734966               0.001120520               0.000000000               0.000000000               0.000000000               0.000000000              -0.000143044               0.004541326              -0.000009928              -0.000621306               0.001720862               0.001099556               0.000000000               0.000000000               0.000000000               0.000000000              -0.000283573               0.001597870              -0.001054128              -0.000306074               0.000634642               0.000328568               0.000000000               0.000000000               0.000000000               0.000000000              -0.000244994               0.002641712              -0.001532221              -0.000422087               0.001021257               0.000599170               0.000000000               0.000000000               0.000000000               0.000000000              -0.000451856               0.003796636              -0.001830956              -0.000644025               0.001480207               0.000836182               0.000000000               0.000000000               0.000000000               0.000000000              -0.000469979               0.004388412              -0.001702202              -0.000724793               0.001704387               0.000979594               0.000000000               0.000000000               0.000000000               0.000000000              -0.000426619               0.004696244              -0.001487974              -0.000747012               0.001814403               0.001067391               0.000000000               0.000000000               0.000000000               0.000000000              -0.000369770               0.004865009              -0.001285619              -0.000746789               0.001870583               0.001123794               0.000000000               0.000000000               0.000000000               0.000000000              -0.000320015               0.004959793              -0.001115694              -0.000739978               0.001899907               0.001159929               0.000000000               0.000000000               0.000000000               0.000000000              -0.000269687               0.005005062              -0.000968272              -0.000726764               0.001910592               0.001183828               0.000000000               0.000000000               0.000000000               0.000000000              -0.000214173               0.005013582              -0.000833827              -0.000707011               0.001906847               0.001199836               0.000000000               0.000000000               0.000000000               0.000000000              -0.000154649               0.004994114              -0.000711167              -0.000682256               0.001892107               0.001209851               0.000000000               0.000000000               0.000000000               0.000000000              -0.000093826               0.004949395              -0.000596175              -0.000653858               0.001867734               0.001213877               0.000000000               0.000000000               0.000000000               0.000000000              -0.000036399               0.004884662              -0.000482617              -0.000624231               0.001836281               0.001212050               0.000000000               0.000000000               0.000000000               0.000000000               0.000006930               0.004805424              -0.000370194              -0.000598078               0.001801151               0.001203073               0.000000000               0.000000000               0.000000000               0.000000000               0.000021062               0.004723356              -0.000263863              -0.000582520               0.001768609               0.001186090               0.000000000               0.000000000               0.000000000               0.000000000               0.000000166               0.004647059              -0.000166760              -0.000580819               0.001742610               0.001161792               0.000000000               0.000000000               0.000000000               0.000000000              -0.000059466               0.004574179              -0.000078468              -0.000594071               0.001722735               0.001128664               0.000000000               0.000000000               0.000000000               0.000000000              -0.000118742               0.004526350              -0.000029682              -0.000610320               0.001712208               0.001101888               0.000000000               0.000000000               0.000000000               0.000000000              -0.001114666               0.000835676              -0.000605271              -0.000522458               0.000452708              -0.000069751               0.000000000               0.000000000               0.000000000               0.000000000              -0.000593325               0.001791454              -0.001242045              -0.000446428               0.000745954               0.000299526               0.000000000               0.000000000               0.000000000               0.000000000              -0.000419038               0.002841549              -0.001724623              -0.000512333               0.001117950               0.000605617               0.000000000               0.000000000               0.000000000               0.000000000              -0.000315252               0.003510296              -0.001708705              -0.000557006               0.001355755               0.000798749               0.000000000               0.000000000               0.000000000               0.000000000              -0.000239444               0.003933814              -0.001557659              -0.000581518               0.001505097               0.000923579               0.000000000               0.000000000               0.000000000               0.000000000              -0.000177913               0.004218703              -0.001387128              -0.000594055               0.001604238               0.001010184               0.000000000               0.000000000               0.000000000               0.000000000              -0.000137506               0.004417525              -0.001231488              -0.000603755               0.001673745               0.001069990               0.000000000               0.000000000               0.000000000               0.000000000              -0.000104851               0.004554930              -0.001091106              -0.000608685               0.001721190               0.001112505               0.000000000               0.000000000               0.000000000               0.000000000              -0.000069912               0.004644985              -0.000959922              -0.000606839               0.001750593               0.001143753               0.000000000               0.000000000               0.000000000               0.000000000              -0.000030634               0.004700340              -0.000839785              -0.000599029               0.001766441               0.001167411               0.000000000               0.000000000               0.000000000               0.000000000               0.000012778               0.004727566              -0.000726555              -0.000586153               0.001771224               0.001185071               0.000000000               0.000000000               0.000000000               0.000000000               0.000060092               0.004726985              -0.000615401              -0.000568337               0.001765092               0.001196754               0.000000000               0.000000000               0.000000000               0.000000000               0.000107171               0.004703561              -0.000499165              -0.000547755               0.001750423               0.001202668               0.000000000               0.000000000               0.000000000               0.000000000               0.000139627               0.004664282              -0.000379461              -0.000530674               0.001731637               0.001200963               0.000000000               0.000000000               0.000000000               0.000000000               0.000140401               0.004614030              -0.000259778              -0.000524102               0.001712695               0.001188593               0.000000000               0.000000000               0.000000000               0.000000000               0.000097560               0.004562540              -0.000133449              -0.000533731               0.001698742               0.001165011               0.000000000               0.000000000               0.000000000               0.000000000               0.000040763               0.004524577              -0.000060883              -0.000550285               0.001691605               0.001141321               0.000000000               0.000000000               0.000000000               0.000000000              -0.001931736               0.000301364              -0.000265215              -0.000762071               0.000354476              -0.000407595               0.000000000               0.000000000               0.000000000               0.000000000              -0.000956509               0.001089155              -0.000920681              -0.000494835               0.000527992               0.000033157               0.000000000               0.000000000               0.000000000               0.000000000              -0.000388404               0.001958944              -0.001463004              -0.000390520               0.000783147               0.000392628               0.000000000               0.000000000               0.000000000               0.000000000              -0.000133764               0.002643128              -0.001528924              -0.000380553               0.001007884               0.000627331               0.000000000               0.000000000               0.000000000               0.000000000              -0.000010259               0.003147581              -0.001443976              -0.000397295               0.001181614               0.000784319               0.000000000               0.000000000               0.000000000               0.000000000               0.000060742               0.003526910              -0.001319607              -0.000418085               0.001314986               0.000896901               0.000000000               0.000000000               0.000000000               0.000000000               0.000100461               0.003812822              -0.001194432              -0.000438930               0.001417238               0.000978308               0.000000000               0.000000000               0.000000000               0.000000000               0.000116191               0.004031369              -0.001076411              -0.000460349               0.001497226               0.001036877               0.000000000               0.000000000               0.000000000               0.000000000               0.000131550               0.004203253              -0.000963094              -0.000476075               0.001559762               0.001083687               0.000000000               0.000000000               0.000000000               0.000000000               0.000151653               0.004337159              -0.000856232              -0.000485274               0.001607463               0.001122189               0.000000000               0.000000000               0.000000000               0.000000000               0.000177780               0.004440373              -0.000755200              -0.000488378               0.001642902               0.001154524               0.000000000               0.000000000               0.000000000               0.000000000               0.000212758               0.004510344              -0.000657655              -0.000484008               0.001664769               0.001180761               0.000000000               0.000000000               0.000000000               0.000000000               0.000258724               0.004551521              -0.000554497              -0.000471918               0.001674465               0.001202547               0.000000000               0.000000000               0.000000000               0.000000000               0.000311660               0.004570944              -0.000440343              -0.000454495               0.001675131               0.001220636               0.000000000               0.000000000               0.000000000               0.000000000               0.000352631               0.004565514              -0.000315207              -0.000438452               0.001667973               0.001229522               0.000000000               0.000000000               0.000000000               0.000000000               0.000367827               0.004543690              -0.000169404              -0.000430025               0.001657890               0.001227865               0.000000000               0.000000000               0.000000000               0.000000000               0.000359672               0.004524946              -0.000086799              -0.000430740               0.001651880               0.001221140               0.000000000               0.000000000               0.000000000               0.000000000              -0.002627676              -0.000030934              -0.000062909              -0.000981511               0.000316857              -0.000664654               0.000000000               0.000000000               0.000000000               0.000000000              -0.001279958               0.000574210              -0.000596886              -0.000551760               0.000375320              -0.000176439               0.000000000               0.000000000               0.000000000               0.000000000              -0.000373068               0.001246239              -0.001061561              -0.000295681               0.000513968               0.000218288               0.000000000               0.000000000               0.000000000               0.000000000               0.000028764               0.001903610              -0.001155541              -0.000227165               0.000710251               0.000483086               0.000000000               0.000000000               0.000000000               0.000000000               0.000211258               0.002451526              -0.001121292              -0.000227220               0.000892907               0.000665687               0.000000000               0.000000000               0.000000000               0.000000000               0.000299957               0.002893897              -0.001048553              -0.000249254               0.001047707               0.000798453               0.000000000               0.000000000               0.000000000               0.000000000               0.000342230               0.003244297              -0.000963740              -0.000277201               0.001173821               0.000896620               0.000000000               0.000000000               0.000000000               0.000000000               0.000353146               0.003524560              -0.000879752              -0.000308140               0.001277555               0.000969415               0.000000000               0.000000000               0.000000000               0.000000000               0.000354170               0.003759158              -0.000798525              -0.000337080               0.001365400               0.001028320               0.000000000               0.000000000               0.000000000               0.000000000               0.000360197               0.003957636              -0.000717684              -0.000359630               0.001439075               0.001079445               0.000000000               0.000000000               0.000000000               0.000000000               0.000376149               0.004120740              -0.000640591              -0.000374036               0.001498245               0.001124209               0.000000000               0.000000000               0.000000000               0.000000000               0.000406058               0.004253504              -0.000566281              -0.000379416               0.001544292               0.001164877               0.000000000               0.000000000               0.000000000               0.000000000               0.000451956               0.004359789              -0.000487393              -0.000375489               0.001578412               0.001202922               0.000000000               0.000000000               0.000000000               0.000000000               0.000518291               0.004442449              -0.000396100              -0.000360946               0.001601117               0.001240171               0.000000000               0.000000000               0.000000000               0.000000000               0.000601144               0.004496151              -0.000289551              -0.000336589               0.001610898               0.001274309               0.000000000               0.000000000               0.000000000               0.000000000               0.000692678               0.004515454              -0.000158472              -0.000304677               0.001606695               0.001302019               0.000000000               0.000000000               0.000000000               0.000000000               0.000759732               0.004522462              -0.000086665              -0.000280407               0.001600941               0.001320534               0.000000000               0.000000000               0.000000000               0.000000000              -0.003098141              -0.000201005               0.000010333              -0.001136677               0.000311888              -0.000824788               0.000000000               0.000000000               0.000000000               0.000000000              -0.001507129               0.000265163              -0.000288753              -0.000598318               0.000287825              -0.000310493               0.000000000               0.000000000               0.000000000               0.000000000              -0.000372380               0.000786287              -0.000556782              -0.000237928               0.000341402               0.000103474               0.000000000               0.000000000               0.000000000               0.000000000               0.000133886               0.001406985              -0.000622583              -0.000125666               0.000510879               0.000385213               0.000000000               0.000000000               0.000000000               0.000000000               0.000373550               0.001969328              -0.000616049              -0.000106085               0.000691798               0.000585712               0.000000000               0.000000000               0.000000000               0.000000000               0.000483783               0.002442962              -0.000585504              -0.000123952               0.000855630               0.000731678               0.000000000               0.000000000               0.000000000               0.000000000               0.000526468               0.002829565              -0.000543268              -0.000156270               0.000995269               0.000838999               0.000000000               0.000000000               0.000000000               0.000000000               0.000539633               0.003150327              -0.000499112              -0.000191428               0.001113908               0.000922480               0.000000000               0.000000000               0.000000000               0.000000000               0.000538100               0.003421339              -0.000456628              -0.000225879               0.001215728               0.000989849               0.000000000               0.000000000               0.000000000               0.000000000               0.000537491               0.003653760              -0.000413862              -0.000255161               0.001302961               0.001047801               0.000000000               0.000000000               0.000000000               0.000000000               0.000547341               0.003856809              -0.000372843              -0.000276848               0.001377873               0.001101025               0.000000000               0.000000000               0.000000000               0.000000000               0.000572832               0.004035444              -0.000332280              -0.000289618               0.001441674               0.001152056               0.000000000               0.000000000               0.000000000               0.000000000               0.000620101               0.004194681              -0.000288438              -0.000291797               0.001495479               0.001203682               0.000000000               0.000000000               0.000000000               0.000000000               0.000697746               0.004331541              -0.000238123              -0.000279787               0.001537095               0.001257308               0.000000000               0.000000000               0.000000000               0.000000000               0.000811081               0.004431868              -0.000176361              -0.000249828               0.001560550               0.001310723               0.000000000               0.000000000               0.000000000               0.000000000               0.000964861               0.004485967              -0.000097847              -0.000198923               0.001561615               0.001362692               0.000000000               0.000000000               0.000000000               0.000000000               0.001096055               0.004515697              -0.000056234              -0.000153441               0.001556364               0.001402923               0.000000000               0.000000000               0.000000000               0.000000000              -0.003265117              -0.000250764              -0.000000000              -0.001193072               0.000314101              -0.000878972               0.000000000               0.000000000               0.000000000               0.000000000              -0.001589987               0.000163065               0.000000000              -0.000616628               0.000259896              -0.000356732               0.000000000               0.000000000               0.000000000               0.000000000              -0.000374265               0.000629750               0.000000000              -0.000219068               0.000282937               0.000063869               0.000000000               0.000000000               0.000000000               0.000000000               0.000169292               0.001234649               0.000000000              -0.000090847               0.000441828               0.000350981               0.000000000               0.000000000               0.000000000               0.000000000               0.000434492               0.001797016               0.000000000              -0.000061692               0.000619564               0.000557871               0.000000000               0.000000000               0.000000000               0.000000000               0.000552955               0.002277715               0.000000000              -0.000077356               0.000785016               0.000707660               0.000000000               0.000000000               0.000000000               0.000000000               0.000597039               0.002676383               0.000000000              -0.000110658               0.000929005               0.000818347               0.000000000               0.000000000               0.000000000               0.000000000               0.000609765               0.003008616              -0.000000000              -0.000147415               0.001052000               0.000904585               0.000000000               0.000000000               0.000000000               0.000000000               0.000610129               0.003290764              -0.000000000              -0.000182547               0.001157759               0.000975213               0.000000000               0.000000000               0.000000000               0.000000000               0.000609278               0.003536236               0.000000000              -0.000213550               0.001249917               0.001036367               0.000000000               0.000000000               0.000000000               0.000000000               0.000616817               0.003754731               0.000000000              -0.000238034               0.001330909               0.001092875               0.000000000               0.000000000               0.000000000               0.000000000               0.000639257               0.003952187              -0.000000000              -0.000254301               0.001402150               0.001147848               0.000000000               0.000000000               0.000000000               0.000000000               0.000687881               0.004132429              -0.000000000              -0.000258598               0.001463662               0.001205064               0.000000000               0.000000000               0.000000000               0.000000000               0.000770093               0.004287103               0.000000000              -0.000247102               0.001511388               0.001264285               0.000000000               0.000000000               0.000000000               0.000000000               0.000894894               0.004405754               0.000000000              -0.000215134               0.001540281               0.001325148               0.000000000               0.000000000               0.000000000               0.000000000               0.001073880               0.004475491              -0.000000000              -0.000156731               0.001544059               0.001387328               0.000000000               0.000000000               0.000000000               0.000000000               0.001229992               0.004513765               0.000000000              -0.000102973               0.001538898               0.001435924               0.000000000               0.000000000               0.000000000               0.000000000               0.000000000               0.000000000               0.000000000               0.000000000               0.000000000               0.000000000               0.000000000               0.000000000               0.000000000               0.000000000               0.000000000               0.000000000               0.000000000               0.000000000               0.000000000               0.000000000               0.000000000               0.000000000               0.000000000               0.000000000               0.000000000               0.000000000               0.000000000               0.000000000               0.000000000               0.000000000               0.000000000               0.000000000               0.000000000               0.000000000               0.000000000               0.000000000               0.000000000               0.000000000               0.000000000               0.000000000               0.000000000               0.000000000               0.000000000               0.000000000               0.000000000               0.000000000               0.000000000               0.000000000               0.000000000               0.000000000               0.000000000               0.000000000               0.000000000               0.000000000               0.000000000               0.000000000               0.000000000               0.000000000               0.000000000               0.000000000               0.000000000               0.000000000               0.000000000               0.000000000               0.000000000               0.000000000               0.000000000               0.000000000               0.000000000               0.000000000               0.000000000               0.000000000               0.000000000               0.000000000               0.000000000               0.000000000               0.000000000               0.000000000               0.000000000               0.000000000               0.000000000               0.000000000               0.000000000               0.000000000               0.000000000               0.000000000               0.000000000               0.000000000               0.000000000               0.000000000               0.000000000               0.000000000               0.000000000               0.000000000               0.000000000               0.000000000               0.000000000               0.000000000               0.000000000               0.000000000               0.000000000               0.000000000               0.000000000               0.000000000               0.000000000               0.000000000               0.000000000               0.000000000               0.000000000               0.000000000               0.000000000               0.000000000               0.000000000               0.000000000               0.000000000               0.000000000               0.000000000               0.000000000               0.000000000               0.000000000               0.000000000               0.000000000               0.000000000               0.000000000               0.000000000               0.000000000               0.000000000               0.000000000               0.000000000               0.000000000               0.000000000               0.000000000               0.000000000               0.000000000               0.000000000               0.000000000               0.000000000               0.000000000               0.000000000               0.000000000               0.000000000               0.000000000               0.000000000               0.000000000               0.000000000               0.000000000               0.000000000               0.000000000               0.000000000               0.000000000               0.000000000               0.000000000               0.000000000               0.000000000               0.000000000               0.000000000               0.000000000               0.000000000               0.000000000               0.000000000               0.000000000               0.000000000               0.000000000               0.000000000               0.000000000               0.000000000               0.000000000               0.000000000               0.000000000               0.000000000               0.000000000               0.000000000               0.000000000               0.000000000               0.001401823               0.014712341               0.001081122              -0.001313356               0.005341850               0.004028494               0.000000000               0.000000000               0.000000000               0.000000000               0.001412239               0.011923300               0.000629379              -0.000960821               0.004294667               0.003333846               0.000000000               0.000000000               0.000000000               0.000000000               0.001854601               0.009694150               0.000172312              -0.000516292               0.003403449               0.002887156               0.000000000               0.000000000               0.000000000               0.000000000               0.001850509               0.008449473              -0.000030116              -0.000362242               0.002937210               0.002574968               0.000000000               0.000000000               0.000000000               0.000000000               0.001700012               0.007686038              -0.000120173              -0.000323250               0.002669737               0.002346487               0.000000000               0.000000000               0.000000000               0.000000000               0.001502635               0.007183806              -0.000158066              -0.000334487               0.002506074               0.002171587               0.000000000               0.000000000               0.000000000               0.000000000               0.001298044               0.006838855              -0.000173549              -0.000368089               0.002402292               0.002034202               0.000000000               0.000000000               0.000000000               0.000000000               0.001098208               0.006593696              -0.000177768              -0.000412383               0.002335338               0.001922955               0.000000000               0.000000000               0.000000000               0.000000000               0.000911724               0.006416046              -0.000174428              -0.000460108               0.002292030               0.001831922               0.000000000               0.000000000               0.000000000               0.000000000               0.000739710               0.006280561              -0.000166771              -0.000507678               0.002262725               0.001755048               0.000000000               0.000000000               0.000000000               0.000000000               0.000577165               0.006165921              -0.000157223              -0.000554302               0.002240054               0.001685752               0.000000000               0.000000000               0.000000000               0.000000000               0.000429351               0.006061862              -0.000145498              -0.000596725               0.002219509               0.001622784               0.000000000               0.000000000               0.000000000               0.000000000               0.000303688               0.005961511              -0.000129645              -0.000631304               0.002197585               0.001566281               0.000000000               0.000000000               0.000000000               0.000000000               0.000200238               0.005852346              -0.000108048              -0.000656452               0.002169580               0.001513128               0.000000000               0.000000000               0.000000000               0.000000000               0.000115251               0.005724793              -0.000079680              -0.000672378               0.002132372               0.001459993               0.000000000               0.000000000               0.000000000               0.000000000               0.000050326               0.005575202              -0.000043455              -0.000678026               0.002084391               0.001406365               0.000000000               0.000000000               0.000000000               0.000000000               0.000011743               0.005460699              -0.000026113              -0.000678182               0.002046276               0.001368094               0.000000000               0.000000000               0.000000000               0.000000000               0.001577237               0.013911941               0.002036205              -0.001147527               0.005019776               0.003872249               0.000000000               0.000000000               0.000000000               0.000000000               0.001407391               0.011381108               0.001189274              -0.000894865               0.004091953               0.003197088               0.000000000               0.000000000               0.000000000               0.000000000               0.001656302               0.009426424               0.000338603              -0.000557188               0.003327839               0.002770651               0.000000000               0.000000000               0.000000000               0.000000000               0.001576524               0.008324253              -0.000026812              -0.000449334               0.002924501               0.002475167               0.000000000               0.000000000               0.000000000               0.000000000               0.001404803               0.007633210              -0.000187145              -0.000427349               0.002686828               0.002259478               0.000000000               0.000000000               0.000000000               0.000000000               0.001210673               0.007172091              -0.000257064              -0.000442508               0.002538176               0.002095668               0.000000000               0.000000000               0.000000000               0.000000000               0.001016624               0.006850161              -0.000285371              -0.000475035               0.002441709               0.001966674               0.000000000               0.000000000               0.000000000               0.000000000               0.000834467               0.006612610              -0.000294364              -0.000513650               0.002375398               0.001861748               0.000000000               0.000000000               0.000000000               0.000000000               0.000676935               0.006432046              -0.000293661              -0.000550154               0.002327379               0.001777225               0.000000000               0.000000000               0.000000000               0.000000000               0.000538928               0.006288448              -0.000284175              -0.000583957               0.002290781               0.001706824               0.000000000               0.000000000               0.000000000               0.000000000               0.000413326               0.006164986              -0.000269610              -0.000615625               0.002260183               0.001644559               0.000000000               0.000000000               0.000000000               0.000000000               0.000304858               0.006054180              -0.000253532              -0.000642449               0.002232190               0.001589740               0.000000000               0.000000000               0.000000000               0.000000000               0.000214696               0.005946832              -0.000228992              -0.000662841               0.002203204               0.001540363               0.000000000               0.000000000               0.000000000               0.000000000               0.000140363               0.005835410              -0.000191184              -0.000676789               0.002170713               0.001493925               0.000000000               0.000000000               0.000000000               0.000000000               0.000079527               0.005718528              -0.000143918              -0.000684992               0.002134488               0.001449496               0.000000000               0.000000000               0.000000000               0.000000000               0.000033539               0.005599050              -0.000082023              -0.000687302               0.002095432               0.001408130               0.000000000               0.000000000               0.000000000               0.000000000               0.000006185               0.005516719              -0.000049562              -0.000687269               0.002067977               0.001380709               0.000000000               0.000000000               0.000000000               0.000000000               0.001803683               0.012693778               0.002763429              -0.000910341               0.004534663               0.003624323               0.000000000               0.000000000               0.000000000               0.000000000               0.001376036               0.010566814               0.001626835              -0.000804837               0.003790515               0.002985678               0.000000000               0.000000000               0.000000000               0.000000000               0.001349570               0.009020250               0.000494893              -0.000621441               0.003213867               0.002592426               0.000000000               0.000000000               0.000000000               0.000000000               0.001176812               0.008118214               0.000024960              -0.000573471               0.002897201               0.002323730               0.000000000               0.000000000               0.000000000               0.000000000               0.000988608               0.007530853              -0.000177533              -0.000570627               0.002700468               0.002129841               0.000000000               0.000000000               0.000000000               0.000000000               0.000807941               0.007123926              -0.000267768              -0.000587512               0.002570455               0.001982944               0.000000000               0.000000000               0.000000000               0.000000000               0.000640746               0.006830241              -0.000305939              -0.000613499               0.002481224               0.001867725               0.000000000               0.000000000               0.000000000               0.000000000               0.000494835               0.006607190              -0.000319445              -0.000640334               0.002415819               0.001775485               0.000000000               0.000000000               0.000000000               0.000000000               0.000378662               0.006426560              -0.000321617              -0.000661320               0.002362605               0.001701285               0.000000000               0.000000000               0.000000000               0.000000000               0.000284783               0.006271748              -0.000314503              -0.000677173               0.002316286               0.001639113               0.000000000               0.000000000               0.000000000               0.000000000               0.000210426               0.006134470              -0.000301447              -0.000687897               0.002274102               0.001586205               0.000000000               0.000000000               0.000000000               0.000000000               0.000152651               0.006006046              -0.000282228              -0.000693510               0.002233165               0.001539655               0.000000000               0.000000000               0.000000000               0.000000000               0.000104822               0.005881157              -0.000250495              -0.000695835               0.002192311               0.001496476               0.000000000               0.000000000               0.000000000               0.000000000               0.000069462               0.005764438              -0.000205196              -0.000694505               0.002152962               0.001458457               0.000000000               0.000000000               0.000000000               0.000000000               0.000041179               0.005659135              -0.000151270              -0.000691948               0.002117009               0.001425061               0.000000000               0.000000000               0.000000000               0.000000000               0.000016271               0.005569911              -0.000084840              -0.000690136               0.002086664               0.001396528               0.000000000               0.000000000               0.000000000               0.000000000               0.000001354               0.005522137              -0.000049482              -0.000689758               0.002070613               0.001380856               0.000000000               0.000000000               0.000000000               0.000000000               0.001997469               0.011198333               0.003203931              -0.000650742               0.003949654               0.003298912               0.000000000               0.000000000               0.000000000               0.000000000               0.001291448               0.009580407               0.001915781              -0.000713257               0.003431189               0.002717932               0.000000000               0.000000000               0.000000000               0.000000000               0.000969460               0.008526783               0.000643459              -0.000702299               0.003076332               0.002374033               0.000000000               0.000000000               0.000000000               0.000000000               0.000719375               0.007846458               0.000134312              -0.000711040               0.002852473               0.002141433               0.000000000               0.000000000               0.000000000               0.000000000               0.000534742               0.007368996              -0.000080736              -0.000720595               0.002696506               0.001975911               0.000000000               0.000000000               0.000000000               0.000000000               0.000385899               0.007019745              -0.000180361              -0.000732754               0.002584143               0.001851389               0.000000000               0.000000000               0.000000000               0.000000000               0.000264048               0.006754151              -0.000229217              -0.000745249               0.002499777               0.001754528               0.000000000               0.000000000               0.000000000               0.000000000               0.000168474               0.006541035              -0.000250395              -0.000754450               0.002431806               0.001677357               0.000000000               0.000000000               0.000000000               0.000000000               0.000097163               0.006355213              -0.000257351              -0.000757964               0.002371038               0.001613074               0.000000000               0.000000000               0.000000000               0.000000000               0.000050150               0.006187658              -0.000256223              -0.000754649               0.002314082               0.001559433               0.000000000               0.000000000               0.000000000               0.000000000               0.000021989               0.006034290              -0.000245636              -0.000746038               0.002260089               0.001514051               0.000000000               0.000000000               0.000000000               0.000000000               0.000006557               0.005887697              -0.000226452              -0.000733501               0.002207046               0.001473545               0.000000000               0.000000000               0.000000000               0.000000000              -0.000000646               0.005751927              -0.000197517              -0.000719231               0.002157034               0.001437802               0.000000000               0.000000000               0.000000000               0.000000000              -0.000003097               0.005632243              -0.000156768              -0.000705190               0.002112459               0.001407269               0.000000000               0.000000000               0.000000000               0.000000000              -0.000001938               0.005533030              -0.000109978              -0.000692354               0.002075110               0.001382756               0.000000000               0.000000000               0.000000000               0.000000000              -0.000001593               0.005458449              -0.000059040              -0.000682902               0.002047099               0.001364197               0.000000000               0.000000000               0.000000000               0.000000000              -0.000005450               0.005423611              -0.000034123              -0.000679993               0.002034517               0.001354523               0.000000000               0.000000000               0.000000000               0.000000000               0.002073205               0.009567660               0.003352584              -0.000418508               0.003328690               0.002910182               0.000000000               0.000000000               0.000000000               0.000000000               0.001134174               0.008522817               0.002064707              -0.000640037               0.003054256               0.002414219               0.000000000               0.000000000               0.000000000               0.000000000               0.000557388               0.007990851               0.000798718              -0.000789834               0.002926868               0.002137034               0.000000000               0.000000000               0.000000000               0.000000000               0.000272216               0.007524350               0.000305245              -0.000838461               0.002787578               0.001949118               0.000000000               0.000000000               0.000000000               0.000000000               0.000119339               0.007147477               0.000091777              -0.000848680               0.002665362               0.001816682               0.000000000               0.000000000               0.000000000               0.000000000               0.000021218               0.006846795              -0.000018530              -0.000847891               0.002564872               0.001716982               0.000000000               0.000000000               0.000000000               0.000000000              -0.000049130               0.006602420              -0.000083894              -0.000843724               0.002482026               0.001638302               0.000000000               0.000000000               0.000000000               0.000000000              -0.000095231               0.006392572              -0.000118068              -0.000834781               0.002409096               0.001574315               0.000000000               0.000000000               0.000000000               0.000000000              -0.000120846               0.006198335              -0.000134588              -0.000820107               0.002339460               0.001519353               0.000000000               0.000000000               0.000000000               0.000000000              -0.000125717               0.006020388              -0.000145187              -0.000799690               0.002273339               0.001473649               0.000000000               0.000000000               0.000000000               0.000000000              -0.000113750               0.005859488              -0.000145005              -0.000775090               0.002211507               0.001436416               0.000000000               0.000000000               0.000000000               0.000000000              -0.000092608               0.005710340              -0.000134857              -0.000748519               0.002152934               0.001404415               0.000000000               0.000000000               0.000000000               0.000000000              -0.000071114               0.005573913              -0.000118133              -0.000723405               0.002099087               0.001375682               0.000000000               0.000000000               0.000000000               0.000000000              -0.000054102               0.005456992              -0.000092412              -0.000702410               0.002053116               0.001350706               0.000000000               0.000000000               0.000000000               0.000000000              -0.000037438               0.005364893              -0.000062603              -0.000684649               0.002016496               0.001331847               0.000000000               0.000000000               0.000000000               0.000000000              -0.000018883               0.005298647              -0.000033918              -0.000669410               0.001989335               0.001319925               0.000000000               0.000000000               0.000000000               0.000000000              -0.000013718               0.005264675              -0.000022762              -0.000663227               0.001975950               0.001312723               0.000000000               0.000000000               0.000000000               0.000000000               0.001990894               0.007922128               0.003251935              -0.000243684               0.002721910               0.002478226               0.000000000               0.000000000               0.000000000               0.000000000               0.000916456               0.007473975               0.002108518              -0.000590576               0.002688158               0.002097582               0.000000000               0.000000000               0.000000000               0.000000000               0.000165797               0.007438318               0.000973101              -0.000867614               0.002768619               0.001901005               0.000000000               0.000000000               0.000000000               0.000000000              -0.000104236               0.007159939               0.000522250              -0.000934079               0.002697982               0.001763903               0.000000000               0.000000000               0.000000000               0.000000000              -0.000204657               0.006867790               0.000306052              -0.000935218               0.002600980               0.001665762               0.000000000               0.000000000               0.000000000               0.000000000              -0.000247315               0.006610337               0.000176136              -0.000919033               0.002509768               0.001590735               0.000000000               0.000000000               0.000000000               0.000000000              -0.000268095               0.006385135               0.000088773              -0.000898675               0.002427915               0.001529240               0.000000000               0.000000000               0.000000000               0.000000000              -0.000274211               0.006172740               0.000035765              -0.000874420               0.002349033               0.001474613               0.000000000               0.000000000               0.000000000               0.000000000              -0.000260241               0.005975694               0.000002477              -0.000844550               0.002273395               0.001428845               0.000000000               0.000000000               0.000000000               0.000000000              -0.000224391               0.005801061              -0.000025964              -0.000809277               0.002203427               0.001394149               0.000000000               0.000000000               0.000000000               0.000000000              -0.000177611               0.005640907              -0.000042835              -0.000771715               0.002137522               0.001365807               0.000000000               0.000000000               0.000000000               0.000000000              -0.000133471               0.005491448              -0.000047223              -0.000736481               0.002075958               0.001339477               0.000000000               0.000000000               0.000000000               0.000000000              -0.000096408               0.005360731              -0.000047090              -0.000706243               0.002022307               0.001316064               0.000000000               0.000000000               0.000000000               0.000000000              -0.000067969               0.005254152              -0.000041059              -0.000682256               0.001978785               0.001296529               0.000000000               0.000000000               0.000000000               0.000000000              -0.000042921               0.005173193              -0.000030200              -0.000662743               0.001945295               0.001282552               0.000000000               0.000000000               0.000000000               0.000000000              -0.000019981               0.005113895              -0.000017314              -0.000646728               0.001920191               0.001273462               0.000000000               0.000000000               0.000000000               0.000000000              -0.000014208               0.005079344              -0.000013093              -0.000640244               0.001906513               0.001266268               0.000000000               0.000000000               0.000000000               0.000000000               0.001769327               0.006364122               0.002955249              -0.000132021               0.002165359               0.002033338               0.000000000               0.000000000               0.000000000               0.000000000               0.000661243               0.006489902               0.002076099              -0.000563272               0.002351036               0.001787764               0.000000000               0.000000000               0.000000000               0.000000000              -0.000161015               0.006876933               0.001162414              -0.000919995               0.002598953               0.001678958               0.000000000               0.000000000               0.000000000               0.000000000              -0.000374676               0.006753846               0.000752601              -0.000984732               0.002579503               0.001594771               0.000000000               0.000000000               0.000000000               0.000000000              -0.000413944               0.006539851               0.000521195              -0.000972708               0.002504164               0.001531456               0.000000000               0.000000000               0.000000000               0.000000000              -0.000409350               0.006326775               0.000366924              -0.000944351               0.002423687               0.001479337               0.000000000               0.000000000               0.000000000               0.000000000              -0.000391158               0.006119706               0.000258313              -0.000911645               0.002343764               0.001432118               0.000000000               0.000000000               0.000000000               0.000000000              -0.000358866               0.005915579               0.000183676              -0.000874020               0.002263180               0.001389160               0.000000000               0.000000000               0.000000000               0.000000000              -0.000308242               0.005729928               0.000127036              -0.000831830               0.002187233               0.001355404               0.000000000               0.000000000               0.000000000               0.000000000              -0.000243036               0.005560517               0.000078482              -0.000786201               0.002115554               0.001329353               0.000000000               0.000000000               0.000000000               0.000000000              -0.000177157               0.005398588               0.000043755              -0.000741256               0.002046597               0.001305341               0.000000000               0.000000000               0.000000000               0.000000000              -0.000121915               0.005253955               0.000020213              -0.000702461               0.001985454               0.001282993               0.000000000               0.000000000               0.000000000               0.000000000              -0.000078974               0.005134304               0.000000652              -0.000671402               0.001935218               0.001263817               0.000000000               0.000000000               0.000000000               0.000000000              -0.000050538               0.005036544              -0.000010710              -0.000648518               0.001895004               0.001246486               0.000000000               0.000000000               0.000000000               0.000000000              -0.000030052               0.004958397              -0.000013880              -0.000631068               0.001863138               0.001232071               0.000000000               0.000000000               0.000000000               0.000000000              -0.000014498               0.004892475              -0.000010329              -0.000616994               0.001836474               0.001219479               0.000000000               0.000000000               0.000000000               0.000000000              -0.000013010               0.004850837              -0.000009704              -0.000611232               0.001820673               0.001209442               0.000000000               0.000000000               0.000000000               0.000000000               0.001467527               0.005017367               0.002534610              -0.000076852               0.001698055               0.001621204               0.000000000               0.000000000               0.000000000               0.000000000               0.000428246               0.005603192               0.002005233              -0.000539807               0.002047647               0.001507840               0.000000000               0.000000000               0.000000000               0.000000000              -0.000382815               0.006340684               0.001376424              -0.000936140               0.002425586               0.001489447               0.000000000               0.000000000               0.000000000               0.000000000              -0.000530561               0.006378425               0.000996182              -0.000996261               0.002458207               0.001461946               0.000000000               0.000000000               0.000000000               0.000000000              -0.000523750               0.006252372               0.000743304              -0.000977951               0.002410087               0.001432136               0.000000000               0.000000000               0.000000000               0.000000000              -0.000487209               0.006089961               0.000564296              -0.000943946               0.002344615               0.001400669               0.000000000               0.000000000               0.000000000               0.000000000              -0.000439413               0.005911919               0.000433943              -0.000903767               0.002271876               0.001368108               0.000000000               0.000000000               0.000000000               0.000000000              -0.000372682               0.005732306               0.000336125              -0.000856292               0.002196180               0.001339888               0.000000000               0.000000000               0.000000000               0.000000000              -0.000292361               0.005562130               0.000256617              -0.000804900               0.002122325               0.001317425               0.000000000               0.000000000               0.000000000               0.000000000              -0.000211602               0.005395303               0.000188369              -0.000753762               0.002049670               0.001295909               0.000000000               0.000000000               0.000000000               0.000000000              -0.000139135               0.005235091               0.000130580              -0.000706560               0.001980533               0.001273973               0.000000000               0.000000000               0.000000000               0.000000000              -0.000085172               0.005095127               0.000081800              -0.000668829               0.001921301               0.001252473               0.000000000               0.000000000               0.000000000               0.000000000              -0.000054832               0.004976977               0.000042194              -0.000642683               0.001873203               0.001230521               0.000000000               0.000000000               0.000000000               0.000000000              -0.000040780               0.004877082               0.000014496              -0.000624926               0.001833986               0.001209060               0.000000000               0.000000000               0.000000000               0.000000000              -0.000037689               0.004786596              -0.000000005              -0.000612456               0.001799668               0.001187212               0.000000000               0.000000000               0.000000000               0.000000000              -0.000040811               0.004697402              -0.000002727              -0.000602478               0.001766611               0.001164133               0.000000000               0.000000000               0.000000000               0.000000000              -0.000042505               0.004647348              -0.000003256              -0.000596856               0.001748053               0.001151196               0.000000000               0.000000000               0.000000000               0.000000000               0.001059023               0.003745390               0.002061785              -0.000071043               0.001272131               0.001201088               0.000000000               0.000000000               0.000000000               0.000000000               0.000253804               0.004591155               0.001912326              -0.000478719               0.001689942               0.001211223               0.000000000               0.000000000               0.000000000               0.000000000              -0.000464482               0.005582136               0.001610755              -0.000871946               0.002151342               0.001279395               0.000000000               0.000000000               0.000000000               0.000000000              -0.000584377               0.005831819               0.001276807              -0.000948117               0.002259959               0.001311842               0.000000000               0.000000000               0.000000000               0.000000000              -0.000559764               0.005840814               0.001006901              -0.000940011               0.002260255               0.001320244               0.000000000               0.000000000               0.000000000               0.000000000              -0.000511562               0.005771139               0.000803452              -0.000913226               0.002228102               0.001314876               0.000000000               0.000000000               0.000000000               0.000000000              -0.000453910               0.005667415               0.000652487              -0.000878641               0.002182000               0.001303359               0.000000000               0.000000000               0.000000000               0.000000000              -0.000380897               0.005547291               0.000531778              -0.000836246               0.002127827               0.001291581               0.000000000               0.000000000               0.000000000               0.000000000              -0.000299031               0.005419529               0.000427189              -0.000789576               0.002069683               0.001280108               0.000000000               0.000000000               0.000000000               0.000000000              -0.000218812               0.005286861               0.000334590              -0.000742910               0.002009906               0.001266996               0.000000000               0.000000000               0.000000000               0.000000000              -0.000147822               0.005150013               0.000251152              -0.000699183               0.001949715               0.001250532               0.000000000               0.000000000               0.000000000               0.000000000              -0.000094564               0.005019915               0.000174179              -0.000662949               0.001894271               0.001231322               0.000000000               0.000000000               0.000000000               0.000000000              -0.000065869               0.004904335               0.000108179              -0.000637741               0.001847342               0.001209601               0.000000000               0.000000000               0.000000000               0.000000000              -0.000059758               0.004802487               0.000056921              -0.000622718               0.001808386               0.001185667               0.000000000               0.000000000               0.000000000               0.000000000              -0.000068718               0.004706749               0.000022898              -0.000614111               0.001773605               0.001159493               0.000000000               0.000000000               0.000000000               0.000000000              -0.000088431               0.004607415               0.000005535              -0.000609087               0.001738819               0.001129732               0.000000000               0.000000000               0.000000000               0.000000000              -0.000099026               0.004556003               0.000000168              -0.000606634               0.001720864               0.001114230               0.000000000               0.000000000               0.000000000               0.000000000               0.000463619               0.002582582               0.001558248              -0.000148967               0.000910507               0.000761540               0.000000000               0.000000000               0.000000000               0.000000000               0.000045245               0.003589383               0.001762245              -0.000431707               0.001340350               0.000908644               0.000000000               0.000000000               0.000000000               0.000000000              -0.000472341               0.004733615               0.001787501              -0.000768829               0.001834132               0.001065303               0.000000000               0.000000000               0.000000000               0.000000000              -0.000565767               0.005181487               0.001543602              -0.000859847               0.002013760               0.001153913               0.000000000               0.000000000               0.000000000               0.000000000              -0.000536172               0.005345690               0.001284736              -0.000869274               0.002071637               0.001202362               0.000000000               0.000000000               0.000000000               0.000000000              -0.000481544               0.005392663               0.001069947              -0.000854660               0.002082423               0.001227763               0.000000000               0.000000000               0.000000000               0.000000000              -0.000424638               0.005382092               0.000903567              -0.000831999               0.002071346               0.001239347               0.000000000               0.000000000               0.000000000               0.000000000              -0.000360727               0.005336651               0.000763621              -0.000802352               0.002046316               0.001243964               0.000000000               0.000000000               0.000000000               0.000000000              -0.000288711               0.005270540               0.000638008              -0.000767082               0.002012523               0.001245441               0.000000000               0.000000000               0.000000000               0.000000000              -0.000214496               0.005186902               0.000525612              -0.000728797               0.001971882               0.001243085               0.000000000               0.000000000               0.000000000               0.000000000              -0.000144526               0.005086855               0.000421260              -0.000690053               0.001925619               0.001235566               0.000000000               0.000000000               0.000000000               0.000000000              -0.000086089               0.004979845               0.000319989              -0.000654762               0.001878186               0.001223423               0.000000000               0.000000000               0.000000000               0.000000000              -0.000051363               0.004868974               0.000226402              -0.000627881               0.001832269               0.001204388               0.000000000               0.000000000               0.000000000               0.000000000              -0.000045582               0.004766801               0.000145675              -0.000612942               0.001793232               0.001180290               0.000000000               0.000000000               0.000000000               0.000000000              -0.000065178               0.004677926               0.000081147              -0.000609181               0.001762353               0.001153172               0.000000000               0.000000000               0.000000000               0.000000000              -0.000108361               0.004590497               0.000033214              -0.000614446               0.001734966               0.001120520               0.000000000               0.000000000               0.000000000               0.000000000              -0.000143044               0.004541326               0.000009928              -0.000621306               0.001720862               0.001099556               0.000000000               0.000000000               0.000000000               0.000000000              -0.000283573               0.001597870               0.001054128              -0.000306074               0.000634642               0.000328568               0.000000000               0.000000000               0.000000000               0.000000000              -0.000244994               0.002641712               0.001532221              -0.000422087               0.001021257               0.000599170               0.000000000               0.000000000               0.000000000               0.000000000              -0.000451856               0.003796636               0.001830956              -0.000644025               0.001480207               0.000836182               0.000000000               0.000000000               0.000000000               0.000000000              -0.000469979               0.004388412               0.001702202              -0.000724793               0.001704387               0.000979594               0.000000000               0.000000000               0.000000000               0.000000000              -0.000426619               0.004696244               0.001487974              -0.000747012               0.001814403               0.001067391               0.000000000               0.000000000               0.000000000               0.000000000              -0.000369770               0.004865009               0.001285619              -0.000746789               0.001870583               0.001123794               0.000000000               0.000000000               0.000000000               0.000000000              -0.000320015               0.004959793               0.001115694              -0.000739978               0.001899907               0.001159929               0.000000000               0.000000000               0.000000000               0.000000000              -0.000269687               0.005005062               0.000968272              -0.000726764               0.001910592               0.001183828               0.000000000               0.000000000               0.000000000               0.000000000              -0.000214173               0.005013582               0.000833827              -0.000707011               0.001906847               0.001199836               0.000000000               0.000000000               0.000000000               0.000000000              -0.000154649               0.004994114               0.000711167              -0.000682256               0.001892107               0.001209851               0.000000000               0.000000000               0.000000000               0.000000000              -0.000093826               0.004949395               0.000596175              -0.000653858               0.001867734               0.001213877               0.000000000               0.000000000               0.000000000               0.000000000              -0.000036399               0.004884662               0.000482617              -0.000624231               0.001836281               0.001212050               0.000000000               0.000000000               0.000000000               0.000000000               0.000006930               0.004805424               0.000370194              -0.000598078               0.001801151               0.001203073               0.000000000               0.000000000               0.000000000               0.000000000               0.000021062               0.004723356               0.000263863              -0.000582520               0.001768609               0.001186090               0.000000000               0.000000000               0.000000000               0.000000000               0.000000166               0.004647059               0.000166760              -0.000580819               0.001742610               0.001161792               0.000000000               0.000000000               0.000000000               0.000000000              -0.000059466               0.004574179               0.000078468              -0.000594071               0.001722735               0.001128664               0.000000000               0.000000000               0.000000000               0.000000000              -0.000118742               0.004526350               0.000029682              -0.000610320               0.001712208               0.001101888               0.000000000               0.000000000               0.000000000               0.000000000              -0.001114666               0.000835676               0.000605271              -0.000522458               0.000452708              -0.000069751               0.000000000               0.000000000               0.000000000               0.000000000              -0.000593325               0.001791454               0.001242045              -0.000446428               0.000745954               0.000299526               0.000000000               0.000000000               0.000000000               0.000000000              -0.000419038               0.002841549               0.001724623              -0.000512333               0.001117950               0.000605617               0.000000000               0.000000000               0.000000000               0.000000000              -0.000315252               0.003510296               0.001708705              -0.000557006               0.001355755               0.000798749               0.000000000               0.000000000               0.000000000               0.000000000              -0.000239444               0.003933814               0.001557659              -0.000581518               0.001505097               0.000923579               0.000000000               0.000000000               0.000000000               0.000000000              -0.000177913               0.004218703               0.001387128              -0.000594055               0.001604238               0.001010184               0.000000000               0.000000000               0.000000000               0.000000000              -0.000137506               0.004417525               0.001231488              -0.000603755               0.001673745               0.001069990               0.000000000               0.000000000               0.000000000               0.000000000              -0.000104851               0.004554930               0.001091106              -0.000608685               0.001721190               0.001112505               0.000000000               0.000000000               0.000000000               0.000000000              -0.000069912               0.004644985               0.000959922              -0.000606839               0.001750593               0.001143753               0.000000000               0.000000000               0.000000000               0.000000000              -0.000030634               0.004700340               0.000839785              -0.000599029               0.001766441               0.001167411               0.000000000               0.000000000               0.000000000               0.000000000               0.000012778               0.004727566               0.000726555              -0.000586153               0.001771224               0.001185071               0.000000000               0.000000000               0.000000000               0.000000000               0.000060092               0.004726985               0.000615401              -0.000568337               0.001765092               0.001196754               0.000000000               0.000000000               0.000000000               0.000000000               0.000107171               0.004703561               0.000499165              -0.000547755               0.001750423               0.001202668               0.000000000               0.000000000               0.000000000               0.000000000               0.000139627               0.004664282               0.000379461              -0.000530674               0.001731637               0.001200963               0.000000000               0.000000000               0.000000000               0.000000000               0.000140401               0.004614030               0.000259778              -0.000524102               0.001712695               0.001188593               0.000000000               0.000000000               0.000000000               0.000000000               0.000097560               0.004562540               0.000133449              -0.000533731               0.001698742               0.001165011               0.000000000               0.000000000               0.000000000               0.000000000               0.000040763               0.004524577               0.000060883              -0.000550285               0.001691605               0.001141321               0.000000000               0.000000000               0.000000000               0.000000000              -0.001931736               0.000301364               0.000265215              -0.000762071               0.000354476              -0.000407595               0.000000000               0.000000000               0.000000000               0.000000000              -0.000956509               0.001089155               0.000920681              -0.000494835               0.000527992               0.000033157               0.000000000               0.000000000               0.000000000               0.000000000              -0.000388404               0.001958944               0.001463004              -0.000390520               0.000783147               0.000392628               0.000000000               0.000000000               0.000000000               0.000000000              -0.000133764               0.002643128               0.001528924              -0.000380553               0.001007884               0.000627331               0.000000000               0.000000000               0.000000000               0.000000000              -0.000010259               0.003147581               0.001443976              -0.000397295               0.001181614               0.000784319               0.000000000               0.000000000               0.000000000               0.000000000               0.000060742               0.003526910               0.001319607              -0.000418085               0.001314986               0.000896901               0.000000000               0.000000000               0.000000000               0.000000000               0.000100461               0.003812822               0.001194432              -0.000438930               0.001417238               0.000978308               0.000000000               0.000000000               0.000000000               0.000000000               0.000116191               0.004031369               0.001076411              -0.000460349               0.001497226               0.001036877               0.000000000               0.000000000               0.000000000               0.000000000               0.000131550               0.004203253               0.000963094              -0.000476075               0.001559762               0.001083687               0.000000000               0.000000000               0.000000000               0.000000000               0.000151653               0.004337159               0.000856232              -0.000485274               0.001607463               0.001122189               0.000000000               0.000000000               0.000000000               0.000000000               0.000177780               0.004440373               0.000755200              -0.000488378               0.001642902               0.001154524               0.000000000               0.000000000               0.000000000               0.000000000               0.000212758               0.004510344               0.000657655              -0.000484008               0.001664769               0.001180761               0.000000000               0.000000000               0.000000000               0.000000000               0.000258724               0.004551521               0.000554497              -0.000471918               0.001674465               0.001202547               0.000000000               0.000000000               0.000000000               0.000000000               0.000311660               0.004570944               0.000440343              -0.000454495               0.001675131               0.001220636               0.000000000               0.000000000               0.000000000               0.000000000               0.000352631               0.004565514               0.000315207              -0.000438452               0.001667973               0.001229522               0.000000000               0.000000000               0.000000000               0.000000000               0.000367827               0.004543690               0.000169404              -0.000430025               0.001657890               0.001227865               0.000000000               0.000000000               0.000000000               0.000000000               0.000359672               0.004524946               0.000086799              -0.000430740               0.001651880               0.001221140               0.000000000               0.000000000               0.000000000               0.000000000              -0.002627676              -0.000030934               0.000062909              -0.000981511               0.000316857              -0.000664654               0.000000000               0.000000000               0.000000000               0.000000000              -0.001279958               0.000574210               0.000596886              -0.000551760               0.000375320              -0.000176439               0.000000000               0.000000000               0.000000000               0.000000000              -0.000373068               0.001246239               0.001061561              -0.000295681               0.000513968               0.000218288               0.000000000               0.000000000               0.000000000               0.000000000               0.000028764               0.001903610               0.001155541              -0.000227165               0.000710251               0.000483086               0.000000000               0.000000000               0.000000000               0.000000000               0.000211258               0.002451526               0.001121292              -0.000227220               0.000892907               0.000665687               0.000000000               0.000000000               0.000000000               0.000000000               0.000299957               0.002893897               0.001048553              -0.000249254               0.001047707               0.000798453               0.000000000               0.000000000               0.000000000               0.000000000               0.000342230               0.003244297               0.000963740              -0.000277201               0.001173821               0.000896620               0.000000000               0.000000000               0.000000000               0.000000000               0.000353146               0.003524560               0.000879752              -0.000308140               0.001277555               0.000969415               0.000000000               0.000000000               0.000000000               0.000000000               0.000354170               0.003759158               0.000798525              -0.000337080               0.001365400               0.001028320               0.000000000               0.000000000               0.000000000               0.000000000               0.000360197               0.003957636               0.000717684              -0.000359630               0.001439075               0.001079445               0.000000000               0.000000000               0.000000000               0.000000000               0.000376149               0.004120740               0.000640591              -0.000374036               0.001498245               0.001124209               0.000000000               0.000000000               0.000000000               0.000000000               0.000406058               0.004253504               0.000566281              -0.000379416               0.001544292               0.001164877               0.000000000               0.000000000               0.000000000               0.000000000               0.000451956               0.004359789               0.000487393              -0.000375489               0.001578412               0.001202922               0.000000000               0.000000000               0.000000000               0.000000000               0.000518291               0.004442449               0.000396100              -0.000360946               0.001601117               0.001240171               0.000000000               0.000000000               0.000000000               0.000000000               0.000601144               0.004496151               0.000289551              -0.000336589               0.001610898               0.001274309               0.000000000               0.000000000               0.000000000               0.000000000               0.000692678               0.004515454               0.000158472              -0.000304677               0.001606695               0.001302019               0.000000000               0.000000000               0.000000000               0.000000000               0.000759732               0.004522462               0.000086665              -0.000280407               0.001600941               0.001320534               0.000000000               0.000000000               0.000000000               0.000000000              -0.003098141              -0.000201005              -0.000010333              -0.001136677               0.000311888              -0.000824788               0.000000000               0.000000000               0.000000000               0.000000000              -0.001507129               0.000265163               0.000288753              -0.000598318               0.000287825              -0.000310493               0.000000000               0.000000000               0.000000000               0.000000000              -0.000372380               0.000786287               0.000556782              -0.000237928               0.000341402               0.000103474               0.000000000               0.000000000               0.000000000               0.000000000               0.000133886               0.001406985               0.000622583              -0.000125666               0.000510879               0.000385213               0.000000000               0.000000000               0.000000000               0.000000000               0.000373550               0.001969328               0.000616049              -0.000106085               0.000691798               0.000585712               0.000000000               0.000000000               0.000000000               0.000000000               0.000483783               0.002442962               0.000585504              -0.000123952               0.000855630               0.000731678               0.000000000               0.000000000               0.000000000               0.000000000               0.000526468               0.002829565               0.000543268              -0.000156270               0.000995269               0.000838999               0.000000000               0.000000000               0.000000000               0.000000000               0.000539633               0.003150327               0.000499112              -0.000191428               0.001113908               0.000922480               0.000000000               0.000000000               0.000000000               0.000000000               0.000538100               0.003421339               0.000456628              -0.000225879               0.001215728               0.000989849               0.000000000               0.000000000               0.000000000               0.000000000               0.000537491               0.003653760               0.000413862              -0.000255161               0.001302961               0.001047801               0.000000000               0.000000000               0.000000000               0.000000000               0.000547341               0.003856809               0.000372843              -0.000276848               0.001377873               0.001101025               0.000000000               0.000000000               0.000000000               0.000000000               0.000572832               0.004035444               0.000332280              -0.000289618               0.001441674               0.001152056               0.000000000               0.000000000               0.000000000               0.000000000               0.000620101               0.004194681               0.000288438              -0.000291797               0.001495479               0.001203682               0.000000000               0.000000000               0.000000000               0.000000000               0.000697746               0.004331541               0.000238123              -0.000279787               0.001537095               0.001257308               0.000000000               0.000000000               0.000000000               0.000000000               0.000811081               0.004431868               0.000176361              -0.000249828               0.001560550               0.001310723               0.000000000               0.000000000               0.000000000               0.000000000               0.000964861               0.004485967               0.000097847              -0.000198923               0.001561615               0.001362692               0.000000000               0.000000000               0.000000000               0.000000000               0.001096055               0.004515697               0.000056234              -0.000153441               0.001556364               0.001402923               0.000000000               0.000000000               0.000000000               0.000000000              -0.003265117              -0.000250764              -0.000000000              -0.001193072               0.000314101              -0.000878972               0.000000000               0.000000000               0.000000000               0.000000000              -0.001589987               0.000163065              -0.000000000              -0.000616628               0.000259896              -0.000356732               0.000000000               0.000000000               0.000000000               0.000000000              -0.000374265               0.000629750              -0.000000000              -0.000219068               0.000282937               0.000063869               0.000000000               0.000000000               0.000000000               0.000000000               0.000169292               0.001234649               0.000000000              -0.000090847               0.000441828               0.000350981               0.000000000               0.000000000               0.000000000               0.000000000               0.000434492               0.001797016               0.000000000              -0.000061692               0.000619564               0.000557871               0.000000000               0.000000000               0.000000000               0.000000000               0.000552955               0.002277715               0.000000000              -0.000077356               0.000785016               0.000707660               0.000000000               0.000000000               0.000000000               0.000000000               0.000597039               0.002676383              -0.000000000              -0.000110658               0.000929005               0.000818347               0.000000000               0.000000000               0.000000000               0.000000000               0.000609765               0.003008616              -0.000000000              -0.000147415               0.001052000               0.000904585               0.000000000               0.000000000               0.000000000               0.000000000               0.000610129               0.003290764               0.000000000              -0.000182547               0.001157759               0.000975213               0.000000000               0.000000000               0.000000000               0.000000000               0.000609278               0.003536236               0.000000000              -0.000213550               0.001249917               0.001036367               0.000000000               0.000000000               0.000000000               0.000000000               0.000616817               0.003754731              -0.000000000              -0.000238034               0.001330909               0.001092875               0.000000000               0.000000000               0.000000000               0.000000000               0.000639257               0.003952187              -0.000000000              -0.000254301               0.001402150               0.001147848               0.000000000               0.000000000               0.000000000               0.000000000               0.000687881               0.004132429               0.000000000              -0.000258598               0.001463662               0.001205064               0.000000000               0.000000000               0.000000000               0.000000000               0.000770093               0.004287103              -0.000000000              -0.000247102               0.001511388               0.001264285               0.000000000               0.000000000               0.000000000               0.000000000               0.000894894               0.004405754               0.000000000              -0.000215134               0.001540281               0.001325148               0.000000000               0.000000000               0.000000000               0.000000000               0.001073880               0.004475491               0.000000000              -0.000156731               0.001544059               0.001387328               0.000000000               0.000000000               0.000000000               0.000000000               0.001229992               0.004513765              -0.000000000              -0.000102973               0.001538898               0.001435924               0.000000000               0.000000000               0.000000000               0.000000000               0.001335925               0.014992473              -0.000000000              -0.001373084               0.005455135               0.004082052               0.000000000               0.000000000               0.000000000               0.000000000               0.001411625               0.012115143              -0.000000000              -0.000985031               0.004366684               0.003381653               0.000000000               0.000000000               0.000000000               0.000000000               0.001923015               0.009787185              -0.000000000              -0.000502266               0.003429784               0.002927518               0.000000000               0.000000000               0.000000000               0.000000000               0.001946585               0.008489017              -0.000000000              -0.000331157               0.002940030               0.002608873               0.000000000               0.000000000               0.000000000               0.000000000               0.001804808               0.007700871              -0.000000000              -0.000285805               0.002662200               0.002376395               0.000000000               0.000000000               0.000000000               0.000000000               0.001608396               0.007183593              -0.000000000              -0.000294800               0.002492774               0.002197974               0.000000000               0.000000000               0.000000000               0.000000000               0.001405223               0.006829020               0.000000000              -0.000326668               0.002385207               0.002058539               0.000000000               0.000000000               0.000000000               0.000000000               0.001203042               0.006583968              -0.000000000              -0.000371854               0.002318586               0.001946731               0.000000000               0.000000000               0.000000000               0.000000000               0.001002937               0.006408279              -0.000000000              -0.000424932               0.002277716               0.001852783               0.000000000               0.000000000               0.000000000               0.000000000               0.000814205               0.006274055               0.000000000              -0.000478929               0.002250974               0.001772045               0.000000000               0.000000000               0.000000000               0.000000000               0.000640686               0.006162921              -0.000000000              -0.000530107               0.002230989               0.001700882               0.000000000               0.000000000               0.000000000               0.000000000               0.000483519               0.006062899              -0.000000000              -0.000576541               0.002213126               0.001636585               0.000000000               0.000000000               0.000000000               0.000000000               0.000343723               0.005961854              -0.000000000              -0.000616334               0.002192710               0.001576375               0.000000000               0.000000000               0.000000000               0.000000000               0.000225980               0.005850962              -0.000000000              -0.000646626               0.002165843               0.001519217               0.000000000               0.000000000               0.000000000               0.000000000               0.000130281               0.005719676              -0.000000000              -0.000666102               0.002128574               0.001462471               0.000000000               0.000000000               0.000000000               0.000000000               0.000057556               0.005559616               0.000000000              -0.000673367               0.002077643               0.001404276               0.000000000               0.000000000               0.000000000               0.000000000               0.000015374               0.005435722               0.000000000              -0.000673698               0.002036455               0.001362757               0.000000000               0.000000000               0.000000000               0.000000000               0.001401823               0.014712341              -0.001081122              -0.001313356               0.005341850               0.004028494               0.000000000               0.000000000               0.000000000               0.000000000               0.001412239               0.011923300              -0.000629379              -0.000960821               0.004294667               0.003333846               0.000000000               0.000000000               0.000000000               0.000000000               0.001854601               0.009694150              -0.000172312              -0.000516292               0.003403449               0.002887156               0.000000000               0.000000000               0.000000000               0.000000000               0.001850509               0.008449473               0.000030116              -0.000362242               0.002937210               0.002574968               0.000000000               0.000000000               0.000000000               0.000000000               0.001700012               0.007686038               0.000120173              -0.000323250               0.002669737               0.002346487               0.000000000               0.000000000               0.000000000               0.000000000               0.001502635               0.007183806               0.000158066              -0.000334487               0.002506074               0.002171587               0.000000000               0.000000000               0.000000000               0.000000000               0.001298044               0.006838855               0.000173549              -0.000368089               0.002402292               0.002034202               0.000000000               0.000000000               0.000000000               0.000000000               0.001098208               0.006593696               0.000177768              -0.000412383               0.002335338               0.001922955               0.000000000               0.000000000               0.000000000               0.000000000               0.000911724               0.006416046               0.000174428              -0.000460108               0.002292030               0.001831922               0.000000000               0.000000000               0.000000000               0.000000000               0.000739710               0.006280561               0.000166771              -0.000507678               0.002262725               0.001755048               0.000000000               0.000000000               0.000000000               0.000000000               0.000577165               0.006165921               0.000157223              -0.000554302               0.002240054               0.001685752               0.000000000               0.000000000               0.000000000               0.000000000               0.000429351               0.006061862               0.000145498              -0.000596725               0.002219509               0.001622784               0.000000000               0.000000000               0.000000000               0.000000000               0.000303688               0.005961511               0.000129645              -0.000631304               0.002197585               0.001566281               0.000000000               0.000000000               0.000000000               0.000000000               0.000200238               0.005852346               0.000108048              -0.000656452               0.002169580               0.001513128               0.000000000               0.000000000               0.000000000               0.000000000               0.000115251               0.005724793               0.000079680              -0.000672378               0.002132372               0.001459993               0.000000000               0.000000000               0.000000000               0.000000000               0.000050326               0.005575202               0.000043455              -0.000678026               0.002084391               0.001406365               0.000000000               0.000000000               0.000000000               0.000000000               0.000011743               0.005460699               0.000026113              -0.000678182               0.002046276               0.001368094               0.000000000               0.000000000               0.000000000               0.000000000               0.001577237               0.013911941              -0.002036205              -0.001147527               0.005019776               0.003872249               0.000000000               0.000000000               0.000000000               0.000000000               0.001407391               0.011381108              -0.001189274              -0.000894865               0.004091953               0.003197088               0.000000000               0.000000000               0.000000000               0.000000000               0.001656302               0.009426424              -0.000338603              -0.000557188               0.003327839               0.002770651               0.000000000               0.000000000               0.000000000               0.000000000               0.001576524               0.008324253               0.000026812              -0.000449334               0.002924501               0.002475167               0.000000000               0.000000000               0.000000000               0.000000000               0.001404803               0.007633210               0.000187145              -0.000427349               0.002686828               0.002259478               0.000000000               0.000000000               0.000000000               0.000000000               0.001210673               0.007172091               0.000257064              -0.000442508               0.002538176               0.002095668               0.000000000               0.000000000               0.000000000               0.000000000               0.001016624               0.006850161               0.000285371              -0.000475035               0.002441709               0.001966674               0.000000000               0.000000000               0.000000000               0.000000000               0.000834467               0.006612610               0.000294364              -0.000513650               0.002375398               0.001861748               0.000000000               0.000000000               0.000000000               0.000000000               0.000676935               0.006432046               0.000293661              -0.000550154               0.002327379               0.001777225               0.000000000               0.000000000               0.000000000               0.000000000               0.000538928               0.006288448               0.000284175              -0.000583957               0.002290781               0.001706824               0.000000000               0.000000000               0.000000000               0.000000000               0.000413326               0.006164986               0.000269610              -0.000615625               0.002260183               0.001644559               0.000000000               0.000000000               0.000000000               0.000000000               0.000304858               0.006054180               0.000253532              -0.000642449               0.002232190               0.001589740               0.000000000               0.000000000               0.000000000               0.000000000               0.000214696               0.005946832               0.000228992              -0.000662841               0.002203204               0.001540363               0.000000000               0.000000000               0.000000000               0.000000000               0.000140363               0.005835410               0.000191184              -0.000676789               0.002170713               0.001493925               0.000000000               0.000000000               0.000000000               0.000000000               0.000079527               0.005718528               0.000143918              -0.000684992               0.002134488               0.001449496               0.000000000               0.000000000               0.000000000               0.000000000               0.000033539               0.005599050               0.000082023              -0.000687302               0.002095432               0.001408130               0.000000000               0.000000000               0.000000000               0.000000000               0.000006185               0.005516719               0.000049562              -0.000687269               0.002067977               0.001380709               0.000000000               0.000000000               0.000000000               0.000000000               0.001803683               0.012693778              -0.002763429              -0.000910341               0.004534663               0.003624323               0.000000000               0.000000000               0.000000000               0.000000000               0.001376036               0.010566814              -0.001626835              -0.000804837               0.003790515               0.002985678               0.000000000               0.000000000               0.000000000               0.000000000               0.001349570               0.009020250              -0.000494893              -0.000621441               0.003213867               0.002592426               0.000000000               0.000000000               0.000000000               0.000000000               0.001176812               0.008118214              -0.000024960              -0.000573471               0.002897201               0.002323730               0.000000000               0.000000000               0.000000000               0.000000000               0.000988608               0.007530853               0.000177533              -0.000570627               0.002700468               0.002129841               0.000000000               0.000000000               0.000000000               0.000000000               0.000807941               0.007123926               0.000267768              -0.000587512               0.002570455               0.001982944               0.000000000               0.000000000               0.000000000               0.000000000               0.000640746               0.006830241               0.000305939              -0.000613499               0.002481224               0.001867725               0.000000000               0.000000000               0.000000000               0.000000000               0.000494835               0.006607190               0.000319445              -0.000640334               0.002415819               0.001775485               0.000000000               0.000000000               0.000000000               0.000000000               0.000378662               0.006426560               0.000321617              -0.000661320               0.002362605               0.001701285               0.000000000               0.000000000               0.000000000               0.000000000               0.000284783               0.006271748               0.000314503              -0.000677173               0.002316286               0.001639113               0.000000000               0.000000000               0.000000000               0.000000000               0.000210426               0.006134470               0.000301447              -0.000687897               0.002274102               0.001586205               0.000000000               0.000000000               0.000000000               0.000000000               0.000152651               0.006006046               0.000282228              -0.000693510               0.002233165               0.001539655               0.000000000               0.000000000               0.000000000               0.000000000               0.000104822               0.005881157               0.000250495              -0.000695835               0.002192311               0.001496476               0.000000000               0.000000000               0.000000000               0.000000000               0.000069462               0.005764438               0.000205196              -0.000694505               0.002152962               0.001458457               0.000000000               0.000000000               0.000000000               0.000000000               0.000041179               0.005659135               0.000151270              -0.000691948               0.002117009               0.001425061               0.000000000               0.000000000               0.000000000               0.000000000               0.000016271               0.005569911               0.000084840              -0.000690136               0.002086664               0.001396528               0.000000000               0.000000000               0.000000000               0.000000000               0.000001354               0.005522137               0.000049482              -0.000689758               0.002070613               0.001380856               0.000000000               0.000000000               0.000000000               0.000000000               0.001997469               0.011198333              -0.003203931              -0.000650742               0.003949654               0.003298912               0.000000000               0.000000000               0.000000000               0.000000000               0.001291448               0.009580407              -0.001915781              -0.000713257               0.003431189               0.002717932               0.000000000               0.000000000               0.000000000               0.000000000               0.000969460               0.008526783              -0.000643459              -0.000702299               0.003076332               0.002374033               0.000000000               0.000000000               0.000000000               0.000000000               0.000719375               0.007846458              -0.000134312              -0.000711040               0.002852473               0.002141433               0.000000000               0.000000000               0.000000000               0.000000000               0.000534742               0.007368996               0.000080736              -0.000720595               0.002696506               0.001975911               0.000000000               0.000000000               0.000000000               0.000000000               0.000385899               0.007019745               0.000180361              -0.000732754               0.002584143               0.001851389               0.000000000               0.000000000               0.000000000               0.000000000               0.000264048               0.006754151               0.000229217              -0.000745249               0.002499777               0.001754528               0.000000000               0.000000000               0.000000000               0.000000000               0.000168474               0.006541035               0.000250395              -0.000754450               0.002431806               0.001677357               0.000000000               0.000000000               0.000000000               0.000000000               0.000097163               0.006355213               0.000257351              -0.000757964               0.002371038               0.001613074               0.000000000               0.000000000               0.000000000               0.000000000               0.000050150               0.006187658               0.000256223              -0.000754649               0.002314082               0.001559433               0.000000000               0.000000000               0.000000000               0.000000000               0.000021989               0.006034290               0.000245636              -0.000746038               0.002260089               0.001514051               0.000000000               0.000000000               0.000000000               0.000000000               0.000006557               0.005887697               0.000226452              -0.000733501               0.002207046               0.001473545               0.000000000               0.000000000               0.000000000               0.000000000              -0.000000646               0.005751927               0.000197517              -0.000719231               0.002157034               0.001437802               0.000000000               0.000000000               0.000000000               0.000000000              -0.000003097               0.005632243               0.000156768              -0.000705190               0.002112459               0.001407269               0.000000000               0.000000000               0.000000000               0.000000000              -0.000001938               0.005533030               0.000109978              -0.000692354               0.002075110               0.001382756               0.000000000               0.000000000               0.000000000               0.000000000              -0.000001593               0.005458449               0.000059040              -0.000682902               0.002047099               0.001364197               0.000000000               0.000000000               0.000000000               0.000000000              -0.000005450               0.005423611               0.000034123              -0.000679993               0.002034517               0.001354523               0.000000000               0.000000000               0.000000000               0.000000000               0.002073205               0.009567660              -0.003352584              -0.000418508               0.003328690               0.002910182               0.000000000               0.000000000               0.000000000               0.000000000               0.001134174               0.008522817              -0.002064707              -0.000640037               0.003054256               0.002414219               0.000000000               0.000000000               0.000000000               0.000000000               0.000557388               0.007990851              -0.000798718              -0.000789834               0.002926868               0.002137034               0.000000000               0.000000000               0.000000000               0.000000000               0.000272216               0.007524350              -0.000305245              -0.000838461               0.002787578               0.001949118               0.000000000               0.000000000               0.000000000               0.000000000               0.000119339               0.007147477              -0.000091777              -0.000848680               0.002665362               0.001816682               0.000000000               0.000000000               0.000000000               0.000000000               0.000021218               0.006846795               0.000018530              -0.000847891               0.002564872               0.001716982               0.000000000               0.000000000               0.000000000               0.000000000              -0.000049130               0.006602420               0.000083894              -0.000843724               0.002482026               0.001638302               0.000000000               0.000000000               0.000000000               0.000000000              -0.000095231               0.006392572               0.000118068              -0.000834781               0.002409096               0.001574315               0.000000000               0.000000000               0.000000000               0.000000000              -0.000120846               0.006198335               0.000134588              -0.000820107               0.002339460               0.001519353               0.000000000               0.000000000               0.000000000               0.000000000              -0.000125717               0.006020388               0.000145187              -0.000799690               0.002273339               0.001473649               0.000000000               0.000000000               0.000000000               0.000000000              -0.000113750               0.005859488               0.000145005              -0.000775090               0.002211507               0.001436416               0.000000000               0.000000000               0.000000000               0.000000000              -0.000092608               0.005710340               0.000134857              -0.000748519               0.002152934               0.001404415               0.000000000               0.000000000               0.000000000               0.000000000              -0.000071114               0.005573913               0.000118133              -0.000723405               0.002099087               0.001375682               0.000000000               0.000000000               0.000000000               0.000000000              -0.000054102               0.005456992               0.000092412              -0.000702410               0.002053116               0.001350706               0.000000000               0.000000000               0.000000000               0.000000000              -0.000037438               0.005364893               0.000062603              -0.000684649               0.002016496               0.001331847               0.000000000               0.000000000               0.000000000               0.000000000              -0.000018883               0.005298647               0.000033918              -0.000669410               0.001989335               0.001319925               0.000000000               0.000000000               0.000000000               0.000000000              -0.000013718               0.005264675               0.000022762              -0.000663227               0.001975950               0.001312723               0.000000000               0.000000000               0.000000000               0.000000000               0.001990894               0.007922128              -0.003251935              -0.000243684               0.002721910               0.002478226               0.000000000               0.000000000               0.000000000               0.000000000               0.000916456               0.007473975              -0.002108518              -0.000590576               0.002688158               0.002097582               0.000000000               0.000000000               0.000000000               0.000000000               0.000165797               0.007438318              -0.000973101              -0.000867614               0.002768619               0.001901005               0.000000000               0.000000000               0.000000000               0.000000000              -0.000104236               0.007159939              -0.000522250              -0.000934079               0.002697982               0.001763903               0.000000000               0.000000000               0.000000000               0.000000000              -0.000204657               0.006867790              -0.000306052              -0.000935218               0.002600980               0.001665762               0.000000000               0.000000000               0.000000000               0.000000000              -0.000247315               0.006610337              -0.000176136              -0.000919033               0.002509768               0.001590735               0.000000000               0.000000000               0.000000000               0.000000000              -0.000268095               0.006385135              -0.000088773              -0.000898675               0.002427915               0.001529240               0.000000000               0.000000000               0.000000000               0.000000000              -0.000274211               0.006172740              -0.000035765              -0.000874420               0.002349033               0.001474613               0.000000000               0.000000000               0.000000000               0.000000000              -0.000260241               0.005975694              -0.000002477              -0.000844550               0.002273395               0.001428845               0.000000000               0.000000000               0.000000000               0.000000000              -0.000224391               0.005801061               0.000025964              -0.000809277               0.002203427               0.001394149               0.000000000               0.000000000               0.000000000               0.000000000              -0.000177611               0.005640907               0.000042835              -0.000771715               0.002137522               0.001365807               0.000000000               0.000000000               0.000000000               0.000000000              -0.000133471               0.005491448               0.000047223              -0.000736481               0.002075958               0.001339477               0.000000000               0.000000000               0.000000000               0.000000000              -0.000096408               0.005360731               0.000047090              -0.000706243               0.002022307               0.001316064               0.000000000               0.000000000               0.000000000               0.000000000              -0.000067969               0.005254152               0.000041059              -0.000682256               0.001978785               0.001296529               0.000000000               0.000000000               0.000000000               0.000000000              -0.000042921               0.005173193               0.000030200              -0.000662743               0.001945295               0.001282552               0.000000000               0.000000000               0.000000000               0.000000000              -0.000019981               0.005113895               0.000017314              -0.000646728               0.001920191               0.001273462               0.000000000               0.000000000               0.000000000               0.000000000              -0.000014208               0.005079344               0.000013093              -0.000640244               0.001906513               0.001266268               0.000000000               0.000000000               0.000000000               0.000000000               0.001769327               0.006364122              -0.002955249              -0.000132021               0.002165359               0.002033338               0.000000000               0.000000000               0.000000000               0.000000000               0.000661243               0.006489902              -0.002076099              -0.000563272               0.002351036               0.001787764               0.000000000               0.000000000               0.000000000               0.000000000              -0.000161015               0.006876933              -0.001162414              -0.000919995               0.002598953               0.001678958               0.000000000               0.000000000               0.000000000               0.000000000              -0.000374676               0.006753846              -0.000752601              -0.000984732               0.002579503               0.001594771               0.000000000               0.000000000               0.000000000               0.000000000              -0.000413944               0.006539851              -0.000521195              -0.000972708               0.002504164               0.001531456               0.000000000               0.000000000               0.000000000               0.000000000              -0.000409350               0.006326775              -0.000366924              -0.000944351               0.002423687               0.001479337               0.000000000               0.000000000               0.000000000               0.000000000              -0.000391158               0.006119706              -0.000258313              -0.000911645               0.002343764               0.001432118               0.000000000               0.000000000               0.000000000               0.000000000              -0.000358866               0.005915579              -0.000183676              -0.000874020               0.002263180               0.001389160               0.000000000               0.000000000               0.000000000               0.000000000              -0.000308242               0.005729928              -0.000127036              -0.000831830               0.002187233               0.001355404               0.000000000               0.000000000               0.000000000               0.000000000              -0.000243036               0.005560517              -0.000078482              -0.000786201               0.002115554               0.001329353               0.000000000               0.000000000               0.000000000               0.000000000              -0.000177157               0.005398588              -0.000043755              -0.000741256               0.002046597               0.001305341               0.000000000               0.000000000               0.000000000               0.000000000              -0.000121915               0.005253955              -0.000020213              -0.000702461               0.001985454               0.001282993               0.000000000               0.000000000               0.000000000               0.000000000              -0.000078974               0.005134304              -0.000000652              -0.000671402               0.001935218               0.001263817               0.000000000               0.000000000               0.000000000               0.000000000              -0.000050538               0.005036544               0.000010710              -0.000648518               0.001895004               0.001246486               0.000000000               0.000000000               0.000000000               0.000000000              -0.000030052               0.004958397               0.000013880              -0.000631068               0.001863138               0.001232071               0.000000000               0.000000000               0.000000000               0.000000000              -0.000014498               0.004892475               0.000010329              -0.000616994               0.001836474               0.001219479               0.000000000               0.000000000               0.000000000               0.000000000              -0.000013010               0.004850837               0.000009704              -0.000611232               0.001820673               0.001209442               0.000000000               0.000000000               0.000000000               0.000000000               0.001467527               0.005017367              -0.002534610              -0.000076852               0.001698055               0.001621204               0.000000000               0.000000000               0.000000000               0.000000000               0.000428246               0.005603192              -0.002005233              -0.000539807               0.002047647               0.001507840               0.000000000               0.000000000               0.000000000               0.000000000              -0.000382815               0.006340684              -0.001376424              -0.000936140               0.002425586               0.001489447               0.000000000               0.000000000               0.000000000               0.000000000              -0.000530561               0.006378425              -0.000996182              -0.000996261               0.002458207               0.001461946               0.000000000               0.000000000               0.000000000               0.000000000              -0.000523750               0.006252372              -0.000743304              -0.000977951               0.002410087               0.001432136               0.000000000               0.000000000               0.000000000               0.000000000              -0.000487209               0.006089961              -0.000564296              -0.000943946               0.002344615               0.001400669               0.000000000               0.000000000               0.000000000               0.000000000              -0.000439413               0.005911919              -0.000433943              -0.000903767               0.002271876               0.001368108               0.000000000               0.000000000               0.000000000               0.000000000              -0.000372682               0.005732306              -0.000336125              -0.000856292               0.002196180               0.001339888               0.000000000               0.000000000               0.000000000               0.000000000              -0.000292361               0.005562130              -0.000256617              -0.000804900               0.002122325               0.001317425               0.000000000               0.000000000               0.000000000               0.000000000              -0.000211602               0.005395303              -0.000188369              -0.000753762               0.002049670               0.001295909               0.000000000               0.000000000               0.000000000               0.000000000              -0.000139135               0.005235091              -0.000130580              -0.000706560               0.001980533               0.001273973               0.000000000               0.000000000               0.000000000               0.000000000              -0.000085172               0.005095127              -0.000081800              -0.000668829               0.001921301               0.001252473               0.000000000               0.000000000               0.000000000               0.000000000              -0.000054832               0.004976977              -0.000042194              -0.000642683               0.001873203               0.001230521               0.000000000               0.000000000               0.000000000               0.000000000              -0.000040780               0.004877082              -0.000014496              -0.000624926               0.001833986               0.001209060               0.000000000               0.000000000               0.000000000               0.000000000              -0.000037689               0.004786596               0.000000005              -0.000612456               0.001799668               0.001187212               0.000000000               0.000000000               0.000000000               0.000000000              -0.000040811               0.004697402               0.000002727              -0.000602478               0.001766611               0.001164133               0.000000000               0.000000000               0.000000000               0.000000000              -0.000042505               0.004647348               0.000003256              -0.000596856               0.001748053               0.001151196               0.000000000               0.000000000               0.000000000               0.000000000               0.001059023               0.003745390              -0.002061785              -0.000071043               0.001272131               0.001201088               0.000000000               0.000000000               0.000000000               0.000000000               0.000253804               0.004591155              -0.001912326              -0.000478719               0.001689942               0.001211223               0.000000000               0.000000000               0.000000000               0.000000000              -0.000464482               0.005582136              -0.001610755              -0.000871946               0.002151342               0.001279395               0.000000000               0.000000000               0.000000000               0.000000000              -0.000584377               0.005831819              -0.001276807              -0.000948117               0.002259959               0.001311842               0.000000000               0.000000000               0.000000000               0.000000000              -0.000559764               0.005840814              -0.001006901              -0.000940011               0.002260255               0.001320244               0.000000000               0.000000000               0.000000000               0.000000000              -0.000511562               0.005771139              -0.000803452              -0.000913226               0.002228102               0.001314876               0.000000000               0.000000000               0.000000000               0.000000000              -0.000453910               0.005667415              -0.000652487              -0.000878641               0.002182000               0.001303359               0.000000000               0.000000000               0.000000000               0.000000000              -0.000380897               0.005547291              -0.000531778              -0.000836246               0.002127827               0.001291581               0.000000000               0.000000000               0.000000000               0.000000000              -0.000299031               0.005419529              -0.000427189              -0.000789576               0.002069683               0.001280108               0.000000000               0.000000000               0.000000000               0.000000000              -0.000218812               0.005286861              -0.000334590              -0.000742910               0.002009906               0.001266996               0.000000000               0.000000000               0.000000000               0.000000000              -0.000147822               0.005150013              -0.000251152              -0.000699183               0.001949715               0.001250532               0.000000000               0.000000000               0.000000000               0.000000000              -0.000094564               0.005019915              -0.000174179              -0.000662949               0.001894271               0.001231322               0.000000000               0.000000000               0.000000000               0.000000000              -0.000065869               0.004904335              -0.000108179              -0.000637741               0.001847342               0.001209601               0.000000000               0.000000000               0.000000000               0.000000000              -0.000059758               0.004802487              -0.000056921              -0.000622718               0.001808386               0.001185667               0.000000000               0.000000000               0.000000000               0.000000000              -0.000068718               0.004706749              -0.000022898              -0.000614111               0.001773605               0.001159493               0.000000000               0.000000000               0.000000000               0.000000000              -0.000088431               0.004607415              -0.000005535              -0.000609087               0.001738819               0.001129732               0.000000000               0.000000000               0.000000000               0.000000000              -0.000099026               0.004556003              -0.000000168              -0.000606634               0.001720864               0.001114230               0.000000000               0.000000000               0.000000000               0.000000000               0.000463619               0.002582582              -0.001558248              -0.000148967               0.000910507               0.000761540               0.000000000               0.000000000               0.000000000               0.000000000               0.000045245               0.003589383              -0.001762245              -0.000431707               0.001340350               0.000908644               0.000000000               0.000000000               0.000000000               0.000000000              -0.000472341               0.004733615              -0.001787501              -0.000768829               0.001834132               0.001065303               0.000000000               0.000000000               0.000000000               0.000000000              -0.000565767               0.005181487              -0.001543602              -0.000859847               0.002013760               0.001153913               0.000000000               0.000000000               0.000000000               0.000000000              -0.000536172               0.005345690              -0.001284736              -0.000869274               0.002071637               0.001202362               0.000000000               0.000000000               0.000000000               0.000000000              -0.000481544               0.005392663              -0.001069947              -0.000854660               0.002082423               0.001227763               0.000000000               0.000000000               0.000000000               0.000000000              -0.000424638               0.005382092              -0.000903567              -0.000831999               0.002071346               0.001239347               0.000000000               0.000000000               0.000000000               0.000000000              -0.000360727               0.005336651              -0.000763621              -0.000802352               0.002046316               0.001243964               0.000000000               0.000000000               0.000000000               0.000000000              -0.000288711               0.005270540              -0.000638008              -0.000767082               0.002012523               0.001245441               0.000000000               0.000000000               0.000000000               0.000000000              -0.000214496               0.005186902              -0.000525612              -0.000728797               0.001971882               0.001243085               0.000000000               0.000000000               0.000000000               0.000000000              -0.000144526               0.005086855              -0.000421260              -0.000690053               0.001925619               0.001235566               0.000000000               0.000000000               0.000000000               0.000000000              -0.000086089               0.004979845              -0.000319989              -0.000654762               0.001878186               0.001223423               0.000000000               0.000000000               0.000000000               0.000000000              -0.000051363               0.004868974              -0.000226402              -0.000627881               0.001832269               0.001204388               0.000000000               0.000000000               0.000000000               0.000000000              -0.000045582               0.004766801              -0.000145675              -0.000612942               0.001793232               0.001180290               0.000000000               0.000000000               0.000000000               0.000000000              -0.000065178               0.004677926              -0.000081147              -0.000609181               0.001762353               0.001153172               0.000000000               0.000000000               0.000000000               0.000000000              -0.000108361               0.004590497              -0.000033214              -0.000614446               0.001734966               0.001120520               0.000000000               0.000000000               0.000000000               0.000000000              -0.000143044               0.004541326              -0.000009928              -0.000621306               0.001720862               0.001099556               0.000000000               0.000000000               0.000000000               0.000000000              -0.000283573               0.001597870              -0.001054128              -0.000306074               0.000634642               0.000328568               0.000000000               0.000000000               0.000000000               0.000000000              -0.000244994               0.002641712              -0.001532221              -0.000422087               0.001021257               0.000599170               0.000000000               0.000000000               0.000000000               0.000000000              -0.000451856               0.003796636              -0.001830956              -0.000644025               0.001480207               0.000836182               0.000000000               0.000000000               0.000000000               0.000000000              -0.000469979               0.004388412              -0.001702202              -0.000724793               0.001704387               0.000979594               0.000000000               0.000000000               0.000000000               0.000000000              -0.000426619               0.004696244              -0.001487974              -0.000747012               0.001814403               0.001067391               0.000000000               0.000000000               0.000000000               0.000000000              -0.000369770               0.004865009              -0.001285619              -0.000746789               0.001870583               0.001123794               0.000000000               0.000000000               0.000000000               0.000000000              -0.000320015               0.004959793              -0.001115694              -0.000739978               0.001899907               0.001159929               0.000000000               0.000000000               0.000000000               0.000000000              -0.000269687               0.005005062              -0.000968272              -0.000726764               0.001910592               0.001183828               0.000000000               0.000000000               0.000000000               0.000000000              -0.000214173               0.005013582              -0.000833827              -0.000707011               0.001906847               0.001199836               0.000000000               0.000000000               0.000000000               0.000000000              -0.000154649               0.004994114              -0.000711167              -0.000682256               0.001892107               0.001209851               0.000000000               0.000000000               0.000000000               0.000000000              -0.000093826               0.004949395              -0.000596175              -0.000653858               0.001867734               0.001213877               0.000000000               0.000000000               0.000000000               0.000000000              -0.000036399               0.004884662              -0.000482617              -0.000624231               0.001836281               0.001212050               0.000000000               0.000000000               0.000000000               0.000000000               0.000006930               0.004805424              -0.000370194              -0.000598078               0.001801151               0.001203073               0.000000000               0.000000000               0.000000000               0.000000000               0.000021062               0.004723356              -0.000263863              -0.000582520               0.001768609               0.001186090               0.000000000               0.000000000               0.000000000               0.000000000               0.000000166               0.004647059              -0.000166760              -0.000580819               0.001742610               0.001161792               0.000000000               0.000000000               0.000000000               0.000000000              -0.000059466               0.004574179              -0.000078468              -0.000594071               0.001722735               0.001128664               0.000000000               0.000000000               0.000000000               0.000000000              -0.000118742               0.004526350              -0.000029682              -0.000610320               0.001712208               0.001101888               0.000000000               0.000000000               0.000000000               0.000000000              -0.001114666               0.000835676              -0.000605271              -0.000522458               0.000452708              -0.000069751               0.000000000               0.000000000               0.000000000               0.000000000              -0.000593325               0.001791454              -0.001242045              -0.000446428               0.000745954               0.000299526               0.000000000               0.000000000               0.000000000               0.000000000              -0.000419038               0.002841549              -0.001724623              -0.000512333               0.001117950               0.000605617               0.000000000               0.000000000               0.000000000               0.000000000              -0.000315252               0.003510296              -0.001708705              -0.000557006               0.001355755               0.000798749               0.000000000               0.000000000               0.000000000               0.000000000              -0.000239444               0.003933814              -0.001557659              -0.000581518               0.001505097               0.000923579               0.000000000               0.000000000               0.000000000               0.000000000              -0.000177913               0.004218703              -0.001387128              -0.000594055               0.001604238               0.001010184               0.000000000               0.000000000               0.000000000               0.000000000              -0.000137506               0.004417525              -0.001231488              -0.000603755               0.001673745               0.001069990               0.000000000               0.000000000               0.000000000               0.000000000              -0.000104851               0.004554930              -0.001091106              -0.000608685               0.001721190               0.001112505               0.000000000               0.000000000               0.000000000               0.000000000              -0.000069912               0.004644985              -0.000959922              -0.000606839               0.001750593               0.001143753               0.000000000               0.000000000               0.000000000               0.000000000              -0.000030634               0.004700340              -0.000839785              -0.000599029               0.001766441               0.001167411               0.000000000               0.000000000               0.000000000               0.000000000               0.000012778               0.004727566              -0.000726555              -0.000586153               0.001771224               0.001185071               0.000000000               0.000000000               0.000000000               0.000000000               0.000060092               0.004726985              -0.000615401              -0.000568337               0.001765092               0.001196754               0.000000000               0.000000000               0.000000000               0.000000000               0.000107171               0.004703561              -0.000499165              -0.000547755               0.001750423               0.001202668               0.000000000               0.000000000               0.000000000               0.000000000               0.000139627               0.004664282              -0.000379461              -0.000530674               0.001731637               0.001200963               0.000000000               0.000000000               0.000000000               0.000000000               0.000140401               0.004614030              -0.000259778              -0.000524102               0.001712695               0.001188593               0.000000000               0.000000000               0.000000000               0.000000000               0.000097560               0.004562540              -0.000133449              -0.000533731               0.001698742               0.001165011               0.000000000               0.000000000               0.000000000               0.000000000               0.000040763               0.004524577              -0.000060883              -0.000550285               0.001691605               0.001141321               0.000000000               0.000000000               0.000000000               0.000000000              -0.001931736               0.000301364              -0.000265215              -0.000762071               0.000354476              -0.000407595               0.000000000               0.000000000               0.000000000               0.000000000              -0.000956509               0.001089155              -0.000920681              -0.000494835               0.000527992               0.000033157               0.000000000               0.000000000               0.000000000               0.000000000              -0.000388404               0.001958944              -0.001463004              -0.000390520               0.000783147               0.000392628               0.000000000               0.000000000               0.000000000               0.000000000              -0.000133764               0.002643128              -0.001528924              -0.000380553               0.001007884               0.000627331               0.000000000               0.000000000               0.000000000               0.000000000              -0.000010259               0.003147581              -0.001443976              -0.000397295               0.001181614               0.000784319               0.000000000               0.000000000               0.000000000               0.000000000               0.000060742               0.003526910              -0.001319607              -0.000418085               0.001314986               0.000896901               0.000000000               0.000000000               0.000000000               0.000000000               0.000100461               0.003812822              -0.001194432              -0.000438930               0.001417238               0.000978308               0.000000000               0.000000000               0.000000000               0.000000000               0.000116191               0.004031369              -0.001076411              -0.000460349               0.001497226               0.001036877               0.000000000               0.000000000               0.000000000               0.000000000               0.000131550               0.004203253              -0.000963094              -0.000476075               0.001559762               0.001083687               0.000000000               0.000000000               0.000000000               0.000000000               0.000151653               0.004337159              -0.000856232              -0.000485274               0.001607463               0.001122189               0.000000000               0.000000000               0.000000000               0.000000000               0.000177780               0.004440373              -0.000755200              -0.000488378               0.001642902               0.001154524               0.000000000               0.000000000               0.000000000               0.000000000               0.000212758               0.004510344              -0.000657655              -0.000484008               0.001664769               0.001180761               0.000000000               0.000000000               0.000000000               0.000000000               0.000258724               0.004551521              -0.000554497              -0.000471918               0.001674465               0.001202547               0.000000000               0.000000000               0.000000000               0.000000000               0.000311660               0.004570944              -0.000440343              -0.000454495               0.001675131               0.001220636               0.000000000               0.000000000               0.000000000               0.000000000               0.000352631               0.004565514              -0.000315207              -0.000438452               0.001667973               0.001229522               0.000000000               0.000000000               0.000000000               0.000000000               0.000367827               0.004543690              -0.000169404              -0.000430025               0.001657890               0.001227865               0.000000000               0.000000000               0.000000000               0.000000000               0.000359672               0.004524946              -0.000086799              -0.000430740               0.001651880               0.001221140               0.000000000               0.000000000               0.000000000               0.000000000              -0.002627676              -0.000030934              -0.000062909              -0.000981511               0.000316857              -0.000664654               0.000000000               0.000000000               0.000000000               0.000000000              -0.001279958               0.000574210              -0.000596886              -0.000551760               0.000375320              -0.000176439               0.000000000               0.000000000               0.000000000               0.000000000              -0.000373068               0.001246239              -0.001061561              -0.000295681               0.000513968               0.000218288               0.000000000               0.000000000               0.000000000               0.000000000               0.000028764               0.001903610              -0.001155541              -0.000227165               0.000710251               0.000483086               0.000000000               0.000000000               0.000000000               0.000000000               0.000211258               0.002451526              -0.001121292              -0.000227220               0.000892907               0.000665687               0.000000000               0.000000000               0.000000000               0.000000000               0.000299957               0.002893897              -0.001048553              -0.000249254               0.001047707               0.000798453               0.000000000               0.000000000               0.000000000               0.000000000               0.000342230               0.003244297              -0.000963740              -0.000277201               0.001173821               0.000896620               0.000000000               0.000000000               0.000000000               0.000000000               0.000353146               0.003524560              -0.000879752              -0.000308140               0.001277555               0.000969415               0.000000000               0.000000000               0.000000000               0.000000000               0.000354170               0.003759158              -0.000798525              -0.000337080               0.001365400               0.001028320               0.000000000               0.000000000               0.000000000               0.000000000               0.000360197               0.003957636              -0.000717684              -0.000359630               0.001439075               0.001079445               0.000000000               0.000000000               0.000000000               0.000000000               0.000376149               0.004120740              -0.000640591              -0.000374036               0.001498245               0.001124209               0.000000000               0.000000000               0.000000000               0.000000000               0.000406058               0.004253504              -0.000566281              -0.000379416               0.001544292               0.001164877               0.000000000               0.000000000               0.000000000               0.000000000               0.000451956               0.004359789              -0.000487393              -0.000375489               0.001578412               0.001202922               0.000000000               0.000000000               0.000000000               0.000000000               0.000518291               0.004442449              -0.000396100              -0.000360946               0.001601117               0.001240171               0.000000000               0.000000000               0.000000000               0.000000000               0.000601144               0.004496151              -0.000289551              -0.000336589               0.001610898               0.001274309               0.000000000               0.000000000               0.000000000               0.000000000               0.000692678               0.004515454              -0.000158472              -0.000304677               0.001606695               0.001302019               0.000000000               0.000000000               0.000000000               0.000000000               0.000759732               0.004522462              -0.000086665              -0.000280407               0.001600941               0.001320534               0.000000000               0.000000000               0.000000000               0.000000000              -0.003098141              -0.000201005               0.000010333              -0.001136677               0.000311888              -0.000824788               0.000000000               0.000000000               0.000000000               0.000000000              -0.001507129               0.000265163              -0.000288753              -0.000598318               0.000287825              -0.000310493               0.000000000               0.000000000               0.000000000               0.000000000              -0.000372380               0.000786287              -0.000556782              -0.000237928               0.000341402               0.000103474               0.000000000               0.000000000               0.000000000               0.000000000               0.000133886               0.001406985              -0.000622583              -0.000125666               0.000510879               0.000385213               0.000000000               0.000000000               0.000000000               0.000000000               0.000373550               0.001969328              -0.000616049              -0.000106085               0.000691798               0.000585712               0.000000000               0.000000000               0.000000000               0.000000000               0.000483783               0.002442962              -0.000585504              -0.000123952               0.000855630               0.000731678               0.000000000               0.000000000               0.000000000               0.000000000               0.000526468               0.002829565              -0.000543268              -0.000156270               0.000995269               0.000838999               0.000000000               0.000000000               0.000000000               0.000000000               0.000539633               0.003150327              -0.000499112              -0.000191428               0.001113908               0.000922480               0.000000000               0.000000000               0.000000000               0.000000000               0.000538100               0.003421339              -0.000456628              -0.000225879               0.001215728               0.000989849               0.000000000               0.000000000               0.000000000               0.000000000               0.000537491               0.003653760              -0.000413862              -0.000255161               0.001302961               0.001047801               0.000000000               0.000000000               0.000000000               0.000000000               0.000547341               0.003856809              -0.000372843              -0.000276848               0.001377873               0.001101025               0.000000000               0.000000000               0.000000000               0.000000000               0.000572832               0.004035444              -0.000332280              -0.000289618               0.001441674               0.001152056               0.000000000               0.000000000               0.000000000               0.000000000               0.000620101               0.004194681              -0.000288438              -0.000291797               0.001495479               0.001203682               0.000000000               0.000000000               0.000000000               0.000000000               0.000697746               0.004331541              -0.000238123              -0.000279787               0.001537095               0.001257308               0.000000000               0.000000000               0.000000000               0.000000000               0.000811081               0.004431868              -0.000176361              -0.000249828               0.001560550               0.001310723               0.000000000               0.000000000               0.000000000               0.000000000               0.000964861               0.004485967              -0.000097847              -0.000198923               0.001561615               0.001362692               0.000000000               0.000000000               0.000000000               0.000000000               0.001096055               0.004515697              -0.000056234              -0.000153441               0.001556364               0.001402923               0.000000000               0.000000000               0.000000000               0.000000000               0.000000000               0.000000000               0.000000000               0.000000000               0.000000000               0.000000000               0.000000000               0.000000000               0.000000000               0.000000000               0.000000000               0.000000000               0.000000000               0.000000000               0.000000000               0.000000000               0.000000000               0.000000000               0.000000000               0.000000000               0.000000000               0.000000000               0.000000000               0.000000000               0.000000000               0.000000000               0.000000000               0.000000000               0.000000000               0.000000000               0.000000000               0.000000000               0.000000000               0.000000000               0.000000000               0.000000000               0.000000000               0.000000000               0.000000000               0.000000000               0.000000000               0.000000000               0.000000000               0.000000000               0.000000000               0.000000000               0.000000000               0.000000000               0.000000000               0.000000000               0.000000000               0.000000000               0.000000000               0.000000000               0.000000000               0.000000000               0.000000000               0.000000000               0.000000000               0.000000000               0.000000000               0.000000000               0.000000000               0.000000000               0.000000000               0.000000000               0.000000000               0.000000000               0.000000000               0.000000000               0.000000000               0.000000000               0.000000000               0.000000000               0.000000000               0.000000000               0.000000000               0.000000000               0.000000000               0.000000000               0.000000000               0.000000000               0.000000000               0.000000000               0.000000000               0.000000000               0.000000000               0.000000000               0.000000000               0.000000000               0.000000000               0.000000000               0.000000000               0.000000000               0.000000000               0.000000000               0.000000000               0.000000000               0.000000000               0.000000000               0.000000000               0.000000000               0.000000000               0.000000000               0.000000000               0.000000000               0.000000000               0.000000000               0.000000000               0.000000000               0.000000000               0.000000000               0.000000000               0.000000000               0.000000000               0.000000000               0.000000000               0.000000000               0.000000000               0.000000000               0.000000000               0.000000000               0.000000000               0.000000000               0.000000000               0.000000000               0.000000000               0.000000000               0.000000000               0.000000000               0.000000000               0.000000000               0.000000000               0.000000000               0.000000000               0.000000000               0.000000000               0.000000000               0.000000000               0.000000000               0.000000000               0.000000000               0.000000000               0.000000000               0.000000000               0.000000000               0.000000000               0.000000000               0.000000000               0.000000000               0.000000000               0.000000000               0.000000000               0.000000000               0.000000000               0.000000000               0.000000000               0.000000000               0.000000000               0.000000000               0.000000000               0.000000000               0.000000000               0.000000000               0.000000000               0.000000000               0.000000000               0.000000000               0.000000000               0.000000000               0.000000000               0.000000000               0.000000000               0.000000000               0.000000000               0.000000000               0.000000000               0.000000000               0.000000000               0.000000000               0.000000000               0.000000000               0.000000000               0.000000000               0.000000000               0.000000000               0.000000000               0.000000000               0.000000000               0.000000000               0.000000000               0.000000000               0.000000000               0.000000000               0.000000000               0.000000000               0.000000000               0.000000000               0.000000000               0.000000000               0.000000000               0.000000000               0.000000000               0.000000000               0.000000000               0.000000000               0.000000000               0.000000000               0.000000000               0.000000000               0.000000000               0.000000000               0.000000000               0.000000000               0.000000000               0.000000000               0.000000000               0.000000000               0.000000000               0.000000000               0.000000000               0.000000000               0.000000000               0.000000000               0.000000000               0.000000000               0.000000000               0.000000000               0.000000000               0.000000000               0.000000000               0.000000000               0.000000000               0.000000000               0.000000000               0.000000000               0.000000000               0.000000000               0.000000000               0.000000000               0.000000000               0.000000000               0.000000000               0.000000000               0.000000000               0.000000000               0.000000000               0.000000000               0.000000000               0.000000000               0.000000000               0.000000000               0.000000000               0.000000000               0.000000000               0.000000000               0.000000000               0.000000000               0.000000000               0.000000000               0.000000000               0.000000000               0.000000000               0.000000000               0.000000000               0.000000000               0.000000000               0.000000000               0.000000000               0.000000000               0.000000000               0.000000000               0.000000000               0.000000000               0.000000000               0.000000000               0.000000000               0.000000000               0.000000000               0.000000000               0.000000000               0.000000000               0.000000000               0.000000000               0.000000000               0.000000000               0.000000000               0.000000000               0.000000000               0.000000000               0.000000000               0.000000000               0.000000000               0.000000000               0.000000000               0.000000000               0.000000000               0.000000000               0.000000000               0.000000000               0.000000000               0.000000000               0.000000000               0.000000000               0.000000000               0.000000000               0.000000000               0.000000000               0.000000000               0.000000000               0.000000000               0.000000000               0.000000000               0.000000000               0.000000000               0.000000000               0.000000000               0.000000000               0.000000000               0.000000000               0.000000000               0.000000000               0.000000000               0.000000000               0.000000000               0.000000000               0.000000000               0.000000000               0.000000000               0.000000000               0.000000000               0.000000000               0.000000000               0.000000000               0.000000000               0.000000000               0.000000000               0.000000000               0.000000000               0.000000000               0.001401823               0.014712341               0.001081122              -0.001313356               0.005341850               0.004028494               0.000000000               0.000000000               0.000000000               0.000000000               0.001412239               0.011923300               0.000629379              -0.000960821               0.004294667               0.003333846               0.000000000               0.000000000               0.000000000               0.000000000               0.001854601               0.009694150               0.000172312              -0.000516292               0.003403449               0.002887156               0.000000000               0.000000000               0.000000000               0.000000000               0.001850509               0.008449473              -0.000030116              -0.000362242               0.002937210               0.002574968               0.000000000               0.000000000               0.000000000               0.000000000               0.001700012               0.007686038              -0.000120173              -0.000323250               0.002669737               0.002346487               0.000000000               0.000000000               0.000000000               0.000000000               0.001502635               0.007183806              -0.000158066              -0.000334487               0.002506074               0.002171587               0.000000000               0.000000000               0.000000000               0.000000000               0.001298044               0.006838855              -0.000173549              -0.000368089               0.002402292               0.002034202               0.000000000               0.000000000               0.000000000               0.000000000               0.001098208               0.006593696              -0.000177768              -0.000412383               0.002335338               0.001922955               0.000000000               0.000000000               0.000000000               0.000000000               0.000911724               0.006416046              -0.000174428              -0.000460108               0.002292030               0.001831922               0.000000000               0.000000000               0.000000000               0.000000000               0.000739710               0.006280561              -0.000166771              -0.000507678               0.002262725               0.001755048               0.000000000               0.000000000               0.000000000               0.000000000               0.000577165               0.006165921              -0.000157223              -0.000554302               0.002240054               0.001685752               0.000000000               0.000000000               0.000000000               0.000000000               0.000429351               0.006061862              -0.000145498              -0.000596725               0.002219509               0.001622784               0.000000000               0.000000000               0.000000000               0.000000000               0.000303688               0.005961511              -0.000129645              -0.000631304               0.002197585               0.001566281               0.000000000               0.000000000               0.000000000               0.000000000               0.000200238               0.005852346              -0.000108048              -0.000656452               0.002169580               0.001513128               0.000000000               0.000000000               0.000000000               0.000000000               0.000115251               0.005724793              -0.000079680              -0.000672378               0.002132372               0.001459993               0.000000000               0.000000000               0.000000000               0.000000000               0.000050326               0.005575202              -0.000043455              -0.000678026               0.002084391               0.001406365               0.000000000               0.000000000               0.000000000               0.000000000               0.000011743               0.005460699              -0.000026113              -0.000678182               0.002046276               0.001368094               0.000000000               0.000000000               0.000000000               0.000000000               0.001577237               0.013911941               0.002036205              -0.001147527               0.005019776               0.003872249               0.000000000               0.000000000               0.000000000               0.000000000               0.001407391               0.011381108               0.001189274              -0.000894865               0.004091953               0.003197088               0.000000000               0.000000000               0.000000000               0.000000000               0.001656302               0.009426424               0.000338603              -0.000557188               0.003327839               0.002770651               0.000000000               0.000000000               0.000000000               0.000000000               0.001576524               0.008324253              -0.000026812              -0.000449334               0.002924501               0.002475167               0.000000000               0.000000000               0.000000000               0.000000000               0.001404803               0.007633210              -0.000187145              -0.000427349               0.002686828               0.002259478               0.000000000               0.000000000               0.000000000               0.000000000               0.001210673               0.007172091              -0.000257064              -0.000442508               0.002538176               0.002095668               0.000000000               0.000000000               0.000000000               0.000000000               0.001016624               0.006850161              -0.000285371              -0.000475035               0.002441709               0.001966674               0.000000000               0.000000000               0.000000000               0.000000000               0.000834467               0.006612610              -0.000294364              -0.000513650               0.002375398               0.001861748               0.000000000               0.000000000               0.000000000               0.000000000               0.000676935               0.006432046              -0.000293661              -0.000550154               0.002327379               0.001777225               0.000000000               0.000000000               0.000000000               0.000000000               0.000538928               0.006288448              -0.000284175              -0.000583957               0.002290781               0.001706824               0.000000000               0.000000000               0.000000000               0.000000000               0.000413326               0.006164986              -0.000269610              -0.000615625               0.002260183               0.001644559               0.000000000               0.000000000               0.000000000               0.000000000               0.000304858               0.006054180              -0.000253532              -0.000642449               0.002232190               0.001589740               0.000000000               0.000000000               0.000000000               0.000000000               0.000214696               0.005946832              -0.000228992              -0.000662841               0.002203204               0.001540363               0.000000000               0.000000000               0.000000000               0.000000000               0.000140363               0.005835410              -0.000191184              -0.000676789               0.002170713               0.001493925               0.000000000               0.000000000               0.000000000               0.000000000               0.000079527               0.005718528              -0.000143918              -0.000684992               0.002134488               0.001449496               0.000000000               0.000000000               0.000000000               0.000000000               0.000033539               0.005599050              -0.000082023              -0.000687302               0.002095432               0.001408130               0.000000000               0.000000000               0.000000000               0.000000000               0.000006185               0.005516719              -0.000049562              -0.000687269               0.002067977               0.001380709               0.000000000               0.000000000               0.000000000               0.000000000               0.001803683               0.012693778               0.002763429              -0.000910341               0.004534663               0.003624323               0.000000000               0.000000000               0.000000000               0.000000000               0.001376036               0.010566814               0.001626835              -0.000804837               0.003790515               0.002985678               0.000000000               0.000000000               0.000000000               0.000000000               0.001349570               0.009020250               0.000494893              -0.000621441               0.003213867               0.002592426               0.000000000               0.000000000               0.000000000               0.000000000               0.001176812               0.008118214               0.000024960              -0.000573471               0.002897201               0.002323730               0.000000000               0.000000000               0.000000000               0.000000000               0.000988608               0.007530853              -0.000177533              -0.000570627               0.002700468               0.002129841               0.000000000               0.000000000               0.000000000               0.000000000               0.000807941               0.007123926              -0.000267768              -0.000587512               0.002570455               0.001982944               0.000000000               0.000000000               0.000000000               0.000000000               0.000640746               0.006830241              -0.000305939              -0.000613499               0.002481224               0.001867725               0.000000000               0.000000000               0.000000000               0.000000000               0.000494835               0.006607190              -0.000319445              -0.000640334               0.002415819               0.001775485               0.000000000               0.000000000               0.000000000               0.000000000               0.000378662               0.006426560              -0.000321617              -0.000661320               0.002362605               0.001701285               0.000000000               0.000000000               0.000000000               0.000000000               0.000284783               0.006271748              -0.000314503              -0.000677173               0.002316286               0.001639113               0.000000000               0.000000000               0.000000000               0.000000000               0.000210426               0.006134470              -0.000301447              -0.000687897               0.002274102               0.001586205               0.000000000               0.000000000               0.000000000               0.000000000               0.000152651               0.006006046              -0.000282228              -0.000693510               0.002233165               0.001539655               0.000000000               0.000000000               0.000000000               0.000000000               0.000104822               0.005881157              -0.000250495              -0.000695835               0.002192311               0.001496476               0.000000000               0.000000000               0.000000000               0.000000000               0.000069462               0.005764438              -0.000205196              -0.000694505               0.002152962               0.001458457               0.000000000               0.000000000               0.000000000               0.000000000               0.000041179               0.005659135              -0.000151270              -0.000691948               0.002117009               0.001425061               0.000000000               0.000000000               0.000000000               0.000000000               0.000016271               0.005569911              -0.000084840              -0.000690136               0.002086664               0.001396528               0.000000000               0.000000000               0.000000000               0.000000000               0.000001354               0.005522137              -0.000049482              -0.000689758               0.002070613               0.001380856               0.000000000               0.000000000               0.000000000               0.000000000               0.001997469               0.011198333               0.003203931              -0.000650742               0.003949654               0.003298912               0.000000000               0.000000000               0.000000000               0.000000000               0.001291448               0.009580407               0.001915781              -0.000713257               0.003431189               0.002717932               0.000000000               0.000000000               0.000000000               0.000000000               0.000969460               0.008526783               0.000643459              -0.000702299               0.003076332               0.002374033               0.000000000               0.000000000               0.000000000               0.000000000               0.000719375               0.007846458               0.000134312              -0.000711040               0.002852473               0.002141433               0.000000000               0.000000000               0.000000000               0.000000000               0.000534742               0.007368996              -0.000080736              -0.000720595               0.002696506               0.001975911               0.000000000               0.000000000               0.000000000               0.000000000               0.000385899               0.007019745              -0.000180361              -0.000732754               0.002584143               0.001851389               0.000000000               0.000000000               0.000000000               0.000000000               0.000264048               0.006754151              -0.000229217              -0.000745249               0.002499777               0.001754528               0.000000000               0.000000000               0.000000000               0.000000000               0.000168474               0.006541035              -0.000250395              -0.000754450               0.002431806               0.001677357               0.000000000               0.000000000               0.000000000               0.000000000               0.000097163               0.006355213              -0.000257351              -0.000757964               0.002371038               0.001613074               0.000000000               0.000000000               0.000000000               0.000000000               0.000050150               0.006187658              -0.000256223              -0.000754649               0.002314082               0.001559433               0.000000000               0.000000000               0.000000000               0.000000000               0.000021989               0.006034290              -0.000245636              -0.000746038               0.002260089               0.001514051               0.000000000               0.000000000               0.000000000               0.000000000               0.000006557               0.005887697              -0.000226452              -0.000733501               0.002207046               0.001473545               0.000000000               0.000000000               0.000000000               0.000000000              -0.000000646               0.005751927              -0.000197517              -0.000719231               0.002157034               0.001437802               0.000000000               0.000000000               0.000000000               0.000000000              -0.000003097               0.005632243              -0.000156768              -0.000705190               0.002112459               0.001407269               0.000000000               0.000000000               0.000000000               0.000000000              -0.000001938               0.005533030              -0.000109978              -0.000692354               0.002075110               0.001382756               0.000000000               0.000000000               0.000000000               0.000000000              -0.000001593               0.005458449              -0.000059040              -0.000682902               0.002047099               0.001364197               0.000000000               0.000000000               0.000000000               0.000000000              -0.000005450               0.005423611              -0.000034123              -0.000679993               0.002034517               0.001354523               0.000000000               0.000000000               0.000000000               0.000000000               0.002073205               0.009567660               0.003352584              -0.000418508               0.003328690               0.002910182               0.000000000               0.000000000               0.000000000               0.000000000               0.001134174               0.008522817               0.002064707              -0.000640037               0.003054256               0.002414219               0.000000000               0.000000000               0.000000000               0.000000000               0.000557388               0.007990851               0.000798718              -0.000789834               0.002926868               0.002137034               0.000000000               0.000000000               0.000000000               0.000000000               0.000272216               0.007524350               0.000305245              -0.000838461               0.002787578               0.001949118               0.000000000               0.000000000               0.000000000               0.000000000               0.000119339               0.007147477               0.000091777              -0.000848680               0.002665362               0.001816682               0.000000000               0.000000000               0.000000000               0.000000000               0.000021218               0.006846795              -0.000018530              -0.000847891               0.002564872               0.001716982               0.000000000               0.000000000               0.000000000               0.000000000              -0.000049130               0.006602420              -0.000083894              -0.000843724               0.002482026               0.001638302               0.000000000               0.000000000               0.000000000               0.000000000              -0.000095231               0.006392572              -0.000118068              -0.000834781               0.002409096               0.001574315               0.000000000               0.000000000               0.000000000               0.000000000              -0.000120846               0.006198335              -0.000134588              -0.000820107               0.002339460               0.001519353               0.000000000               0.000000000               0.000000000               0.000000000              -0.000125717               0.006020388              -0.000145187              -0.000799690               0.002273339               0.001473649               0.000000000               0.000000000               0.000000000               0.000000000              -0.000113750               0.005859488              -0.000145005              -0.000775090               0.002211507               0.001436416               0.000000000               0.000000000               0.000000000               0.000000000              -0.000092608               0.005710340              -0.000134857              -0.000748519               0.002152934               0.001404415               0.000000000               0.000000000               0.000000000               0.000000000              -0.000071114               0.005573913              -0.000118133              -0.000723405               0.002099087               0.001375682               0.000000000               0.000000000               0.000000000               0.000000000              -0.000054102               0.005456992              -0.000092412              -0.000702410               0.002053116               0.001350706               0.000000000               0.000000000               0.000000000               0.000000000              -0.000037438               0.005364893              -0.000062603              -0.000684649               0.002016496               0.001331847               0.000000000               0.000000000               0.000000000               0.000000000              -0.000018883               0.005298647              -0.000033918              -0.000669410               0.001989335               0.001319925               0.000000000               0.000000000               0.000000000               0.000000000              -0.000013718               0.005264675              -0.000022762              -0.000663227               0.001975950               0.001312723               0.000000000               0.000000000               0.000000000               0.000000000               0.001990894               0.007922128               0.003251935              -0.000243684               0.002721910               0.002478226               0.000000000               0.000000000               0.000000000               0.000000000               0.000916456               0.007473975               0.002108518              -0.000590576               0.002688158               0.002097582               0.000000000               0.000000000               0.000000000               0.000000000               0.000165797               0.007438318               0.000973101              -0.000867614               0.002768619               0.001901005               0.000000000               0.000000000               0.000000000               0.000000000              -0.000104236               0.007159939               0.000522250              -0.000934079               0.002697982               0.001763903               0.000000000               0.000000000               0.000000000               0.000000000              -0.000204657               0.006867790               0.000306052              -0.000935218               0.002600980               0.001665762               0.000000000               0.000000000               0.000000000               0.000000000              -0.000247315               0.006610337               0.000176136              -0.000919033               0.002509768               0.001590735               0.000000000               0.000000000               0.000000000               0.000000000              -0.000268095               0.006385135               0.000088773              -0.000898675               0.002427915               0.001529240               0.000000000               0.000000000               0.000000000               0.000000000              -0.000274211               0.006172740               0.000035765              -0.000874420               0.002349033               0.001474613               0.000000000               0.000000000               0.000000000               0.000000000              -0.000260241               0.005975694               0.000002477              -0.000844550               0.002273395               0.001428845               0.000000000               0.000000000               0.000000000               0.000000000              -0.000224391               0.005801061              -0.000025964              -0.000809277               0.002203427               0.001394149               0.000000000               0.000000000               0.000000000               0.000000000              -0.000177611               0.005640907              -0.000042835              -0.000771715               0.002137522               0.001365807               0.000000000               0.000000000               0.000000000               0.000000000              -0.000133471               0.005491448              -0.000047223              -0.000736481               0.002075958               0.001339477               0.000000000               0.000000000               0.000000000               0.000000000              -0.000096408               0.005360731              -0.000047090              -0.000706243               0.002022307               0.001316064               0.000000000               0.000000000               0.000000000               0.000000000              -0.000067969               0.005254152              -0.000041059              -0.000682256               0.001978785               0.001296529               0.000000000               0.000000000               0.000000000               0.000000000              -0.000042921               0.005173193              -0.000030200              -0.000662743               0.001945295               0.001282552               0.000000000               0.000000000               0.000000000               0.000000000              -0.000019981               0.005113895              -0.000017314              -0.000646728               0.001920191               0.001273462               0.000000000               0.000000000               0.000000000               0.000000000              -0.000014208               0.005079344              -0.000013093              -0.000640244               0.001906513               0.001266268               0.000000000               0.000000000               0.000000000               0.000000000               0.001769327               0.006364122               0.002955249              -0.000132021               0.002165359               0.002033338               0.000000000               0.000000000               0.000000000               0.000000000               0.000661243               0.006489902               0.002076099              -0.000563272               0.002351036               0.001787764               0.000000000               0.000000000               0.000000000               0.000000000              -0.000161015               0.006876933               0.001162414              -0.000919995               0.002598953               0.001678958               0.000000000               0.000000000               0.000000000               0.000000000              -0.000374676               0.006753846               0.000752601              -0.000984732               0.002579503               0.001594771               0.000000000               0.000000000               0.000000000               0.000000000              -0.000413944               0.006539851               0.000521195              -0.000972708               0.002504164               0.001531456               0.000000000               0.000000000               0.000000000               0.000000000              -0.000409350               0.006326775               0.000366924              -0.000944351               0.002423687               0.001479337               0.000000000               0.000000000               0.000000000               0.000000000              -0.000391158               0.006119706               0.000258313              -0.000911645               0.002343764               0.001432118               0.000000000               0.000000000               0.000000000               0.000000000              -0.000358866               0.005915579               0.000183676              -0.000874020               0.002263180               0.001389160               0.000000000               0.000000000               0.000000000               0.000000000              -0.000308242               0.005729928               0.000127036              -0.000831830               0.002187233               0.001355404               0.000000000               0.000000000               0.000000000               0.000000000              -0.000243036               0.005560517               0.000078482              -0.000786201               0.002115554               0.001329353               0.000000000               0.000000000               0.000000000               0.000000000              -0.000177157               0.005398588               0.000043755              -0.000741256               0.002046597               0.001305341               0.000000000               0.000000000               0.000000000               0.000000000              -0.000121915               0.005253955               0.000020213              -0.000702461               0.001985454               0.001282993               0.000000000               0.000000000               0.000000000               0.000000000              -0.000078974               0.005134304               0.000000652              -0.000671402               0.001935218               0.001263817               0.000000000               0.000000000               0.000000000               0.000000000              -0.000050538               0.005036544              -0.000010710              -0.000648518               0.001895004               0.001246486               0.000000000               0.000000000               0.000000000               0.000000000              -0.000030052               0.004958397              -0.000013880              -0.000631068               0.001863138               0.001232071               0.000000000               0.000000000               0.000000000               0.000000000              -0.000014498               0.004892475              -0.000010329              -0.000616994               0.001836474               0.001219479               0.000000000               0.000000000               0.000000000               0.000000000              -0.000013010               0.004850837              -0.000009704              -0.000611232               0.001820673               0.001209442               0.000000000               0.000000000               0.000000000               0.000000000               0.001467527               0.005017367               0.002534610              -0.000076852               0.001698055               0.001621204               0.000000000               0.000000000               0.000000000               0.000000000               0.000428246               0.005603192               0.002005233              -0.000539807               0.002047647               0.001507840               0.000000000               0.000000000               0.000000000               0.000000000              -0.000382815               0.006340684               0.001376424              -0.000936140               0.002425586               0.001489447               0.000000000               0.000000000               0.000000000               0.000000000              -0.000530561               0.006378425               0.000996182              -0.000996261               0.002458207               0.001461946               0.000000000               0.000000000               0.000000000               0.000000000              -0.000523750               0.006252372               0.000743304              -0.000977951               0.002410087               0.001432136               0.000000000               0.000000000               0.000000000               0.000000000              -0.000487209               0.006089961               0.000564296              -0.000943946               0.002344615               0.001400669               0.000000000               0.000000000               0.000000000               0.000000000              -0.000439413               0.005911919               0.000433943              -0.000903767               0.002271876               0.001368108               0.000000000               0.000000000               0.000000000               0.000000000              -0.000372682               0.005732306               0.000336125              -0.000856292               0.002196180               0.001339888               0.000000000               0.000000000               0.000000000               0.000000000              -0.000292361               0.005562130               0.000256617              -0.000804900               0.002122325               0.001317425               0.000000000               0.000000000               0.000000000               0.000000000              -0.000211602               0.005395303               0.000188369              -0.000753762               0.002049670               0.001295909               0.000000000               0.000000000               0.000000000               0.000000000              -0.000139135               0.005235091               0.000130580              -0.000706560               0.001980533               0.001273973               0.000000000               0.000000000               0.000000000               0.000000000              -0.000085172               0.005095127               0.000081800              -0.000668829               0.001921301               0.001252473               0.000000000               0.000000000               0.000000000               0.000000000              -0.000054832               0.004976977               0.000042194              -0.000642683               0.001873203               0.001230521               0.000000000               0.000000000               0.000000000               0.000000000              -0.000040780               0.004877082               0.000014496              -0.000624926               0.001833986               0.001209060               0.000000000               0.000000000               0.000000000               0.000000000              -0.000037689               0.004786596              -0.000000005              -0.000612456               0.001799668               0.001187212               0.000000000               0.000000000               0.000000000               0.000000000              -0.000040811               0.004697402              -0.000002727              -0.000602478               0.001766611               0.001164133               0.000000000               0.000000000               0.000000000               0.000000000              -0.000042505               0.004647348              -0.000003256              -0.000596856               0.001748053               0.001151196               0.000000000               0.000000000               0.000000000               0.000000000               0.001059023               0.003745390               0.002061785              -0.000071043               0.001272131               0.001201088               0.000000000               0.000000000               0.000000000               0.000000000               0.000253804               0.004591155               0.001912326              -0.000478719               0.001689942               0.001211223               0.000000000               0.000000000               0.000000000               0.000000000              -0.000464482               0.005582136               0.001610755              -0.000871946               0.002151342               0.001279395               0.000000000               0.000000000               0.000000000               0.000000000              -0.000584377               0.005831819               0.001276807              -0.000948117               0.002259959               0.001311842               0.000000000               0.000000000               0.000000000               0.000000000              -0.000559764               0.005840814               0.001006901              -0.000940011               0.002260255               0.001320244               0.000000000               0.000000000               0.000000000               0.000000000              -0.000511562               0.005771139               0.000803452              -0.000913226               0.002228102               0.001314876               0.000000000               0.000000000               0.000000000               0.000000000              -0.000453910               0.005667415               0.000652487              -0.000878641               0.002182000               0.001303359               0.000000000               0.000000000               0.000000000               0.000000000              -0.000380897               0.005547291               0.000531778              -0.000836246               0.002127827               0.001291581               0.000000000               0.000000000               0.000000000               0.000000000              -0.000299031               0.005419529               0.000427189              -0.000789576               0.002069683               0.001280108               0.000000000               0.000000000               0.000000000               0.000000000              -0.000218812               0.005286861               0.000334590              -0.000742910               0.002009906               0.001266996               0.000000000               0.000000000               0.000000000               0.000000000              -0.000147822               0.005150013               0.000251152              -0.000699183               0.001949715               0.001250532               0.000000000               0.000000000               0.000000000               0.000000000              -0.000094564               0.005019915               0.000174179              -0.000662949               0.001894271               0.001231322               0.000000000               0.000000000               0.000000000               0.000000000              -0.000065869               0.004904335               0.000108179              -0.000637741               0.001847342               0.001209601               0.000000000               0.000000000               0.000000000               0.000000000              -0.000059758               0.004802487               0.000056921              -0.000622718               0.001808386               0.001185667               0.000000000               0.000000000               0.000000000               0.000000000              -0.000068718               0.004706749               0.000022898              -0.000614111               0.001773605               0.001159493               0.000000000               0.000000000               0.000000000               0.000000000              -0.000088431               0.004607415               0.000005535              -0.000609087               0.001738819               0.001129732               0.000000000               0.000000000               0.000000000               0.000000000              -0.000099026               0.004556003               0.000000168              -0.000606634               0.001720864               0.001114230               0.000000000               0.000000000               0.000000000               0.000000000               0.000463619               0.002582582               0.001558248              -0.000148967               0.000910507               0.000761540               0.000000000               0.000000000               0.000000000               0.000000000               0.000045245               0.003589383               0.001762245              -0.000431707               0.001340350               0.000908644               0.000000000               0.000000000               0.000000000               0.000000000              -0.000472341               0.004733615               0.001787501              -0.000768829               0.001834132               0.001065303               0.000000000               0.000000000               0.000000000               0.000000000              -0.000565767               0.005181487               0.001543602              -0.000859847               0.002013760               0.001153913               0.000000000               0.000000000               0.000000000               0.000000000              -0.000536172               0.005345690               0.001284736              -0.000869274               0.002071637               0.001202362               0.000000000               0.000000000               0.000000000               0.000000000              -0.000481544               0.005392663               0.001069947              -0.000854660               0.002082423               0.001227763               0.000000000               0.000000000               0.000000000               0.000000000              -0.000424638               0.005382092               0.000903567              -0.000831999               0.002071346               0.001239347               0.000000000               0.000000000               0.000000000               0.000000000              -0.000360727               0.005336651               0.000763621              -0.000802352               0.002046316               0.001243964               0.000000000               0.000000000               0.000000000               0.000000000              -0.000288711               0.005270540               0.000638008              -0.000767082               0.002012523               0.001245441               0.000000000               0.000000000               0.000000000               0.000000000              -0.000214496               0.005186902               0.000525612              -0.000728797               0.001971882               0.001243085               0.000000000               0.000000000               0.000000000               0.000000000              -0.000144526               0.005086855               0.000421260              -0.000690053               0.001925619               0.001235566               0.000000000               0.000000000               0.000000000               0.000000000              -0.000086089               0.004979845               0.000319989              -0.000654762               0.001878186               0.001223423               0.000000000               0.000000000               0.000000000               0.000000000              -0.000051363               0.004868974               0.000226402              -0.000627881               0.001832269               0.001204388               0.000000000               0.000000000               0.000000000               0.000000000              -0.000045582               0.004766801               0.000145675              -0.000612942               0.001793232               0.001180290               0.000000000               0.000000000               0.000000000               0.000000000              -0.000065178               0.004677926               0.000081147              -0.000609181               0.001762353               0.001153172               0.000000000               0.000000000               0.000000000               0.000000000              -0.000108361               0.004590497               0.000033214              -0.000614446               0.001734966               0.001120520               0.000000000               0.000000000               0.000000000               0.000000000              -0.000143044               0.004541326               0.000009928              -0.000621306               0.001720862               0.001099556               0.000000000               0.000000000               0.000000000               0.000000000              -0.000283573               0.001597870               0.001054128              -0.000306074               0.000634642               0.000328568               0.000000000               0.000000000               0.000000000               0.000000000              -0.000244994               0.002641712               0.001532221              -0.000422087               0.001021257               0.000599170               0.000000000               0.000000000               0.000000000               0.000000000              -0.000451856               0.003796636               0.001830956              -0.000644025               0.001480207               0.000836182               0.000000000               0.000000000               0.000000000               0.000000000              -0.000469979               0.004388412               0.001702202              -0.000724793               0.001704387               0.000979594               0.000000000               0.000000000               0.000000000               0.000000000              -0.000426619               0.004696244               0.001487974              -0.000747012               0.001814403               0.001067391               0.000000000               0.000000000               0.000000000               0.000000000              -0.000369770               0.004865009               0.001285619              -0.000746789               0.001870583               0.001123794               0.000000000               0.000000000               0.000000000               0.000000000              -0.000320015               0.004959793               0.001115694              -0.000739978               0.001899907               0.001159929               0.000000000               0.000000000               0.000000000               0.000000000              -0.000269687               0.005005062               0.000968272              -0.000726764               0.001910592               0.001183828               0.000000000               0.000000000               0.000000000               0.000000000              -0.000214173               0.005013582               0.000833827              -0.000707011               0.001906847               0.001199836               0.000000000               0.000000000               0.000000000               0.000000000              -0.000154649               0.004994114               0.000711167              -0.000682256               0.001892107               0.001209851               0.000000000               0.000000000               0.000000000               0.000000000              -0.000093826               0.004949395               0.000596175              -0.000653858               0.001867734               0.001213877               0.000000000               0.000000000               0.000000000               0.000000000              -0.000036399               0.004884662               0.000482617              -0.000624231               0.001836281               0.001212050               0.000000000               0.000000000               0.000000000               0.000000000               0.000006930               0.004805424               0.000370194              -0.000598078               0.001801151               0.001203073               0.000000000               0.000000000               0.000000000               0.000000000               0.000021062               0.004723356               0.000263863              -0.000582520               0.001768609               0.001186090               0.000000000               0.000000000               0.000000000               0.000000000               0.000000166               0.004647059               0.000166760              -0.000580819               0.001742610               0.001161792               0.000000000               0.000000000               0.000000000               0.000000000              -0.000059466               0.004574179               0.000078468              -0.000594071               0.001722735               0.001128664               0.000000000               0.000000000               0.000000000               0.000000000              -0.000118742               0.004526350               0.000029682              -0.000610320               0.001712208               0.001101888               0.000000000               0.000000000               0.000000000               0.000000000              -0.001114666               0.000835676               0.000605271              -0.000522458               0.000452708              -0.000069751               0.000000000               0.000000000               0.000000000               0.000000000              -0.000593325               0.001791454               0.001242045              -0.000446428               0.000745954               0.000299526               0.000000000               0.000000000               0.000000000               0.000000000              -0.000419038               0.002841549               0.001724623              -0.000512333               0.001117950               0.000605617               0.000000000               0.000000000               0.000000000               0.000000000              -0.000315252               0.003510296               0.001708705              -0.000557006               0.001355755               0.000798749               0.000000000               0.000000000               0.000000000               0.000000000              -0.000239444               0.003933814               0.001557659              -0.000581518               0.001505097               0.000923579               0.000000000               0.000000000               0.000000000               0.000000000              -0.000177913               0.004218703               0.001387128              -0.000594055               0.001604238               0.001010184               0.000000000               0.000000000               0.000000000               0.000000000              -0.000137506               0.004417525               0.001231488              -0.000603755               0.001673745               0.001069990               0.000000000               0.000000000               0.000000000               0.000000000              -0.000104851               0.004554930               0.001091106              -0.000608685               0.001721190               0.001112505               0.000000000               0.000000000               0.000000000               0.000000000              -0.000069912               0.004644985               0.000959922              -0.000606839               0.001750593               0.001143753               0.000000000               0.000000000               0.000000000               0.000000000              -0.000030634               0.004700340               0.000839785              -0.000599029               0.001766441               0.001167411               0.000000000               0.000000000               0.000000000               0.000000000               0.000012778               0.004727566               0.000726555              -0.000586153               0.001771224               0.001185071               0.000000000               0.000000000               0.000000000               0.000000000               0.000060092               0.004726985               0.000615401              -0.000568337               0.001765092               0.001196754               0.000000000               0.000000000               0.000000000               0.000000000               0.000107171               0.004703561               0.000499165              -0.000547755               0.001750423               0.001202668               0.000000000               0.000000000               0.000000000               0.000000000               0.000139627               0.004664282               0.000379461              -0.000530674               0.001731637               0.001200963               0.000000000               0.000000000               0.000000000               0.000000000               0.000140401               0.004614030               0.000259778              -0.000524102               0.001712695               0.001188593               0.000000000               0.000000000               0.000000000               0.000000000               0.000097560               0.004562540               0.000133449              -0.000533731               0.001698742               0.001165011               0.000000000               0.000000000               0.000000000               0.000000000               0.000040763               0.004524577               0.000060883              -0.000550285               0.001691605               0.001141321               0.000000000               0.000000000               0.000000000               0.000000000              -0.001931736               0.000301364               0.000265215              -0.000762071               0.000354476              -0.000407595               0.000000000               0.000000000               0.000000000               0.000000000              -0.000956509               0.001089155               0.000920681              -0.000494835               0.000527992               0.000033157               0.000000000               0.000000000               0.000000000               0.000000000              -0.000388404               0.001958944               0.001463004              -0.000390520               0.000783147               0.000392628               0.000000000               0.000000000               0.000000000               0.000000000              -0.000133764               0.002643128               0.001528924              -0.000380553               0.001007884               0.000627331               0.000000000               0.000000000               0.000000000               0.000000000              -0.000010259               0.003147581               0.001443976              -0.000397295               0.001181614               0.000784319               0.000000000               0.000000000               0.000000000               0.000000000               0.000060742               0.003526910               0.001319607              -0.000418085               0.001314986               0.000896901               0.000000000               0.000000000               0.000000000               0.000000000               0.000100461               0.003812822               0.001194432              -0.000438930               0.001417238               0.000978308               0.000000000               0.000000000               0.000000000               0.000000000               0.000116191               0.004031369               0.001076411              -0.000460349               0.001497226               0.001036877               0.000000000               0.000000000               0.000000000               0.000000000               0.000131550               0.004203253               0.000963094              -0.000476075               0.001559762               0.001083687               0.000000000               0.000000000               0.000000000               0.000000000               0.000151653               0.004337159               0.000856232              -0.000485274               0.001607463               0.001122189               0.000000000               0.000000000               0.000000000               0.000000000               0.000177780               0.004440373               0.000755200              -0.000488378               0.001642902               0.001154524               0.000000000               0.000000000               0.000000000               0.000000000               0.000212758               0.004510344               0.000657655              -0.000484008               0.001664769               0.001180761               0.000000000               0.000000000               0.000000000               0.000000000               0.000258724               0.004551521               0.000554497              -0.000471918               0.001674465               0.001202547               0.000000000               0.000000000               0.000000000               0.000000000               0.000311660               0.004570944               0.000440343              -0.000454495               0.001675131               0.001220636               0.000000000               0.000000000               0.000000000               0.000000000               0.000352631               0.004565514               0.000315207              -0.000438452               0.001667973               0.001229522               0.000000000               0.000000000               0.000000000               0.000000000               0.000367827               0.004543690               0.000169404              -0.000430025               0.001657890               0.001227865               0.000000000               0.000000000               0.000000000               0.000000000               0.000359672               0.004524946               0.000086799              -0.000430740               0.001651880               0.001221140               0.000000000               0.000000000               0.000000000               0.000000000              -0.002627676              -0.000030934               0.000062909              -0.000981511               0.000316857              -0.000664654               0.000000000               0.000000000               0.000000000               0.000000000              -0.001279958               0.000574210               0.000596886              -0.000551760               0.000375320              -0.000176439               0.000000000               0.000000000               0.000000000               0.000000000              -0.000373068               0.001246239               0.001061561              -0.000295681               0.000513968               0.000218288               0.000000000               0.000000000               0.000000000               0.000000000               0.000028764               0.001903610               0.001155541              -0.000227165               0.000710251               0.000483086               0.000000000               0.000000000               0.000000000               0.000000000               0.000211258               0.002451526               0.001121292              -0.000227220               0.000892907               0.000665687               0.000000000               0.000000000               0.000000000               0.000000000               0.000299957               0.002893897               0.001048553              -0.000249254               0.001047707               0.000798453               0.000000000               0.000000000               0.000000000               0.000000000               0.000342230               0.003244297               0.000963740              -0.000277201               0.001173821               0.000896620               0.000000000               0.000000000               0.000000000               0.000000000               0.000353146               0.003524560               0.000879752              -0.000308140               0.001277555               0.000969415               0.000000000               0.000000000               0.000000000               0.000000000               0.000354170               0.003759158               0.000798525              -0.000337080               0.001365400               0.001028320               0.000000000               0.000000000               0.000000000               0.000000000               0.000360197               0.003957636               0.000717684              -0.000359630               0.001439075               0.001079445               0.000000000               0.000000000               0.000000000               0.000000000               0.000376149               0.004120740               0.000640591              -0.000374036               0.001498245               0.001124209               0.000000000               0.000000000               0.000000000               0.000000000               0.000406058               0.004253504               0.000566281              -0.000379416               0.001544292               0.001164877               0.000000000               0.000000000               0.000000000               0.000000000               0.000451956               0.004359789               0.000487393              -0.000375489               0.001578412               0.001202922               0.000000000               0.000000000               0.000000000               0.000000000               0.000518291               0.004442449               0.000396100              -0.000360946               0.001601117               0.001240171               0.000000000               0.000000000               0.000000000               0.000000000               0.000601144               0.004496151               0.000289551              -0.000336589               0.001610898               0.001274309               0.000000000               0.000000000               0.000000000               0.000000000               0.000692678               0.004515454               0.000158472              -0.000304677               0.001606695               0.001302019               0.000000000               0.000000000               0.000000000               0.000000000               0.000759732               0.004522462               0.000086665              -0.000280407               0.001600941               0.001320534               0.000000000               0.000000000               0.000000000               0.000000000              -0.003098141              -0.000201005              -0.000010333              -0.001136677               0.000311888              -0.000824788               0.000000000               0.000000000               0.000000000               0.000000000              -0.001507129               0.000265163               0.000288753              -0.000598318               0.000287825              -0.000310493               0.000000000               0.000000000               0.000000000               0.000000000              -0.000372380               0.000786287               0.000556782              -0.000237928               0.000341402               0.000103474               0.000000000               0.000000000               0.000000000               0.000000000               0.000133886               0.001406985               0.000622583              -0.000125666               0.000510879               0.000385213               0.000000000               0.000000000               0.000000000               0.000000000               0.000373550               0.001969328               0.000616049              -0.000106085               0.000691798               0.000585712               0.000000000               0.000000000               0.000000000               0.000000000               0.000483783               0.002442962               0.000585504              -0.000123952               0.000855630               0.000731678               0.000000000               0.000000000               0.000000000               0.000000000               0.000526468               0.002829565               0.000543268              -0.000156270               0.000995269               0.000838999               0.000000000               0.000000000               0.000000000               0.000000000               0.000539633               0.003150327               0.000499112              -0.000191428               0.001113908               0.000922480               0.000000000               0.000000000               0.000000000               0.000000000               0.000538100               0.003421339               0.000456628              -0.000225879               0.001215728               0.000989849               0.000000000               0.000000000               0.000000000               0.000000000               0.000537491               0.003653760               0.000413862              -0.000255161               0.001302961               0.001047801               0.000000000               0.000000000               0.000000000               0.000000000               0.000547341               0.003856809               0.000372843              -0.000276848               0.001377873               0.001101025               0.000000000               0.000000000               0.000000000               0.000000000               0.000572832               0.004035444               0.000332280              -0.000289618               0.001441674               0.001152056               0.000000000               0.000000000               0.000000000               0.000000000               0.000620101               0.004194681               0.000288438              -0.000291797               0.001495479               0.001203682               0.000000000               0.000000000               0.000000000               0.000000000               0.000697746               0.004331541               0.000238123              -0.000279787               0.001537095               0.001257308               0.000000000               0.000000000               0.000000000               0.000000000               0.000811081               0.004431868               0.000176361              -0.000249828               0.001560550               0.001310723               0.000000000               0.000000000               0.000000000               0.000000000               0.000964861               0.004485967               0.000097847              -0.000198923               0.001561615               0.001362692               0.000000000               0.000000000               0.000000000               0.000000000               0.001096055               0.004515697               0.000056234              -0.000153441               0.001556364               0.001402923               0.000000000               0.000000000               0.000000000               0.000000000               0.000000000               0.000000000               0.000000000               0.000000000               0.000000000               0.000000000               0.000000000               0.000000000               0.000000000               0.000000000               0.000000000               0.000000000               0.000000000               0.000000000               0.000000000               0.000000000               0.000000000               0.000000000               0.000000000               0.000000000               0.000000000               0.000000000               0.000000000               0.000000000               0.000000000               0.000000000               0.000000000               0.000000000               0.000000000               0.000000000               0.000000000               0.000000000               0.000000000               0.000000000               0.000000000               0.000000000               0.000000000               0.000000000               0.000000000               0.000000000               0.000000000               0.000000000               0.000000000               0.000000000               0.000000000               0.000000000               0.000000000               0.000000000               0.000000000               0.000000000               0.000000000               0.000000000               0.000000000               0.000000000               0.000000000               0.000000000               0.000000000               0.000000000               0.000000000               0.000000000               0.000000000               0.000000000               0.000000000               0.000000000               0.000000000               0.000000000               0.000000000               0.000000000               0.000000000               0.000000000               0.000000000               0.000000000               0.000000000               0.000000000               0.000000000               0.000000000               0.000000000               0.000000000               0.000000000               0.000000000               0.000000000               0.000000000               0.000000000               0.000000000               0.000000000               0.000000000               0.000000000               0.000000000               0.000000000               0.000000000               0.000000000               0.000000000               0.000000000               0.000000000               0.000000000               0.000000000               0.000000000               0.000000000               0.000000000               0.000000000               0.000000000               0.000000000               0.000000000               0.000000000               0.000000000               0.000000000               0.000000000               0.000000000               0.000000000               0.000000000               0.000000000               0.000000000               0.000000000               0.000000000               0.000000000               0.000000000               0.000000000               0.000000000               0.000000000               0.000000000               0.000000000               0.000000000               0.000000000               0.000000000               0.000000000               0.000000000               0.000000000               0.000000000               0.000000000               0.000000000               0.000000000               0.000000000               0.000000000               0.000000000               0.000000000               0.000000000               0.000000000               0.000000000               0.000000000               0.000000000               0.000000000               0.000000000               0.000000000               0.000000000               0.000000000               0.000000000               0.000000000               0.000000000               0.000000000               0.000000000               0.000000000               0.000000000               0.000000000               0.000000000               0.000000000               0.000000000               0.000000000               0.000000000               0.000000000               0.000000000               0.000000000               0.000000000               0.000000000               0.000000000               0.000000000               0.000000000               0.000000000               0.000000000               0.000000000               0.000000000 </DataArray>
</PointData>
</Piece>
</UnstructuredGrid> </VTKFile>
