<?xml version="1.0"?>
<VTKFile type="UnstructuredGrid" version="0.1">
<UnstructuredGrid>
<Piece NumberOfPoints="      1156" NumberOfCells="      1024">
<Points>
<DataArray type="Float64"                                    Name="coordinates"                                                      NumberOfComponents=" 3" format="ascii">
              0.133000000               0.000000000               0.000000000               0.155937500               0.000000000               0.000000000               0.178875000               0.000000000               0.000000000               0.201812500               0.000000000               0.000000000               0.224750000               0.000000000               0.000000000               0.247687500               0.000000000               0.000000000               0.270625000               0.000000000               0.000000000               0.293562500               0.000000000               0.000000000               0.316500000               0.000000000               0.000000000               0.339437500               0.000000000               0.000000000               0.362375000               0.000000000               0.000000000               0.385312500               0.000000000               0.000000000               0.408250000               0.000000000               0.000000000               0.431187500               0.000000000               0.000000000               0.454125000               0.000000000               0.000000000               0.477062500               0.000000000               0.000000000               0.500000000               0.000000000               0.000000000               0.132359569               0.013036280               0.000000000               0.155337096               0.016127762               0.000000000               0.178314623               0.019219245               0.000000000               0.201292150               0.022310727               0.000000000               0.224269676               0.025402210               0.000000000               0.247247203               0.028493692               0.000000000               0.270224730               0.031585175               0.000000000               0.293202257               0.034676657               0.000000000               0.316179784               0.037768140               0.000000000               0.339157311               0.040859622               0.000000000               0.362134838               0.043951105               0.000000000               0.385112365               0.047042587               0.000000000               0.408089892               0.050134070               0.000000000               0.431067419               0.053225552               0.000000000               0.454044946               0.056317035               0.000000000               0.477022473               0.059408517               0.000000000               0.500000000               0.062500000               0.000000000               0.130444442               0.025947013               0.000000000               0.153541665               0.032137825               0.000000000               0.176638887               0.038328636               0.000000000               0.199736109               0.044519448               0.000000000               0.222833332               0.050710260               0.000000000               0.245930554               0.056901071               0.000000000               0.269027776               0.063091883               0.000000000               0.292124999               0.069282695               0.000000000               0.315222221               0.075473506               0.000000000               0.338319444               0.081664318               0.000000000               0.361416666               0.087855130               0.000000000               0.384513888               0.094045942               0.000000000               0.407611111               0.100236753               0.000000000               0.430708333               0.106427565               0.000000000               0.453805555               0.112618377               0.000000000               0.476902778               0.118809188               0.000000000               0.500000000               0.125000000               0.000000000               0.127273065               0.038607862               0.000000000               0.150568498               0.047913621               0.000000000               0.173863932               0.057219379               0.000000000               0.197159365               0.066525138               0.000000000               0.220454798               0.075830897               0.000000000               0.243750232               0.085136655               0.000000000               0.267045665               0.094442414               0.000000000               0.290341099               0.103748172               0.000000000               0.313636532               0.113053931               0.000000000               0.336931966               0.122359690               0.000000000               0.360227399               0.131665448               0.000000000               0.383522833               0.140971207               0.000000000               0.406818266               0.150276966               0.000000000               0.430113700               0.159582724               0.000000000               0.453409133               0.168888483               0.000000000               0.476704567               0.178194241               0.000000000               0.500000000               0.187500000               0.000000000               0.122875978               0.050896897               0.000000000               0.146446229               0.063340840               0.000000000               0.170016481               0.075784784               0.000000000               0.193586732               0.088228728               0.000000000               0.217156983               0.100672672               0.000000000               0.240727235               0.113116616               0.000000000               0.264297486               0.125560560               0.000000000               0.287867738               0.138004504               0.000000000               0.311437989               0.150448448               0.000000000               0.335008240               0.162892392               0.000000000               0.358578492               0.175336336               0.000000000               0.382148743               0.187780280               0.000000000               0.405718994               0.200224224               0.000000000               0.429289246               0.212668168               0.000000000               0.452859497               0.225112112               0.000000000               0.476429749               0.237556056               0.000000000               0.500000000               0.250000000               0.000000000               0.117295528               0.062695766               0.000000000               0.141214558               0.078308531               0.000000000               0.165133587               0.093921295               0.000000000               0.189052617               0.109534060               0.000000000               0.212971646               0.125146824               0.000000000               0.236890676               0.140759589               0.000000000               0.260809705               0.156372354               0.000000000               0.284728735               0.171985118               0.000000000               0.308647764               0.187597883               0.000000000               0.332566794               0.203210648               0.000000000               0.356485823               0.218823412               0.000000000               0.380404853               0.234436177               0.000000000               0.404323882               0.250048941               0.000000000               0.428242912               0.265661706               0.000000000               0.452161941               0.281274471               0.000000000               0.476080971               0.296887235               0.000000000               0.500000000               0.312500000               0.000000000               0.110585458               0.073890841               0.000000000               0.134923867               0.092710163               0.000000000               0.159262276               0.111529486               0.000000000               0.183600685               0.130348808               0.000000000               0.207939094               0.149168131               0.000000000               0.232277503               0.167987453               0.000000000               0.256615912               0.186806776               0.000000000               0.280954320               0.205626098               0.000000000               0.305292729               0.224445420               0.000000000               0.329631138               0.243264743               0.000000000               0.353969547               0.262084065               0.000000000               0.378307956               0.280903388               0.000000000               0.402646365               0.299722710               0.000000000               0.426984773               0.318542033               0.000000000               0.451323182               0.337361355               0.000000000               0.475661591               0.356180678               0.000000000               0.500000000               0.375000000               0.000000000               0.102810390               0.084374307               0.000000000               0.127634741               0.106444663               0.000000000               0.152459092               0.128515018               0.000000000               0.177283442               0.150585374               0.000000000               0.202107793               0.172655730               0.000000000               0.226932143               0.194726086               0.000000000               0.251756494               0.216796442               0.000000000               0.276580845               0.238866798               0.000000000               0.301405195               0.260937153               0.000000000               0.326229546               0.283007509               0.000000000               0.351053896               0.305077865               0.000000000               0.375878247               0.327148221               0.000000000               0.400702598               0.349218577               0.000000000               0.425526948               0.371288933               0.000000000               0.450351299               0.393359288               0.000000000               0.475175649               0.415429644               0.000000000               0.500000000               0.437500000               0.000000000               0.094045202               0.094045202               0.000000000               0.119417377               0.119417377               0.000000000               0.144789552               0.144789552               0.000000000               0.170161727               0.170161727               0.000000000               0.195533901               0.195533901               0.000000000               0.220906076               0.220906076               0.000000000               0.246278251               0.246278251               0.000000000               0.271650426               0.271650426               0.000000000               0.297022601               0.297022601               0.000000000               0.322394776               0.322394776               0.000000000               0.347766951               0.347766951               0.000000000               0.373139126               0.373139126               0.000000000               0.398511300               0.398511300               0.000000000               0.423883475               0.423883475               0.000000000               0.449255650               0.449255650               0.000000000               0.474627825               0.474627825               0.000000000               0.500000000               0.500000000               0.000000000               0.084374307               0.102810390               0.000000000               0.106444663               0.127634741               0.000000000               0.128515018               0.152459092               0.000000000               0.150585374               0.177283442               0.000000000               0.172655730               0.202107793               0.000000000               0.194726086               0.226932143               0.000000000               0.216796442               0.251756494               0.000000000               0.238866798               0.276580845               0.000000000               0.260937153               0.301405195               0.000000000               0.283007509               0.326229546               0.000000000               0.305077865               0.351053896               0.000000000               0.327148221               0.375878247               0.000000000               0.349218577               0.400702598               0.000000000               0.371288933               0.425526948               0.000000000               0.393359288               0.450351299               0.000000000               0.415429644               0.475175649               0.000000000               0.437500000               0.500000000               0.000000000               0.073890841               0.110585458               0.000000000               0.092710163               0.134923867               0.000000000               0.111529486               0.159262276               0.000000000               0.130348808               0.183600685               0.000000000               0.149168131               0.207939094               0.000000000               0.167987453               0.232277503               0.000000000               0.186806776               0.256615912               0.000000000               0.205626098               0.280954320               0.000000000               0.224445420               0.305292729               0.000000000               0.243264743               0.329631138               0.000000000               0.262084065               0.353969547               0.000000000               0.280903388               0.378307956               0.000000000               0.299722710               0.402646365               0.000000000               0.318542033               0.426984773               0.000000000               0.337361355               0.451323182               0.000000000               0.356180678               0.475661591               0.000000000               0.375000000               0.500000000               0.000000000               0.062695766               0.117295528               0.000000000               0.078308531               0.141214558               0.000000000               0.093921295               0.165133587               0.000000000               0.109534060               0.189052617               0.000000000               0.125146824               0.212971646               0.000000000               0.140759589               0.236890676               0.000000000               0.156372354               0.260809705               0.000000000               0.171985118               0.284728735               0.000000000               0.187597883               0.308647764               0.000000000               0.203210648               0.332566794               0.000000000               0.218823412               0.356485823               0.000000000               0.234436177               0.380404853               0.000000000               0.250048941               0.404323882               0.000000000               0.265661706               0.428242912               0.000000000               0.281274471               0.452161941               0.000000000               0.296887235               0.476080971               0.000000000               0.312500000               0.500000000               0.000000000               0.050896897               0.122875978               0.000000000               0.063340840               0.146446229               0.000000000               0.075784784               0.170016481               0.000000000               0.088228728               0.193586732               0.000000000               0.100672672               0.217156983               0.000000000               0.113116616               0.240727235               0.000000000               0.125560560               0.264297486               0.000000000               0.138004504               0.287867738               0.000000000               0.150448448               0.311437989               0.000000000               0.162892392               0.335008240               0.000000000               0.175336336               0.358578492               0.000000000               0.187780280               0.382148743               0.000000000               0.200224224               0.405718994               0.000000000               0.212668168               0.429289246               0.000000000               0.225112112               0.452859497               0.000000000               0.237556056               0.476429749               0.000000000               0.250000000               0.500000000               0.000000000               0.038607862               0.127273065               0.000000000               0.047913621               0.150568498               0.000000000               0.057219379               0.173863932               0.000000000               0.066525138               0.197159365               0.000000000               0.075830897               0.220454798               0.000000000               0.085136655               0.243750232               0.000000000               0.094442414               0.267045665               0.000000000               0.103748172               0.290341099               0.000000000               0.113053931               0.313636532               0.000000000               0.122359690               0.336931966               0.000000000               0.131665448               0.360227399               0.000000000               0.140971207               0.383522833               0.000000000               0.150276966               0.406818266               0.000000000               0.159582724               0.430113700               0.000000000               0.168888483               0.453409133               0.000000000               0.178194241               0.476704567               0.000000000               0.187500000               0.500000000               0.000000000               0.025947013               0.130444442               0.000000000               0.032137825               0.153541665               0.000000000               0.038328636               0.176638887               0.000000000               0.044519448               0.199736109               0.000000000               0.050710260               0.222833332               0.000000000               0.056901071               0.245930554               0.000000000               0.063091883               0.269027776               0.000000000               0.069282695               0.292124999               0.000000000               0.075473506               0.315222221               0.000000000               0.081664318               0.338319444               0.000000000               0.087855130               0.361416666               0.000000000               0.094045942               0.384513888               0.000000000               0.100236753               0.407611111               0.000000000               0.106427565               0.430708333               0.000000000               0.112618377               0.453805555               0.000000000               0.118809188               0.476902778               0.000000000               0.125000000               0.500000000               0.000000000               0.013036280               0.132359569               0.000000000               0.016127762               0.155337096               0.000000000               0.019219245               0.178314623               0.000000000               0.022310727               0.201292150               0.000000000               0.025402210               0.224269676               0.000000000               0.028493692               0.247247203               0.000000000               0.031585175               0.270224730               0.000000000               0.034676657               0.293202257               0.000000000               0.037768140               0.316179784               0.000000000               0.040859622               0.339157311               0.000000000               0.043951105               0.362134838               0.000000000               0.047042587               0.385112365               0.000000000               0.050134070               0.408089892               0.000000000               0.053225552               0.431067419               0.000000000               0.056317035               0.454044946               0.000000000               0.059408517               0.477022473               0.000000000               0.062500000               0.500000000               0.000000000               0.000000000               0.133000000               0.000000000               0.000000000               0.155937500               0.000000000               0.000000000               0.178875000               0.000000000               0.000000000               0.201812500               0.000000000               0.000000000               0.224750000               0.000000000               0.000000000               0.247687500               0.000000000               0.000000000               0.270625000               0.000000000               0.000000000               0.293562500               0.000000000               0.000000000               0.316500000               0.000000000               0.000000000               0.339437500               0.000000000               0.000000000               0.362375000               0.000000000               0.000000000               0.385312500               0.000000000               0.000000000               0.408250000               0.000000000               0.000000000               0.431187500               0.000000000               0.000000000               0.454125000               0.000000000               0.000000000               0.477062500               0.000000000               0.000000000               0.500000000               0.000000000               0.133000000               0.000000000               0.000000000               0.155937500               0.000000000               0.000000000               0.178875000               0.000000000               0.000000000               0.201812500               0.000000000               0.000000000               0.224750000               0.000000000               0.000000000               0.247687500               0.000000000               0.000000000               0.270625000               0.000000000               0.000000000               0.293562500               0.000000000               0.000000000               0.316500000               0.000000000               0.000000000               0.339437500               0.000000000               0.000000000               0.362375000               0.000000000               0.000000000               0.385312500               0.000000000               0.000000000               0.408250000               0.000000000               0.000000000               0.431187500               0.000000000               0.000000000               0.454125000               0.000000000               0.000000000               0.477062500               0.000000000               0.000000000               0.500000000               0.000000000               0.000000000               0.132359569              -0.013036280               0.000000000               0.155337096              -0.016127762               0.000000000               0.178314623              -0.019219245               0.000000000               0.201292150              -0.022310727               0.000000000               0.224269676              -0.025402210               0.000000000               0.247247203              -0.028493692               0.000000000               0.270224730              -0.031585175               0.000000000               0.293202257              -0.034676657               0.000000000               0.316179784              -0.037768140               0.000000000               0.339157311              -0.040859622               0.000000000               0.362134838              -0.043951105               0.000000000               0.385112365              -0.047042587               0.000000000               0.408089892              -0.050134070               0.000000000               0.431067419              -0.053225552               0.000000000               0.454044946              -0.056317035               0.000000000               0.477022473              -0.059408517               0.000000000               0.500000000              -0.062500000               0.000000000               0.130444442              -0.025947013               0.000000000               0.153541665              -0.032137825               0.000000000               0.176638887              -0.038328636               0.000000000               0.199736109              -0.044519448               0.000000000               0.222833332              -0.050710260               0.000000000               0.245930554              -0.056901071               0.000000000               0.269027776              -0.063091883               0.000000000               0.292124999              -0.069282695               0.000000000               0.315222221              -0.075473506               0.000000000               0.338319444              -0.081664318               0.000000000               0.361416666              -0.087855130               0.000000000               0.384513888              -0.094045942               0.000000000               0.407611111              -0.100236753               0.000000000               0.430708333              -0.106427565               0.000000000               0.453805555              -0.112618377               0.000000000               0.476902778              -0.118809188               0.000000000               0.500000000              -0.125000000               0.000000000               0.127273065              -0.038607862               0.000000000               0.150568498              -0.047913621               0.000000000               0.173863932              -0.057219379               0.000000000               0.197159365              -0.066525138               0.000000000               0.220454798              -0.075830897               0.000000000               0.243750232              -0.085136655               0.000000000               0.267045665              -0.094442414               0.000000000               0.290341099              -0.103748172               0.000000000               0.313636532              -0.113053931               0.000000000               0.336931966              -0.122359690               0.000000000               0.360227399              -0.131665448               0.000000000               0.383522833              -0.140971207               0.000000000               0.406818266              -0.150276966               0.000000000               0.430113700              -0.159582724               0.000000000               0.453409133              -0.168888483               0.000000000               0.476704567              -0.178194241               0.000000000               0.500000000              -0.187500000               0.000000000               0.122875978              -0.050896897               0.000000000               0.146446229              -0.063340840               0.000000000               0.170016481              -0.075784784               0.000000000               0.193586732              -0.088228728               0.000000000               0.217156983              -0.100672672               0.000000000               0.240727235              -0.113116616               0.000000000               0.264297486              -0.125560560               0.000000000               0.287867738              -0.138004504               0.000000000               0.311437989              -0.150448448               0.000000000               0.335008240              -0.162892392               0.000000000               0.358578492              -0.175336336               0.000000000               0.382148743              -0.187780280               0.000000000               0.405718994              -0.200224224               0.000000000               0.429289246              -0.212668168               0.000000000               0.452859497              -0.225112112               0.000000000               0.476429749              -0.237556056               0.000000000               0.500000000              -0.250000000               0.000000000               0.117295528              -0.062695766               0.000000000               0.141214558              -0.078308531               0.000000000               0.165133587              -0.093921295               0.000000000               0.189052617              -0.109534060               0.000000000               0.212971646              -0.125146824               0.000000000               0.236890676              -0.140759589               0.000000000               0.260809705              -0.156372354               0.000000000               0.284728735              -0.171985118               0.000000000               0.308647764              -0.187597883               0.000000000               0.332566794              -0.203210648               0.000000000               0.356485823              -0.218823412               0.000000000               0.380404853              -0.234436177               0.000000000               0.404323882              -0.250048941               0.000000000               0.428242912              -0.265661706               0.000000000               0.452161941              -0.281274471               0.000000000               0.476080971              -0.296887235               0.000000000               0.500000000              -0.312500000               0.000000000               0.110585458              -0.073890841               0.000000000               0.134923867              -0.092710163               0.000000000               0.159262276              -0.111529486               0.000000000               0.183600685              -0.130348808               0.000000000               0.207939094              -0.149168131               0.000000000               0.232277503              -0.167987453               0.000000000               0.256615912              -0.186806776               0.000000000               0.280954320              -0.205626098               0.000000000               0.305292729              -0.224445420               0.000000000               0.329631138              -0.243264743               0.000000000               0.353969547              -0.262084065               0.000000000               0.378307956              -0.280903388               0.000000000               0.402646365              -0.299722710               0.000000000               0.426984773              -0.318542033               0.000000000               0.451323182              -0.337361355               0.000000000               0.475661591              -0.356180678               0.000000000               0.500000000              -0.375000000               0.000000000               0.102810390              -0.084374307               0.000000000               0.127634741              -0.106444663               0.000000000               0.152459092              -0.128515018               0.000000000               0.177283442              -0.150585374               0.000000000               0.202107793              -0.172655730               0.000000000               0.226932143              -0.194726086               0.000000000               0.251756494              -0.216796442               0.000000000               0.276580845              -0.238866798               0.000000000               0.301405195              -0.260937153               0.000000000               0.326229546              -0.283007509               0.000000000               0.351053896              -0.305077865               0.000000000               0.375878247              -0.327148221               0.000000000               0.400702598              -0.349218577               0.000000000               0.425526948              -0.371288933               0.000000000               0.450351299              -0.393359288               0.000000000               0.475175649              -0.415429644               0.000000000               0.500000000              -0.437500000               0.000000000               0.094045202              -0.094045202               0.000000000               0.119417377              -0.119417377               0.000000000               0.144789552              -0.144789552               0.000000000               0.170161727              -0.170161727               0.000000000               0.195533901              -0.195533901               0.000000000               0.220906076              -0.220906076               0.000000000               0.246278251              -0.246278251               0.000000000               0.271650426              -0.271650426               0.000000000               0.297022601              -0.297022601               0.000000000               0.322394776              -0.322394776               0.000000000               0.347766951              -0.347766951               0.000000000               0.373139126              -0.373139126               0.000000000               0.398511300              -0.398511300               0.000000000               0.423883475              -0.423883475               0.000000000               0.449255650              -0.449255650               0.000000000               0.474627825              -0.474627825               0.000000000               0.500000000              -0.500000000               0.000000000               0.084374307              -0.102810390               0.000000000               0.106444663              -0.127634741               0.000000000               0.128515018              -0.152459092               0.000000000               0.150585374              -0.177283442               0.000000000               0.172655730              -0.202107793               0.000000000               0.194726086              -0.226932143               0.000000000               0.216796442              -0.251756494               0.000000000               0.238866798              -0.276580845               0.000000000               0.260937153              -0.301405195               0.000000000               0.283007509              -0.326229546               0.000000000               0.305077865              -0.351053896               0.000000000               0.327148221              -0.375878247               0.000000000               0.349218577              -0.400702598               0.000000000               0.371288933              -0.425526948               0.000000000               0.393359288              -0.450351299               0.000000000               0.415429644              -0.475175649               0.000000000               0.437500000              -0.500000000               0.000000000               0.073890841              -0.110585458               0.000000000               0.092710163              -0.134923867               0.000000000               0.111529486              -0.159262276               0.000000000               0.130348808              -0.183600685               0.000000000               0.149168131              -0.207939094               0.000000000               0.167987453              -0.232277503               0.000000000               0.186806776              -0.256615912               0.000000000               0.205626098              -0.280954320               0.000000000               0.224445420              -0.305292729               0.000000000               0.243264743              -0.329631138               0.000000000               0.262084065              -0.353969547               0.000000000               0.280903388              -0.378307956               0.000000000               0.299722710              -0.402646365               0.000000000               0.318542033              -0.426984773               0.000000000               0.337361355              -0.451323182               0.000000000               0.356180678              -0.475661591               0.000000000               0.375000000              -0.500000000               0.000000000               0.062695766              -0.117295528               0.000000000               0.078308531              -0.141214558               0.000000000               0.093921295              -0.165133587               0.000000000               0.109534060              -0.189052617               0.000000000               0.125146824              -0.212971646               0.000000000               0.140759589              -0.236890676               0.000000000               0.156372354              -0.260809705               0.000000000               0.171985118              -0.284728735               0.000000000               0.187597883              -0.308647764               0.000000000               0.203210648              -0.332566794               0.000000000               0.218823412              -0.356485823               0.000000000               0.234436177              -0.380404853               0.000000000               0.250048941              -0.404323882               0.000000000               0.265661706              -0.428242912               0.000000000               0.281274471              -0.452161941               0.000000000               0.296887235              -0.476080971               0.000000000               0.312500000              -0.500000000               0.000000000               0.050896897              -0.122875978               0.000000000               0.063340840              -0.146446229               0.000000000               0.075784784              -0.170016481               0.000000000               0.088228728              -0.193586732               0.000000000               0.100672672              -0.217156983               0.000000000               0.113116616              -0.240727235               0.000000000               0.125560560              -0.264297486               0.000000000               0.138004504              -0.287867738               0.000000000               0.150448448              -0.311437989               0.000000000               0.162892392              -0.335008240               0.000000000               0.175336336              -0.358578492               0.000000000               0.187780280              -0.382148743               0.000000000               0.200224224              -0.405718994               0.000000000               0.212668168              -0.429289246               0.000000000               0.225112112              -0.452859497               0.000000000               0.237556056              -0.476429749               0.000000000               0.250000000              -0.500000000               0.000000000               0.038607862              -0.127273065               0.000000000               0.047913621              -0.150568498               0.000000000               0.057219379              -0.173863932               0.000000000               0.066525138              -0.197159365               0.000000000               0.075830897              -0.220454798               0.000000000               0.085136655              -0.243750232               0.000000000               0.094442414              -0.267045665               0.000000000               0.103748172              -0.290341099               0.000000000               0.113053931              -0.313636532               0.000000000               0.122359690              -0.336931966               0.000000000               0.131665448              -0.360227399               0.000000000               0.140971207              -0.383522833               0.000000000               0.150276966              -0.406818266               0.000000000               0.159582724              -0.430113700               0.000000000               0.168888483              -0.453409133               0.000000000               0.178194241              -0.476704567               0.000000000               0.187500000              -0.500000000               0.000000000               0.025947013              -0.130444442               0.000000000               0.032137825              -0.153541665               0.000000000               0.038328636              -0.176638887               0.000000000               0.044519448              -0.199736109               0.000000000               0.050710260              -0.222833332               0.000000000               0.056901071              -0.245930554               0.000000000               0.063091883              -0.269027776               0.000000000               0.069282695              -0.292124999               0.000000000               0.075473506              -0.315222221               0.000000000               0.081664318              -0.338319444               0.000000000               0.087855130              -0.361416666               0.000000000               0.094045942              -0.384513888               0.000000000               0.100236753              -0.407611111               0.000000000               0.106427565              -0.430708333               0.000000000               0.112618377              -0.453805555               0.000000000               0.118809188              -0.476902778               0.000000000               0.125000000              -0.500000000               0.000000000               0.013036280              -0.132359569               0.000000000               0.016127762              -0.155337096               0.000000000               0.019219245              -0.178314623               0.000000000               0.022310727              -0.201292150               0.000000000               0.025402210              -0.224269676               0.000000000               0.028493692              -0.247247203               0.000000000               0.031585175              -0.270224730               0.000000000               0.034676657              -0.293202257               0.000000000               0.037768140              -0.316179784               0.000000000               0.040859622              -0.339157311               0.000000000               0.043951105              -0.362134838               0.000000000               0.047042587              -0.385112365               0.000000000               0.050134070              -0.408089892               0.000000000               0.053225552              -0.431067419               0.000000000               0.056317035              -0.454044946               0.000000000               0.059408517              -0.477022473               0.000000000               0.062500000              -0.500000000               0.000000000               0.000000000              -0.133000000               0.000000000               0.000000000              -0.155937500               0.000000000               0.000000000              -0.178875000               0.000000000               0.000000000              -0.201812500               0.000000000               0.000000000              -0.224750000               0.000000000               0.000000000              -0.247687500               0.000000000               0.000000000              -0.270625000               0.000000000               0.000000000              -0.293562500               0.000000000               0.000000000              -0.316500000               0.000000000               0.000000000              -0.339437500               0.000000000               0.000000000              -0.362375000               0.000000000               0.000000000              -0.385312500               0.000000000               0.000000000              -0.408250000               0.000000000               0.000000000              -0.431187500               0.000000000               0.000000000              -0.454125000               0.000000000               0.000000000              -0.477062500               0.000000000               0.000000000              -0.500000000               0.000000000              -0.133000000               0.000000000               0.000000000              -0.155937500               0.000000000               0.000000000              -0.178875000               0.000000000               0.000000000              -0.201812500               0.000000000               0.000000000              -0.224750000               0.000000000               0.000000000              -0.247687500               0.000000000               0.000000000              -0.270625000               0.000000000               0.000000000              -0.293562500               0.000000000               0.000000000              -0.316500000               0.000000000               0.000000000              -0.339437500               0.000000000               0.000000000              -0.362375000               0.000000000               0.000000000              -0.385312500               0.000000000               0.000000000              -0.408250000               0.000000000               0.000000000              -0.431187500               0.000000000               0.000000000              -0.454125000               0.000000000               0.000000000              -0.477062500               0.000000000               0.000000000              -0.500000000               0.000000000               0.000000000              -0.132359569              -0.013036280               0.000000000              -0.155337096              -0.016127762               0.000000000              -0.178314623              -0.019219245               0.000000000              -0.201292150              -0.022310727               0.000000000              -0.224269676              -0.025402210               0.000000000              -0.247247203              -0.028493692               0.000000000              -0.270224730              -0.031585175               0.000000000              -0.293202257              -0.034676657               0.000000000              -0.316179784              -0.037768140               0.000000000              -0.339157311              -0.040859622               0.000000000              -0.362134838              -0.043951105               0.000000000              -0.385112365              -0.047042587               0.000000000              -0.408089892              -0.050134070               0.000000000              -0.431067419              -0.053225552               0.000000000              -0.454044946              -0.056317035               0.000000000              -0.477022473              -0.059408517               0.000000000              -0.500000000              -0.062500000               0.000000000              -0.130444442              -0.025947013               0.000000000              -0.153541665              -0.032137825               0.000000000              -0.176638887              -0.038328636               0.000000000              -0.199736109              -0.044519448               0.000000000              -0.222833332              -0.050710260               0.000000000              -0.245930554              -0.056901071               0.000000000              -0.269027776              -0.063091883               0.000000000              -0.292124999              -0.069282695               0.000000000              -0.315222221              -0.075473506               0.000000000              -0.338319444              -0.081664318               0.000000000              -0.361416666              -0.087855130               0.000000000              -0.384513888              -0.094045942               0.000000000              -0.407611111              -0.100236753               0.000000000              -0.430708333              -0.106427565               0.000000000              -0.453805555              -0.112618377               0.000000000              -0.476902778              -0.118809188               0.000000000              -0.500000000              -0.125000000               0.000000000              -0.127273065              -0.038607862               0.000000000              -0.150568498              -0.047913621               0.000000000              -0.173863932              -0.057219379               0.000000000              -0.197159365              -0.066525138               0.000000000              -0.220454798              -0.075830897               0.000000000              -0.243750232              -0.085136655               0.000000000              -0.267045665              -0.094442414               0.000000000              -0.290341099              -0.103748172               0.000000000              -0.313636532              -0.113053931               0.000000000              -0.336931966              -0.122359690               0.000000000              -0.360227399              -0.131665448               0.000000000              -0.383522833              -0.140971207               0.000000000              -0.406818266              -0.150276966               0.000000000              -0.430113700              -0.159582724               0.000000000              -0.453409133              -0.168888483               0.000000000              -0.476704567              -0.178194241               0.000000000              -0.500000000              -0.187500000               0.000000000              -0.122875978              -0.050896897               0.000000000              -0.146446229              -0.063340840               0.000000000              -0.170016481              -0.075784784               0.000000000              -0.193586732              -0.088228728               0.000000000              -0.217156983              -0.100672672               0.000000000              -0.240727235              -0.113116616               0.000000000              -0.264297486              -0.125560560               0.000000000              -0.287867738              -0.138004504               0.000000000              -0.311437989              -0.150448448               0.000000000              -0.335008240              -0.162892392               0.000000000              -0.358578492              -0.175336336               0.000000000              -0.382148743              -0.187780280               0.000000000              -0.405718994              -0.200224224               0.000000000              -0.429289246              -0.212668168               0.000000000              -0.452859497              -0.225112112               0.000000000              -0.476429749              -0.237556056               0.000000000              -0.500000000              -0.250000000               0.000000000              -0.117295528              -0.062695766               0.000000000              -0.141214558              -0.078308531               0.000000000              -0.165133587              -0.093921295               0.000000000              -0.189052617              -0.109534060               0.000000000              -0.212971646              -0.125146824               0.000000000              -0.236890676              -0.140759589               0.000000000              -0.260809705              -0.156372354               0.000000000              -0.284728735              -0.171985118               0.000000000              -0.308647764              -0.187597883               0.000000000              -0.332566794              -0.203210648               0.000000000              -0.356485823              -0.218823412               0.000000000              -0.380404853              -0.234436177               0.000000000              -0.404323882              -0.250048941               0.000000000              -0.428242912              -0.265661706               0.000000000              -0.452161941              -0.281274471               0.000000000              -0.476080971              -0.296887235               0.000000000              -0.500000000              -0.312500000               0.000000000              -0.110585458              -0.073890841               0.000000000              -0.134923867              -0.092710163               0.000000000              -0.159262276              -0.111529486               0.000000000              -0.183600685              -0.130348808               0.000000000              -0.207939094              -0.149168131               0.000000000              -0.232277503              -0.167987453               0.000000000              -0.256615912              -0.186806776               0.000000000              -0.280954320              -0.205626098               0.000000000              -0.305292729              -0.224445420               0.000000000              -0.329631138              -0.243264743               0.000000000              -0.353969547              -0.262084065               0.000000000              -0.378307956              -0.280903388               0.000000000              -0.402646365              -0.299722710               0.000000000              -0.426984773              -0.318542033               0.000000000              -0.451323182              -0.337361355               0.000000000              -0.475661591              -0.356180678               0.000000000              -0.500000000              -0.375000000               0.000000000              -0.102810390              -0.084374307               0.000000000              -0.127634741              -0.106444663               0.000000000              -0.152459092              -0.128515018               0.000000000              -0.177283442              -0.150585374               0.000000000              -0.202107793              -0.172655730               0.000000000              -0.226932143              -0.194726086               0.000000000              -0.251756494              -0.216796442               0.000000000              -0.276580845              -0.238866798               0.000000000              -0.301405195              -0.260937153               0.000000000              -0.326229546              -0.283007509               0.000000000              -0.351053896              -0.305077865               0.000000000              -0.375878247              -0.327148221               0.000000000              -0.400702598              -0.349218577               0.000000000              -0.425526948              -0.371288933               0.000000000              -0.450351299              -0.393359288               0.000000000              -0.475175649              -0.415429644               0.000000000              -0.500000000              -0.437500000               0.000000000              -0.094045202              -0.094045202               0.000000000              -0.119417377              -0.119417377               0.000000000              -0.144789552              -0.144789552               0.000000000              -0.170161727              -0.170161727               0.000000000              -0.195533901              -0.195533901               0.000000000              -0.220906076              -0.220906076               0.000000000              -0.246278251              -0.246278251               0.000000000              -0.271650426              -0.271650426               0.000000000              -0.297022601              -0.297022601               0.000000000              -0.322394776              -0.322394776               0.000000000              -0.347766951              -0.347766951               0.000000000              -0.373139126              -0.373139126               0.000000000              -0.398511300              -0.398511300               0.000000000              -0.423883475              -0.423883475               0.000000000              -0.449255650              -0.449255650               0.000000000              -0.474627825              -0.474627825               0.000000000              -0.500000000              -0.500000000               0.000000000              -0.084374307              -0.102810390               0.000000000              -0.106444663              -0.127634741               0.000000000              -0.128515018              -0.152459092               0.000000000              -0.150585374              -0.177283442               0.000000000              -0.172655730              -0.202107793               0.000000000              -0.194726086              -0.226932143               0.000000000              -0.216796442              -0.251756494               0.000000000              -0.238866798              -0.276580845               0.000000000              -0.260937153              -0.301405195               0.000000000              -0.283007509              -0.326229546               0.000000000              -0.305077865              -0.351053896               0.000000000              -0.327148221              -0.375878247               0.000000000              -0.349218577              -0.400702598               0.000000000              -0.371288933              -0.425526948               0.000000000              -0.393359288              -0.450351299               0.000000000              -0.415429644              -0.475175649               0.000000000              -0.437500000              -0.500000000               0.000000000              -0.073890841              -0.110585458               0.000000000              -0.092710163              -0.134923867               0.000000000              -0.111529486              -0.159262276               0.000000000              -0.130348808              -0.183600685               0.000000000              -0.149168131              -0.207939094               0.000000000              -0.167987453              -0.232277503               0.000000000              -0.186806776              -0.256615912               0.000000000              -0.205626098              -0.280954320               0.000000000              -0.224445420              -0.305292729               0.000000000              -0.243264743              -0.329631138               0.000000000              -0.262084065              -0.353969547               0.000000000              -0.280903388              -0.378307956               0.000000000              -0.299722710              -0.402646365               0.000000000              -0.318542033              -0.426984773               0.000000000              -0.337361355              -0.451323182               0.000000000              -0.356180678              -0.475661591               0.000000000              -0.375000000              -0.500000000               0.000000000              -0.062695766              -0.117295528               0.000000000              -0.078308531              -0.141214558               0.000000000              -0.093921295              -0.165133587               0.000000000              -0.109534060              -0.189052617               0.000000000              -0.125146824              -0.212971646               0.000000000              -0.140759589              -0.236890676               0.000000000              -0.156372354              -0.260809705               0.000000000              -0.171985118              -0.284728735               0.000000000              -0.187597883              -0.308647764               0.000000000              -0.203210648              -0.332566794               0.000000000              -0.218823412              -0.356485823               0.000000000              -0.234436177              -0.380404853               0.000000000              -0.250048941              -0.404323882               0.000000000              -0.265661706              -0.428242912               0.000000000              -0.281274471              -0.452161941               0.000000000              -0.296887235              -0.476080971               0.000000000              -0.312500000              -0.500000000               0.000000000              -0.050896897              -0.122875978               0.000000000              -0.063340840              -0.146446229               0.000000000              -0.075784784              -0.170016481               0.000000000              -0.088228728              -0.193586732               0.000000000              -0.100672672              -0.217156983               0.000000000              -0.113116616              -0.240727235               0.000000000              -0.125560560              -0.264297486               0.000000000              -0.138004504              -0.287867738               0.000000000              -0.150448448              -0.311437989               0.000000000              -0.162892392              -0.335008240               0.000000000              -0.175336336              -0.358578492               0.000000000              -0.187780280              -0.382148743               0.000000000              -0.200224224              -0.405718994               0.000000000              -0.212668168              -0.429289246               0.000000000              -0.225112112              -0.452859497               0.000000000              -0.237556056              -0.476429749               0.000000000              -0.250000000              -0.500000000               0.000000000              -0.038607862              -0.127273065               0.000000000              -0.047913621              -0.150568498               0.000000000              -0.057219379              -0.173863932               0.000000000              -0.066525138              -0.197159365               0.000000000              -0.075830897              -0.220454798               0.000000000              -0.085136655              -0.243750232               0.000000000              -0.094442414              -0.267045665               0.000000000              -0.103748172              -0.290341099               0.000000000              -0.113053931              -0.313636532               0.000000000              -0.122359690              -0.336931966               0.000000000              -0.131665448              -0.360227399               0.000000000              -0.140971207              -0.383522833               0.000000000              -0.150276966              -0.406818266               0.000000000              -0.159582724              -0.430113700               0.000000000              -0.168888483              -0.453409133               0.000000000              -0.178194241              -0.476704567               0.000000000              -0.187500000              -0.500000000               0.000000000              -0.025947013              -0.130444442               0.000000000              -0.032137825              -0.153541665               0.000000000              -0.038328636              -0.176638887               0.000000000              -0.044519448              -0.199736109               0.000000000              -0.050710260              -0.222833332               0.000000000              -0.056901071              -0.245930554               0.000000000              -0.063091883              -0.269027776               0.000000000              -0.069282695              -0.292124999               0.000000000              -0.075473506              -0.315222221               0.000000000              -0.081664318              -0.338319444               0.000000000              -0.087855130              -0.361416666               0.000000000              -0.094045942              -0.384513888               0.000000000              -0.100236753              -0.407611111               0.000000000              -0.106427565              -0.430708333               0.000000000              -0.112618377              -0.453805555               0.000000000              -0.118809188              -0.476902778               0.000000000              -0.125000000              -0.500000000               0.000000000              -0.013036280              -0.132359569               0.000000000              -0.016127762              -0.155337096               0.000000000              -0.019219245              -0.178314623               0.000000000              -0.022310727              -0.201292150               0.000000000              -0.025402210              -0.224269676               0.000000000              -0.028493692              -0.247247203               0.000000000              -0.031585175              -0.270224730               0.000000000              -0.034676657              -0.293202257               0.000000000              -0.037768140              -0.316179784               0.000000000              -0.040859622              -0.339157311               0.000000000              -0.043951105              -0.362134838               0.000000000              -0.047042587              -0.385112365               0.000000000              -0.050134070              -0.408089892               0.000000000              -0.053225552              -0.431067419               0.000000000              -0.056317035              -0.454044946               0.000000000              -0.059408517              -0.477022473               0.000000000              -0.062500000              -0.500000000               0.000000000               0.000000000              -0.133000000               0.000000000               0.000000000              -0.155937500               0.000000000               0.000000000              -0.178875000               0.000000000               0.000000000              -0.201812500               0.000000000               0.000000000              -0.224750000               0.000000000               0.000000000              -0.247687500               0.000000000               0.000000000              -0.270625000               0.000000000               0.000000000              -0.293562500               0.000000000               0.000000000              -0.316500000               0.000000000               0.000000000              -0.339437500               0.000000000               0.000000000              -0.362375000               0.000000000               0.000000000              -0.385312500               0.000000000               0.000000000              -0.408250000               0.000000000               0.000000000              -0.431187500               0.000000000               0.000000000              -0.454125000               0.000000000               0.000000000              -0.477062500               0.000000000               0.000000000              -0.500000000               0.000000000              -0.133000000               0.000000000               0.000000000              -0.155937500               0.000000000               0.000000000              -0.178875000               0.000000000               0.000000000              -0.201812500               0.000000000               0.000000000              -0.224750000               0.000000000               0.000000000              -0.247687500               0.000000000               0.000000000              -0.270625000               0.000000000               0.000000000              -0.293562500               0.000000000               0.000000000              -0.316500000               0.000000000               0.000000000              -0.339437500               0.000000000               0.000000000              -0.362375000               0.000000000               0.000000000              -0.385312500               0.000000000               0.000000000              -0.408250000               0.000000000               0.000000000              -0.431187500               0.000000000               0.000000000              -0.454125000               0.000000000               0.000000000              -0.477062500               0.000000000               0.000000000              -0.500000000               0.000000000               0.000000000              -0.132359569               0.013036280               0.000000000              -0.155337096               0.016127762               0.000000000              -0.178314623               0.019219245               0.000000000              -0.201292150               0.022310727               0.000000000              -0.224269676               0.025402210               0.000000000              -0.247247203               0.028493692               0.000000000              -0.270224730               0.031585175               0.000000000              -0.293202257               0.034676657               0.000000000              -0.316179784               0.037768140               0.000000000              -0.339157311               0.040859622               0.000000000              -0.362134838               0.043951105               0.000000000              -0.385112365               0.047042587               0.000000000              -0.408089892               0.050134070               0.000000000              -0.431067419               0.053225552               0.000000000              -0.454044946               0.056317035               0.000000000              -0.477022473               0.059408517               0.000000000              -0.500000000               0.062500000               0.000000000              -0.130444442               0.025947013               0.000000000              -0.153541665               0.032137825               0.000000000              -0.176638887               0.038328636               0.000000000              -0.199736109               0.044519448               0.000000000              -0.222833332               0.050710260               0.000000000              -0.245930554               0.056901071               0.000000000              -0.269027776               0.063091883               0.000000000              -0.292124999               0.069282695               0.000000000              -0.315222221               0.075473506               0.000000000              -0.338319444               0.081664318               0.000000000              -0.361416666               0.087855130               0.000000000              -0.384513888               0.094045942               0.000000000              -0.407611111               0.100236753               0.000000000              -0.430708333               0.106427565               0.000000000              -0.453805555               0.112618377               0.000000000              -0.476902778               0.118809188               0.000000000              -0.500000000               0.125000000               0.000000000              -0.127273065               0.038607862               0.000000000              -0.150568498               0.047913621               0.000000000              -0.173863932               0.057219379               0.000000000              -0.197159365               0.066525138               0.000000000              -0.220454798               0.075830897               0.000000000              -0.243750232               0.085136655               0.000000000              -0.267045665               0.094442414               0.000000000              -0.290341099               0.103748172               0.000000000              -0.313636532               0.113053931               0.000000000              -0.336931966               0.122359690               0.000000000              -0.360227399               0.131665448               0.000000000              -0.383522833               0.140971207               0.000000000              -0.406818266               0.150276966               0.000000000              -0.430113700               0.159582724               0.000000000              -0.453409133               0.168888483               0.000000000              -0.476704567               0.178194241               0.000000000              -0.500000000               0.187500000               0.000000000              -0.122875978               0.050896897               0.000000000              -0.146446229               0.063340840               0.000000000              -0.170016481               0.075784784               0.000000000              -0.193586732               0.088228728               0.000000000              -0.217156983               0.100672672               0.000000000              -0.240727235               0.113116616               0.000000000              -0.264297486               0.125560560               0.000000000              -0.287867738               0.138004504               0.000000000              -0.311437989               0.150448448               0.000000000              -0.335008240               0.162892392               0.000000000              -0.358578492               0.175336336               0.000000000              -0.382148743               0.187780280               0.000000000              -0.405718994               0.200224224               0.000000000              -0.429289246               0.212668168               0.000000000              -0.452859497               0.225112112               0.000000000              -0.476429749               0.237556056               0.000000000              -0.500000000               0.250000000               0.000000000              -0.117295528               0.062695766               0.000000000              -0.141214558               0.078308531               0.000000000              -0.165133587               0.093921295               0.000000000              -0.189052617               0.109534060               0.000000000              -0.212971646               0.125146824               0.000000000              -0.236890676               0.140759589               0.000000000              -0.260809705               0.156372354               0.000000000              -0.284728735               0.171985118               0.000000000              -0.308647764               0.187597883               0.000000000              -0.332566794               0.203210648               0.000000000              -0.356485823               0.218823412               0.000000000              -0.380404853               0.234436177               0.000000000              -0.404323882               0.250048941               0.000000000              -0.428242912               0.265661706               0.000000000              -0.452161941               0.281274471               0.000000000              -0.476080971               0.296887235               0.000000000              -0.500000000               0.312500000               0.000000000              -0.110585458               0.073890841               0.000000000              -0.134923867               0.092710163               0.000000000              -0.159262276               0.111529486               0.000000000              -0.183600685               0.130348808               0.000000000              -0.207939094               0.149168131               0.000000000              -0.232277503               0.167987453               0.000000000              -0.256615912               0.186806776               0.000000000              -0.280954320               0.205626098               0.000000000              -0.305292729               0.224445420               0.000000000              -0.329631138               0.243264743               0.000000000              -0.353969547               0.262084065               0.000000000              -0.378307956               0.280903388               0.000000000              -0.402646365               0.299722710               0.000000000              -0.426984773               0.318542033               0.000000000              -0.451323182               0.337361355               0.000000000              -0.475661591               0.356180678               0.000000000              -0.500000000               0.375000000               0.000000000              -0.102810390               0.084374307               0.000000000              -0.127634741               0.106444663               0.000000000              -0.152459092               0.128515018               0.000000000              -0.177283442               0.150585374               0.000000000              -0.202107793               0.172655730               0.000000000              -0.226932143               0.194726086               0.000000000              -0.251756494               0.216796442               0.000000000              -0.276580845               0.238866798               0.000000000              -0.301405195               0.260937153               0.000000000              -0.326229546               0.283007509               0.000000000              -0.351053896               0.305077865               0.000000000              -0.375878247               0.327148221               0.000000000              -0.400702598               0.349218577               0.000000000              -0.425526948               0.371288933               0.000000000              -0.450351299               0.393359288               0.000000000              -0.475175649               0.415429644               0.000000000              -0.500000000               0.437500000               0.000000000              -0.094045202               0.094045202               0.000000000              -0.119417377               0.119417377               0.000000000              -0.144789552               0.144789552               0.000000000              -0.170161727               0.170161727               0.000000000              -0.195533901               0.195533901               0.000000000              -0.220906076               0.220906076               0.000000000              -0.246278251               0.246278251               0.000000000              -0.271650426               0.271650426               0.000000000              -0.297022601               0.297022601               0.000000000              -0.322394776               0.322394776               0.000000000              -0.347766951               0.347766951               0.000000000              -0.373139126               0.373139126               0.000000000              -0.398511300               0.398511300               0.000000000              -0.423883475               0.423883475               0.000000000              -0.449255650               0.449255650               0.000000000              -0.474627825               0.474627825               0.000000000              -0.500000000               0.500000000               0.000000000              -0.084374307               0.102810390               0.000000000              -0.106444663               0.127634741               0.000000000              -0.128515018               0.152459092               0.000000000              -0.150585374               0.177283442               0.000000000              -0.172655730               0.202107793               0.000000000              -0.194726086               0.226932143               0.000000000              -0.216796442               0.251756494               0.000000000              -0.238866798               0.276580845               0.000000000              -0.260937153               0.301405195               0.000000000              -0.283007509               0.326229546               0.000000000              -0.305077865               0.351053896               0.000000000              -0.327148221               0.375878247               0.000000000              -0.349218577               0.400702598               0.000000000              -0.371288933               0.425526948               0.000000000              -0.393359288               0.450351299               0.000000000              -0.415429644               0.475175649               0.000000000              -0.437500000               0.500000000               0.000000000              -0.073890841               0.110585458               0.000000000              -0.092710163               0.134923867               0.000000000              -0.111529486               0.159262276               0.000000000              -0.130348808               0.183600685               0.000000000              -0.149168131               0.207939094               0.000000000              -0.167987453               0.232277503               0.000000000              -0.186806776               0.256615912               0.000000000              -0.205626098               0.280954320               0.000000000              -0.224445420               0.305292729               0.000000000              -0.243264743               0.329631138               0.000000000              -0.262084065               0.353969547               0.000000000              -0.280903388               0.378307956               0.000000000              -0.299722710               0.402646365               0.000000000              -0.318542033               0.426984773               0.000000000              -0.337361355               0.451323182               0.000000000              -0.356180678               0.475661591               0.000000000              -0.375000000               0.500000000               0.000000000              -0.062695766               0.117295528               0.000000000              -0.078308531               0.141214558               0.000000000              -0.093921295               0.165133587               0.000000000              -0.109534060               0.189052617               0.000000000              -0.125146824               0.212971646               0.000000000              -0.140759589               0.236890676               0.000000000              -0.156372354               0.260809705               0.000000000              -0.171985118               0.284728735               0.000000000              -0.187597883               0.308647764               0.000000000              -0.203210648               0.332566794               0.000000000              -0.218823412               0.356485823               0.000000000              -0.234436177               0.380404853               0.000000000              -0.250048941               0.404323882               0.000000000              -0.265661706               0.428242912               0.000000000              -0.281274471               0.452161941               0.000000000              -0.296887235               0.476080971               0.000000000              -0.312500000               0.500000000               0.000000000              -0.050896897               0.122875978               0.000000000              -0.063340840               0.146446229               0.000000000              -0.075784784               0.170016481               0.000000000              -0.088228728               0.193586732               0.000000000              -0.100672672               0.217156983               0.000000000              -0.113116616               0.240727235               0.000000000              -0.125560560               0.264297486               0.000000000              -0.138004504               0.287867738               0.000000000              -0.150448448               0.311437989               0.000000000              -0.162892392               0.335008240               0.000000000              -0.175336336               0.358578492               0.000000000              -0.187780280               0.382148743               0.000000000              -0.200224224               0.405718994               0.000000000              -0.212668168               0.429289246               0.000000000              -0.225112112               0.452859497               0.000000000              -0.237556056               0.476429749               0.000000000              -0.250000000               0.500000000               0.000000000              -0.038607862               0.127273065               0.000000000              -0.047913621               0.150568498               0.000000000              -0.057219379               0.173863932               0.000000000              -0.066525138               0.197159365               0.000000000              -0.075830897               0.220454798               0.000000000              -0.085136655               0.243750232               0.000000000              -0.094442414               0.267045665               0.000000000              -0.103748172               0.290341099               0.000000000              -0.113053931               0.313636532               0.000000000              -0.122359690               0.336931966               0.000000000              -0.131665448               0.360227399               0.000000000              -0.140971207               0.383522833               0.000000000              -0.150276966               0.406818266               0.000000000              -0.159582724               0.430113700               0.000000000              -0.168888483               0.453409133               0.000000000              -0.178194241               0.476704567               0.000000000              -0.187500000               0.500000000               0.000000000              -0.025947013               0.130444442               0.000000000              -0.032137825               0.153541665               0.000000000              -0.038328636               0.176638887               0.000000000              -0.044519448               0.199736109               0.000000000              -0.050710260               0.222833332               0.000000000              -0.056901071               0.245930554               0.000000000              -0.063091883               0.269027776               0.000000000              -0.069282695               0.292124999               0.000000000              -0.075473506               0.315222221               0.000000000              -0.081664318               0.338319444               0.000000000              -0.087855130               0.361416666               0.000000000              -0.094045942               0.384513888               0.000000000              -0.100236753               0.407611111               0.000000000              -0.106427565               0.430708333               0.000000000              -0.112618377               0.453805555               0.000000000              -0.118809188               0.476902778               0.000000000              -0.125000000               0.500000000               0.000000000              -0.013036280               0.132359569               0.000000000              -0.016127762               0.155337096               0.000000000              -0.019219245               0.178314623               0.000000000              -0.022310727               0.201292150               0.000000000              -0.025402210               0.224269676               0.000000000              -0.028493692               0.247247203               0.000000000              -0.031585175               0.270224730               0.000000000              -0.034676657               0.293202257               0.000000000              -0.037768140               0.316179784               0.000000000              -0.040859622               0.339157311               0.000000000              -0.043951105               0.362134838               0.000000000              -0.047042587               0.385112365               0.000000000              -0.050134070               0.408089892               0.000000000              -0.053225552               0.431067419               0.000000000              -0.056317035               0.454044946               0.000000000              -0.059408517               0.477022473               0.000000000              -0.062500000               0.500000000               0.000000000               0.000000000               0.133000000               0.000000000               0.000000000               0.155937500               0.000000000               0.000000000               0.178875000               0.000000000               0.000000000               0.201812500               0.000000000               0.000000000               0.224750000               0.000000000               0.000000000               0.247687500               0.000000000               0.000000000               0.270625000               0.000000000               0.000000000               0.293562500               0.000000000               0.000000000               0.316500000               0.000000000               0.000000000               0.339437500               0.000000000               0.000000000               0.362375000               0.000000000               0.000000000               0.385312500               0.000000000               0.000000000               0.408250000               0.000000000               0.000000000               0.431187500               0.000000000               0.000000000               0.454125000               0.000000000               0.000000000               0.477062500               0.000000000               0.000000000               0.500000000               0.000000000 </DataArray>
</Points>
<Cells>
<DataArray type="Int32"                                    Name="connectivity"                                                      NumberOfComponents=" 1" format="ascii">
         0          1         18         17          1          2         19         18          2          3         20         19          3          4         21         20          4          5         22         21          5          6         23         22          6          7         24         23          7          8         25         24          8          9         26         25          9         10         27         26         10         11         28         27         11         12         29         28         12         13         30         29         13         14         31         30         14         15         32         31         15         16         33         32         17         18         35         34         18         19         36         35         19         20         37         36         20         21         38         37         21         22         39         38         22         23         40         39         23         24         41         40         24         25         42         41         25         26         43         42         26         27         44         43         27         28         45         44         28         29         46         45         29         30         47         46         30         31         48         47         31         32         49         48         32         33         50         49         34         35         52         51         35         36         53         52         36         37         54         53         37         38         55         54         38         39         56         55         39         40         57         56         40         41         58         57         41         42         59         58         42         43         60         59         43         44         61         60         44         45         62         61         45         46         63         62         46         47         64         63         47         48         65         64         48         49         66         65         49         50         67         66         51         52         69         68         52         53         70         69         53         54         71         70         54         55         72         71         55         56         73         72         56         57         74         73         57         58         75         74         58         59         76         75         59         60         77         76         60         61         78         77         61         62         79         78         62         63         80         79         63         64         81         80         64         65         82         81         65         66         83         82         66         67         84         83         68         69         86         85         69         70         87         86         70         71         88         87         71         72         89         88         72         73         90         89         73         74         91         90         74         75         92         91         75         76         93         92         76         77         94         93         77         78         95         94         78         79         96         95         79         80         97         96         80         81         98         97         81         82         99         98         82         83        100         99         83         84        101        100         85         86        103        102         86         87        104        103         87         88        105        104         88         89        106        105         89         90        107        106         90         91        108        107         91         92        109        108         92         93        110        109         93         94        111        110         94         95        112        111         95         96        113        112         96         97        114        113         97         98        115        114         98         99        116        115         99        100        117        116        100        101        118        117        102        103        120        119        103        104        121        120        104        105        122        121        105        106        123        122        106        107        124        123        107        108        125        124        108        109        126        125        109        110        127        126        110        111        128        127        111        112        129        128        112        113        130        129        113        114        131        130        114        115        132        131        115        116        133        132        116        117        134        133        117        118        135        134        119        120        137        136        120        121        138        137        121        122        139        138        122        123        140        139        123        124        141        140        124        125        142        141        125        126        143        142        126        127        144        143        127        128        145        144        128        129        146        145        129        130        147        146        130        131        148        147        131        132        149        148        132        133        150        149        133        134        151        150        134        135        152        151        136        137        154        153        137        138        155        154        138        139        156        155        139        140        157        156        140        141        158        157        141        142        159        158        142        143        160        159        143        144        161        160        144        145        162        161        145        146        163        162        146        147        164        163        147        148        165        164        148        149        166        165        149        150        167        166        150        151        168        167        151        152        169        168        153        154        171        170        154        155        172        171        155        156        173        172        156        157        174        173        157        158        175        174        158        159        176        175        159        160        177        176        160        161        178        177        161        162        179        178        162        163        180        179        163        164        181        180        164        165        182        181        165        166        183        182        166        167        184        183        167        168        185        184        168        169        186        185        170        171        188        187        171        172        189        188        172        173        190        189        173        174        191        190        174        175        192        191        175        176        193        192        176        177        194        193        177        178        195        194        178        179        196        195        179        180        197        196        180        181        198        197        181        182        199        198        182        183        200        199        183        184        201        200        184        185        202        201        185        186        203        202        187        188        205        204        188        189        206        205        189        190        207        206        190        191        208        207        191        192        209        208        192        193        210        209        193        194        211        210        194        195        212        211        195        196        213        212        196        197        214        213        197        198        215        214        198        199        216        215        199        200        217        216        200        201        218        217        201        202        219        218        202        203        220        219        204        205        222        221        205        206        223        222        206        207        224        223        207        208        225        224        208        209        226        225        209        210        227        226        210        211        228        227        211        212        229        228        212        213        230        229        213        214        231        230        214        215        232        231        215        216        233        232        216        217        234        233        217        218        235        234        218        219        236        235        219        220        237        236        221        222        239        238        222        223        240        239        223        224        241        240        224        225        242        241        225        226        243        242        226        227        244        243        227        228        245        244        228        229        246        245        229        230        247        246        230        231        248        247        231        232        249        248        232        233        250        249        233        234        251        250        234        235        252        251        235        236        253        252        236        237        254        253        238        239        256        255        239        240        257        256        240        241        258        257        241        242        259        258        242        243        260        259        243        244        261        260        244        245        262        261        245        246        263        262        246        247        264        263        247        248        265        264        248        249        266        265        249        250        267        266        250        251        268        267        251        252        269        268        252        253        270        269        253        254        271        270        255        256        273        272        256        257        274        273        257        258        275        274        258        259        276        275        259        260        277        276        260        261        278        277        261        262        279        278        262        263        280        279        263        264        281        280        264        265        282        281        265        266        283        282        266        267        284        283        267        268        285        284        268        269        286        285        269        270        287        286        270        271        288        287        306        307          1          0        307        308          2          1        308        309          3          2        309        310          4          3        310        311          5          4        311        312          6          5        312        313          7          6        313        314          8          7        314        315          9          8        315        316         10          9        316        317         11         10        317        318         12         11        318        319         13         12        319        320         14         13        320        321         15         14        321        322         16         15        323        324        307        306        324        325        308        307        325        326        309        308        326        327        310        309        327        328        311        310        328        329        312        311        329        330        313        312        330        331        314        313        331        332        315        314        332        333        316        315        333        334        317        316        334        335        318        317        335        336        319        318        336        337        320        319        337        338        321        320        338        339        322        321        340        341        324        323        341        342        325        324        342        343        326        325        343        344        327        326        344        345        328        327        345        346        329        328        346        347        330        329        347        348        331        330        348        349        332        331        349        350        333        332        350        351        334        333        351        352        335        334        352        353        336        335        353        354        337        336        354        355        338        337        355        356        339        338        357        358        341        340        358        359        342        341        359        360        343        342        360        361        344        343        361        362        345        344        362        363        346        345        363        364        347        346        364        365        348        347        365        366        349        348        366        367        350        349        367        368        351        350        368        369        352        351        369        370        353        352        370        371        354        353        371        372        355        354        372        373        356        355        374        375        358        357        375        376        359        358        376        377        360        359        377        378        361        360        378        379        362        361        379        380        363        362        380        381        364        363        381        382        365        364        382        383        366        365        383        384        367        366        384        385        368        367        385        386        369        368        386        387        370        369        387        388        371        370        388        389        372        371        389        390        373        372        391        392        375        374        392        393        376        375        393        394        377        376        394        395        378        377        395        396        379        378        396        397        380        379        397        398        381        380        398        399        382        381        399        400        383        382        400        401        384        383        401        402        385        384        402        403        386        385        403        404        387        386        404        405        388        387        405        406        389        388        406        407        390        389        408        409        392        391        409        410        393        392        410        411        394        393        411        412        395        394        412        413        396        395        413        414        397        396        414        415        398        397        415        416        399        398        416        417        400        399        417        418        401        400        418        419        402        401        419        420        403        402        420        421        404        403        421        422        405        404        422        423        406        405        423        424        407        406        425        426        409        408        426        427        410        409        427        428        411        410        428        429        412        411        429        430        413        412        430        431        414        413        431        432        415        414        432        433        416        415        433        434        417        416        434        435        418        417        435        436        419        418        436        437        420        419        437        438        421        420        438        439        422        421        439        440        423        422        440        441        424        423        442        443        426        425        443        444        427        426        444        445        428        427        445        446        429        428        446        447        430        429        447        448        431        430        448        449        432        431        449        450        433        432        450        451        434        433        451        452        435        434        452        453        436        435        453        454        437        436        454        455        438        437        455        456        439        438        456        457        440        439        457        458        441        440        459        460        443        442        460        461        444        443        461        462        445        444        462        463        446        445        463        464        447        446        464        465        448        447        465        466        449        448        466        467        450        449        467        468        451        450        468        469        452        451        469        470        453        452        470        471        454        453        471        472        455        454        472        473        456        455        473        474        457        456        474        475        458        457        476        477        460        459        477        478        461        460        478        479        462        461        479        480        463        462        480        481        464        463        481        482        465        464        482        483        466        465        483        484        467        466        484        485        468        467        485        486        469        468        486        487        470        469        487        488        471        470        488        489        472        471        489        490        473        472        490        491        474        473        491        492        475        474        493        494        477        476        494        495        478        477        495        496        479        478        496        497        480        479        497        498        481        480        498        499        482        481        499        500        483        482        500        501        484        483        501        502        485        484        502        503        486        485        503        504        487        486        504        505        488        487        505        506        489        488        506        507        490        489        507        508        491        490        508        509        492        491        510        511        494        493        511        512        495        494        512        513        496        495        513        514        497        496        514        515        498        497        515        516        499        498        516        517        500        499        517        518        501        500        518        519        502        501        519        520        503        502        520        521        504        503        521        522        505        504        522        523        506        505        523        524        507        506        524        525        508        507        525        526        509        508        527        528        511        510        528        529        512        511        529        530        513        512        530        531        514        513        531        532        515        514        532        533        516        515        533        534        517        516        534        535        518        517        535        536        519        518        536        537        520        519        537        538        521        520        538        539        522        521        539        540        523        522        540        541        524        523        541        542        525        524        542        543        526        525        544        545        528        527        545        546        529        528        546        547        530        529        547        548        531        530        548        549        532        531        549        550        533        532        550        551        534        533        551        552        535        534        552        553        536        535        553        554        537        536        554        555        538        537        555        556        539        538        556        557        540        539        557        558        541        540        558        559        542        541        559        560        543        542        561        562        545        544        562        563        546        545        563        564        547        546        564        565        548        547        565        566        549        548        566        567        550        549        567        568        551        550        568        569        552        551        569        570        553        552        570        571        554        553        571        572        555        554        572        573        556        555        573        574        557        556        574        575        558        557        575        576        559        558        576        577        560        559        578        579        596        595        579        580        597        596        580        581        598        597        581        582        599        598        582        583        600        599        583        584        601        600        584        585        602        601        585        586        603        602        586        587        604        603        587        588        605        604        588        589        606        605        589        590        607        606        590        591        608        607        591        592        609        608        592        593        610        609        593        594        611        610        595        596        613        612        596        597        614        613        597        598        615        614        598        599        616        615        599        600        617        616        600        601        618        617        601        602        619        618        602        603        620        619        603        604        621        620        604        605        622        621        605        606        623        622        606        607        624        623        607        608        625        624        608        609        626        625        609        610        627        626        610        611        628        627        612        613        630        629        613        614        631        630        614        615        632        631        615        616        633        632        616        617        634        633        617        618        635        634        618        619        636        635        619        620        637        636        620        621        638        637        621        622        639        638        622        623        640        639        623        624        641        640        624        625        642        641        625        626        643        642        626        627        644        643        627        628        645        644        629        630        647        646        630        631        648        647        631        632        649        648        632        633        650        649        633        634        651        650        634        635        652        651        635        636        653        652        636        637        654        653        637        638        655        654        638        639        656        655        639        640        657        656        640        641        658        657        641        642        659        658        642        643        660        659        643        644        661        660        644        645        662        661        646        647        664        663        647        648        665        664        648        649        666        665        649        650        667        666        650        651        668        667        651        652        669        668        652        653        670        669        653        654        671        670        654        655        672        671        655        656        673        672        656        657        674        673        657        658        675        674        658        659        676        675        659        660        677        676        660        661        678        677        661        662        679        678        663        664        681        680        664        665        682        681        665        666        683        682        666        667        684        683        667        668        685        684        668        669        686        685        669        670        687        686        670        671        688        687        671        672        689        688        672        673        690        689        673        674        691        690        674        675        692        691        675        676        693        692        676        677        694        693        677        678        695        694        678        679        696        695        680        681        698        697        681        682        699        698        682        683        700        699        683        684        701        700        684        685        702        701        685        686        703        702        686        687        704        703        687        688        705        704        688        689        706        705        689        690        707        706        690        691        708        707        691        692        709        708        692        693        710        709        693        694        711        710        694        695        712        711        695        696        713        712        697        698        715        714        698        699        716        715        699        700        717        716        700        701        718        717        701        702        719        718        702        703        720        719        703        704        721        720        704        705        722        721        705        706        723        722        706        707        724        723        707        708        725        724        708        709        726        725        709        710        727        726        710        711        728        727        711        712        729        728        712        713        730        729        714        715        732        731        715        716        733        732        716        717        734        733        717        718        735        734        718        719        736        735        719        720        737        736        720        721        738        737        721        722        739        738        722        723        740        739        723        724        741        740        724        725        742        741        725        726        743        742        726        727        744        743        727        728        745        744        728        729        746        745        729        730        747        746        731        732        749        748        732        733        750        749        733        734        751        750        734        735        752        751        735        736        753        752        736        737        754        753        737        738        755        754        738        739        756        755        739        740        757        756        740        741        758        757        741        742        759        758        742        743        760        759        743        744        761        760        744        745        762        761        745        746        763        762        746        747        764        763        748        749        766        765        749        750        767        766        750        751        768        767        751        752        769        768        752        753        770        769        753        754        771        770        754        755        772        771        755        756        773        772        756        757        774        773        757        758        775        774        758        759        776        775        759        760        777        776        760        761        778        777        761        762        779        778        762        763        780        779        763        764        781        780        765        766        783        782        766        767        784        783        767        768        785        784        768        769        786        785        769        770        787        786        770        771        788        787        771        772        789        788        772        773        790        789        773        774        791        790        774        775        792        791        775        776        793        792        776        777        794        793        777        778        795        794        778        779        796        795        779        780        797        796        780        781        798        797        782        783        800        799        783        784        801        800        784        785        802        801        785        786        803        802        786        787        804        803        787        788        805        804        788        789        806        805        789        790        807        806        790        791        808        807        791        792        809        808        792        793        810        809        793        794        811        810        794        795        812        811        795        796        813        812        796        797        814        813        797        798        815        814        799        800        817        816        800        801        818        817        801        802        819        818        802        803        820        819        803        804        821        820        804        805        822        821        805        806        823        822        806        807        824        823        807        808        825        824        808        809        826        825        809        810        827        826        810        811        828        827        811        812        829        828        812        813        830        829        813        814        831        830        814        815        832        831        816        817        834        833        817        818        835        834        818        819        836        835        819        820        837        836        820        821        838        837        821        822        839        838        822        823        840        839        823        824        841        840        824        825        842        841        825        826        843        842        826        827        844        843        827        828        845        844        828        829        846        845        829        830        847        846        830        831        848        847        831        832        849        848        833        834        562        561        834        835        563        562        835        836        564        563        836        837        565        564        837        838        566        565        838        839        567        566        839        840        568        567        840        841        569        568        841        842        570        569        842        843        571        570        843        844        572        571        844        845        573        572        845        846        574        573        846        847        575        574        847        848        576        575        848        849        577        576        884        885        579        578        885        886        580        579        886        887        581        580        887        888        582        581        888        889        583        582        889        890        584        583        890        891        585        584        891        892        586        585        892        893        587        586        893        894        588        587        894        895        589        588        895        896        590        589        896        897        591        590        897        898        592        591        898        899        593        592        899        900        594        593        901        902        885        884        902        903        886        885        903        904        887        886        904        905        888        887        905        906        889        888        906        907        890        889        907        908        891        890        908        909        892        891        909        910        893        892        910        911        894        893        911        912        895        894        912        913        896        895        913        914        897        896        914        915        898        897        915        916        899        898        916        917        900        899        918        919        902        901        919        920        903        902        920        921        904        903        921        922        905        904        922        923        906        905        923        924        907        906        924        925        908        907        925        926        909        908        926        927        910        909        927        928        911        910        928        929        912        911        929        930        913        912        930        931        914        913        931        932        915        914        932        933        916        915        933        934        917        916        935        936        919        918        936        937        920        919        937        938        921        920        938        939        922        921        939        940        923        922        940        941        924        923        941        942        925        924        942        943        926        925        943        944        927        926        944        945        928        927        945        946        929        928        946        947        930        929        947        948        931        930        948        949        932        931        949        950        933        932        950        951        934        933        952        953        936        935        953        954        937        936        954        955        938        937        955        956        939        938        956        957        940        939        957        958        941        940        958        959        942        941        959        960        943        942        960        961        944        943        961        962        945        944        962        963        946        945        963        964        947        946        964        965        948        947        965        966        949        948        966        967        950        949        967        968        951        950        969        970        953        952        970        971        954        953        971        972        955        954        972        973        956        955        973        974        957        956        974        975        958        957        975        976        959        958        976        977        960        959        977        978        961        960        978        979        962        961        979        980        963        962        980        981        964        963        981        982        965        964        982        983        966        965        983        984        967        966        984        985        968        967        986        987        970        969        987        988        971        970        988        989        972        971        989        990        973        972        990        991        974        973        991        992        975        974        992        993        976        975        993        994        977        976        994        995        978        977        995        996        979        978        996        997        980        979        997        998        981        980        998        999        982        981        999       1000        983        982       1000       1001        984        983       1001       1002        985        984       1003       1004        987        986       1004       1005        988        987       1005       1006        989        988       1006       1007        990        989       1007       1008        991        990       1008       1009        992        991       1009       1010        993        992       1010       1011        994        993       1011       1012        995        994       1012       1013        996        995       1013       1014        997        996       1014       1015        998        997       1015       1016        999        998       1016       1017       1000        999       1017       1018       1001       1000       1018       1019       1002       1001       1020       1021       1004       1003       1021       1022       1005       1004       1022       1023       1006       1005       1023       1024       1007       1006       1024       1025       1008       1007       1025       1026       1009       1008       1026       1027       1010       1009       1027       1028       1011       1010       1028       1029       1012       1011       1029       1030       1013       1012       1030       1031       1014       1013       1031       1032       1015       1014       1032       1033       1016       1015       1033       1034       1017       1016       1034       1035       1018       1017       1035       1036       1019       1018       1037       1038       1021       1020       1038       1039       1022       1021       1039       1040       1023       1022       1040       1041       1024       1023       1041       1042       1025       1024       1042       1043       1026       1025       1043       1044       1027       1026       1044       1045       1028       1027       1045       1046       1029       1028       1046       1047       1030       1029       1047       1048       1031       1030       1048       1049       1032       1031       1049       1050       1033       1032       1050       1051       1034       1033       1051       1052       1035       1034       1052       1053       1036       1035       1054       1055       1038       1037       1055       1056       1039       1038       1056       1057       1040       1039       1057       1058       1041       1040       1058       1059       1042       1041       1059       1060       1043       1042       1060       1061       1044       1043       1061       1062       1045       1044       1062       1063       1046       1045       1063       1064       1047       1046       1064       1065       1048       1047       1065       1066       1049       1048       1066       1067       1050       1049       1067       1068       1051       1050       1068       1069       1052       1051       1069       1070       1053       1052       1071       1072       1055       1054       1072       1073       1056       1055       1073       1074       1057       1056       1074       1075       1058       1057       1075       1076       1059       1058       1076       1077       1060       1059       1077       1078       1061       1060       1078       1079       1062       1061       1079       1080       1063       1062       1080       1081       1064       1063       1081       1082       1065       1064       1082       1083       1066       1065       1083       1084       1067       1066       1084       1085       1068       1067       1085       1086       1069       1068       1086       1087       1070       1069       1088       1089       1072       1071       1089       1090       1073       1072       1090       1091       1074       1073       1091       1092       1075       1074       1092       1093       1076       1075       1093       1094       1077       1076       1094       1095       1078       1077       1095       1096       1079       1078       1096       1097       1080       1079       1097       1098       1081       1080       1098       1099       1082       1081       1099       1100       1083       1082       1100       1101       1084       1083       1101       1102       1085       1084       1102       1103       1086       1085       1103       1104       1087       1086       1105       1106       1089       1088       1106       1107       1090       1089       1107       1108       1091       1090       1108       1109       1092       1091       1109       1110       1093       1092       1110       1111       1094       1093       1111       1112       1095       1094       1112       1113       1096       1095       1113       1114       1097       1096       1114       1115       1098       1097       1115       1116       1099       1098       1116       1117       1100       1099       1117       1118       1101       1100       1118       1119       1102       1101       1119       1120       1103       1102       1120       1121       1104       1103       1122       1123       1106       1105       1123       1124       1107       1106       1124       1125       1108       1107       1125       1126       1109       1108       1126       1127       1110       1109       1127       1128       1111       1110       1128       1129       1112       1111       1129       1130       1113       1112       1130       1131       1114       1113       1131       1132       1115       1114       1132       1133       1116       1115       1133       1134       1117       1116       1134       1135       1118       1117       1135       1136       1119       1118       1136       1137       1120       1119       1137       1138       1121       1120        272        273       1123       1122        273        274       1124       1123        274        275       1125       1124        275        276       1126       1125        276        277       1127       1126        277        278       1128       1127        278        279       1129       1128        279        280       1130       1129        280        281       1131       1130        281        282       1132       1131        282        283       1133       1132        283        284       1134       1133        284        285       1135       1134        285        286       1136       1135        286        287       1137       1136        287        288       1138       1137 </DataArray>
<DataArray type="Int32"                                    Name="offsets"                                                      NumberOfComponents=" 1" format="ascii">
         4          8         12         16         20         24         28         32         36         40         44         48         52         56         60         64         68         72         76         80         84         88         92         96        100        104        108        112        116        120        124        128        132        136        140        144        148        152        156        160        164        168        172        176        180        184        188        192        196        200        204        208        212        216        220        224        228        232        236        240        244        248        252        256        260        264        268        272        276        280        284        288        292        296        300        304        308        312        316        320        324        328        332        336        340        344        348        352        356        360        364        368        372        376        380        384        388        392        396        400        404        408        412        416        420        424        428        432        436        440        444        448        452        456        460        464        468        472        476        480        484        488        492        496        500        504        508        512        516        520        524        528        532        536        540        544        548        552        556        560        564        568        572        576        580        584        588        592        596        600        604        608        612        616        620        624        628        632        636        640        644        648        652        656        660        664        668        672        676        680        684        688        692        696        700        704        708        712        716        720        724        728        732        736        740        744        748        752        756        760        764        768        772        776        780        784        788        792        796        800        804        808        812        816        820        824        828        832        836        840        844        848        852        856        860        864        868        872        876        880        884        888        892        896        900        904        908        912        916        920        924        928        932        936        940        944        948        952        956        960        964        968        972        976        980        984        988        992        996       1000       1004       1008       1012       1016       1020       1024       1028       1032       1036       1040       1044       1048       1052       1056       1060       1064       1068       1072       1076       1080       1084       1088       1092       1096       1100       1104       1108       1112       1116       1120       1124       1128       1132       1136       1140       1144       1148       1152       1156       1160       1164       1168       1172       1176       1180       1184       1188       1192       1196       1200       1204       1208       1212       1216       1220       1224       1228       1232       1236       1240       1244       1248       1252       1256       1260       1264       1268       1272       1276       1280       1284       1288       1292       1296       1300       1304       1308       1312       1316       1320       1324       1328       1332       1336       1340       1344       1348       1352       1356       1360       1364       1368       1372       1376       1380       1384       1388       1392       1396       1400       1404       1408       1412       1416       1420       1424       1428       1432       1436       1440       1444       1448       1452       1456       1460       1464       1468       1472       1476       1480       1484       1488       1492       1496       1500       1504       1508       1512       1516       1520       1524       1528       1532       1536       1540       1544       1548       1552       1556       1560       1564       1568       1572       1576       1580       1584       1588       1592       1596       1600       1604       1608       1612       1616       1620       1624       1628       1632       1636       1640       1644       1648       1652       1656       1660       1664       1668       1672       1676       1680       1684       1688       1692       1696       1700       1704       1708       1712       1716       1720       1724       1728       1732       1736       1740       1744       1748       1752       1756       1760       1764       1768       1772       1776       1780       1784       1788       1792       1796       1800       1804       1808       1812       1816       1820       1824       1828       1832       1836       1840       1844       1848       1852       1856       1860       1864       1868       1872       1876       1880       1884       1888       1892       1896       1900       1904       1908       1912       1916       1920       1924       1928       1932       1936       1940       1944       1948       1952       1956       1960       1964       1968       1972       1976       1980       1984       1988       1992       1996       2000       2004       2008       2012       2016       2020       2024       2028       2032       2036       2040       2044       2048       2052       2056       2060       2064       2068       2072       2076       2080       2084       2088       2092       2096       2100       2104       2108       2112       2116       2120       2124       2128       2132       2136       2140       2144       2148       2152       2156       2160       2164       2168       2172       2176       2180       2184       2188       2192       2196       2200       2204       2208       2212       2216       2220       2224       2228       2232       2236       2240       2244       2248       2252       2256       2260       2264       2268       2272       2276       2280       2284       2288       2292       2296       2300       2304       2308       2312       2316       2320       2324       2328       2332       2336       2340       2344       2348       2352       2356       2360       2364       2368       2372       2376       2380       2384       2388       2392       2396       2400       2404       2408       2412       2416       2420       2424       2428       2432       2436       2440       2444       2448       2452       2456       2460       2464       2468       2472       2476       2480       2484       2488       2492       2496       2500       2504       2508       2512       2516       2520       2524       2528       2532       2536       2540       2544       2548       2552       2556       2560       2564       2568       2572       2576       2580       2584       2588       2592       2596       2600       2604       2608       2612       2616       2620       2624       2628       2632       2636       2640       2644       2648       2652       2656       2660       2664       2668       2672       2676       2680       2684       2688       2692       2696       2700       2704       2708       2712       2716       2720       2724       2728       2732       2736       2740       2744       2748       2752       2756       2760       2764       2768       2772       2776       2780       2784       2788       2792       2796       2800       2804       2808       2812       2816       2820       2824       2828       2832       2836       2840       2844       2848       2852       2856       2860       2864       2868       2872       2876       2880       2884       2888       2892       2896       2900       2904       2908       2912       2916       2920       2924       2928       2932       2936       2940       2944       2948       2952       2956       2960       2964       2968       2972       2976       2980       2984       2988       2992       2996       3000       3004       3008       3012       3016       3020       3024       3028       3032       3036       3040       3044       3048       3052       3056       3060       3064       3068       3072       3076       3080       3084       3088       3092       3096       3100       3104       3108       3112       3116       3120       3124       3128       3132       3136       3140       3144       3148       3152       3156       3160       3164       3168       3172       3176       3180       3184       3188       3192       3196       3200       3204       3208       3212       3216       3220       3224       3228       3232       3236       3240       3244       3248       3252       3256       3260       3264       3268       3272       3276       3280       3284       3288       3292       3296       3300       3304       3308       3312       3316       3320       3324       3328       3332       3336       3340       3344       3348       3352       3356       3360       3364       3368       3372       3376       3380       3384       3388       3392       3396       3400       3404       3408       3412       3416       3420       3424       3428       3432       3436       3440       3444       3448       3452       3456       3460       3464       3468       3472       3476       3480       3484       3488       3492       3496       3500       3504       3508       3512       3516       3520       3524       3528       3532       3536       3540       3544       3548       3552       3556       3560       3564       3568       3572       3576       3580       3584       3588       3592       3596       3600       3604       3608       3612       3616       3620       3624       3628       3632       3636       3640       3644       3648       3652       3656       3660       3664       3668       3672       3676       3680       3684       3688       3692       3696       3700       3704       3708       3712       3716       3720       3724       3728       3732       3736       3740       3744       3748       3752       3756       3760       3764       3768       3772       3776       3780       3784       3788       3792       3796       3800       3804       3808       3812       3816       3820       3824       3828       3832       3836       3840       3844       3848       3852       3856       3860       3864       3868       3872       3876       3880       3884       3888       3892       3896       3900       3904       3908       3912       3916       3920       3924       3928       3932       3936       3940       3944       3948       3952       3956       3960       3964       3968       3972       3976       3980       3984       3988       3992       3996       4000       4004       4008       4012       4016       4020       4024       4028       4032       4036       4040       4044       4048       4052       4056       4060       4064       4068       4072       4076       4080       4084       4088       4092       4096 </DataArray>
<DataArray type="UInt8"                                    Name="types"                                                      NumberOfComponents=" 1" format="ascii">
         9          9          9          9          9          9          9          9          9          9          9          9          9          9          9          9          9          9          9          9          9          9          9          9          9          9          9          9          9          9          9          9          9          9          9          9          9          9          9          9          9          9          9          9          9          9          9          9          9          9          9          9          9          9          9          9          9          9          9          9          9          9          9          9          9          9          9          9          9          9          9          9          9          9          9          9          9          9          9          9          9          9          9          9          9          9          9          9          9          9          9          9          9          9          9          9          9          9          9          9          9          9          9          9          9          9          9          9          9          9          9          9          9          9          9          9          9          9          9          9          9          9          9          9          9          9          9          9          9          9          9          9          9          9          9          9          9          9          9          9          9          9          9          9          9          9          9          9          9          9          9          9          9          9          9          9          9          9          9          9          9          9          9          9          9          9          9          9          9          9          9          9          9          9          9          9          9          9          9          9          9          9          9          9          9          9          9          9          9          9          9          9          9          9          9          9          9          9          9          9          9          9          9          9          9          9          9          9          9          9          9          9          9          9          9          9          9          9          9          9          9          9          9          9          9          9          9          9          9          9          9          9          9          9          9          9          9          9          9          9          9          9          9          9          9          9          9          9          9          9          9          9          9          9          9          9          9          9          9          9          9          9          9          9          9          9          9          9          9          9          9          9          9          9          9          9          9          9          9          9          9          9          9          9          9          9          9          9          9          9          9          9          9          9          9          9          9          9          9          9          9          9          9          9          9          9          9          9          9          9          9          9          9          9          9          9          9          9          9          9          9          9          9          9          9          9          9          9          9          9          9          9          9          9          9          9          9          9          9          9          9          9          9          9          9          9          9          9          9          9          9          9          9          9          9          9          9          9          9          9          9          9          9          9          9          9          9          9          9          9          9          9          9          9          9          9          9          9          9          9          9          9          9          9          9          9          9          9          9          9          9          9          9          9          9          9          9          9          9          9          9          9          9          9          9          9          9          9          9          9          9          9          9          9          9          9          9          9          9          9          9          9          9          9          9          9          9          9          9          9          9          9          9          9          9          9          9          9          9          9          9          9          9          9          9          9          9          9          9          9          9          9          9          9          9          9          9          9          9          9          9          9          9          9          9          9          9          9          9          9          9          9          9          9          9          9          9          9          9          9          9          9          9          9          9          9          9          9          9          9          9          9          9          9          9          9          9          9          9          9          9          9          9          9          9          9          9          9          9          9          9          9          9          9          9          9          9          9          9          9          9          9          9          9          9          9          9          9          9          9          9          9          9          9          9          9          9          9          9          9          9          9          9          9          9          9          9          9          9          9          9          9          9          9          9          9          9          9          9          9          9          9          9          9          9          9          9          9          9          9          9          9          9          9          9          9          9          9          9          9          9          9          9          9          9          9          9          9          9          9          9          9          9          9          9          9          9          9          9          9          9          9          9          9          9          9          9          9          9          9          9          9          9          9          9          9          9          9          9          9          9          9          9          9          9          9          9          9          9          9          9          9          9          9          9          9          9          9          9          9          9          9          9          9          9          9          9          9          9          9          9          9          9          9          9          9          9          9          9          9          9          9          9          9          9          9          9          9          9          9          9          9          9          9          9          9          9          9          9          9          9          9          9          9          9          9          9          9          9          9          9          9          9          9          9          9          9          9          9          9          9          9          9          9          9          9          9          9          9          9          9          9          9          9          9          9          9          9          9          9          9          9          9          9          9          9          9          9          9          9          9          9          9          9          9          9          9          9          9          9          9          9          9          9          9          9          9          9          9          9          9          9          9          9          9          9          9          9          9          9          9          9          9          9          9          9          9          9          9          9          9          9          9          9          9          9          9          9          9          9          9          9          9          9          9          9          9          9          9          9          9          9          9          9          9          9          9          9          9          9          9          9          9          9          9          9          9          9          9          9          9          9          9          9          9          9          9          9          9          9          9          9          9          9          9          9          9          9          9          9          9          9          9          9          9          9          9          9          9          9          9          9          9          9          9          9          9          9          9          9          9          9          9          9          9          9          9          9          9          9          9          9          9          9          9          9          9          9          9          9          9          9          9          9          9          9          9          9          9          9          9          9          9          9          9          9          9          9          9          9          9          9          9          9          9          9          9          9          9          9          9          9          9          9          9          9          9          9          9          9          9          9          9          9          9          9          9          9          9          9          9          9          9          9          9          9          9          9          9          9          9          9          9          9          9          9          9          9          9          9          9          9          9          9          9          9          9          9          9          9          9          9          9          9          9          9          9          9          9          9          9          9          9          9          9          9          9          9          9          9          9          9          9          9          9          9          9          9          9          9          9          9          9          9          9          9          9          9          9          9          9          9          9          9          9          9          9          9          9          9          9          9          9          9          9          9          9          9          9          9          9          9          9          9          9          9          9          9          9          9          9          9          9          9 </DataArray>
</Cells>
<CellData>
<DataArray type="Int32"                                    Name="material"                                                      NumberOfComponents=" 1" format="ascii">
         1          1          1          1          1          1          1          1          1          1          1          1          1          1          1          1          1          1          1          1          1          1          1          1          1          1          1          1          1          1          1          1          1          1          1          1          1          1          1          1          1          1          1          1          1          1          1          1          1          1          1          1          1          1          1          1          1          1          1          1          1          1          1          1          1          1          1          1          1          1          1          1          1          1          1          1          1          1          1          1          1          1          1          1          1          1          1          1          1          1          1          1          1          1          1          1          1          1          1          1          1          1          1          1          1          1          1          1          1          1          1          1          1          1          1          1          1          1          1          1          1          1          1          1          1          1          1          1          1          1          1          1          1          1          1          1          1          1          1          1          1          1          1          1          1          1          1          1          1          1          1          1          1          1          1          1          1          1          1          1          1          1          1          1          1          1          1          1          1          1          1          1          1          1          1          1          1          1          1          1          1          1          1          1          1          1          1          1          1          1          1          1          1          1          1          1          1          1          1          1          1          1          1          1          1          1          1          1          1          1          1          1          1          1          1          1          1          1          1          1          1          1          1          1          1          1          1          1          1          1          1          1          1          1          1          1          1          1          1          1          1          1          1          1          1          1          1          1          1          1          1          1          1          1          1          1          1          1          1          1          1          1          1          1          1          1          1          1          1          1          1          1          1          1          1          1          1          1          1          1          1          1          1          1          1          1          1          1          1          1          1          1          1          1          1          1          1          1          1          1          1          1          1          1          1          1          1          1          1          1          1          1          1          1          1          1          1          1          1          1          1          1          1          1          1          1          1          1          1          1          1          1          1          1          1          1          1          1          1          1          1          1          1          1          1          1          1          1          1          1          1          1          1          1          1          1          1          1          1          1          1          1          1          1          1          1          1          1          1          1          1          1          1          1          1          1          1          1          1          1          1          1          1          1          1          1          1          1          1          1          1          1          1          1          1          1          1          1          1          1          1          1          1          1          1          1          1          1          1          1          1          1          1          1          1          1          1          1          1          1          1          1          1          1          1          1          1          1          1          1          1          1          1          1          1          1          1          1          1          1          1          1          1          1          1          1          1          1          1          1          1          1          1          1          1          1          1          1          1          1          1          1          1          1          1          1          1          1          1          1          1          1          1          1          1          1          1          1          1          1          1          1          1          1          1          1          1          1          1          1          1          1          1          1          1          1          1          1          1          1          1          1          1          1          1          1          1          1          1          1          1          1          1          1          1          1          1          1          1          1          1          1          1          1          1          1          1          1          1          1          1          1          1          1          1          1          1          1          1          1          1          1          1          1          1          1          1          1          1          1          1          1          1          1          1          1          1          1          1          1          1          1          1          1          1          1          1          1          1          1          1          1          1          1          1          1          1          1          1          1          1          1          1          1          1          1          1          1          1          1          1          1          1          1          1          1          1          1          1          1          1          1          1          1          1          1          1          1          1          1          1          1          1          1          1          1          1          1          1          1          1          1          1          1          1          1          1          1          1          1          1          1          1          1          1          1          1          1          1          1          1          1          1          1          1          1          1          1          1          1          1          1          1          1          1          1          1          1          1          1          1          1          1          1          1          1          1          1          1          1          1          1          1          1          1          1          1          1          1          1          1          1          1          1          1          1          1          1          1          1          1          1          1          1          1          1          1          1          1          1          1          1          1          1          1          1          1          1          1          1          1          1          1          1          1          1          1          1          1          1          1          1          1          1          1          1          1          1          1          1          1          1          1          1          1          1          1          1          1          1          1          1          1          1          1          1          1          1          1          1          1          1          1          1          1          1          1          1          1          1          1          1          1          1          1          1          1          1          1          1          1          1          1          1          1          1          1          1          1          1          1          1          1          1          1          1          1          1          1          1          1          1          1          1          1          1          1          1          1          1          1          1          1          1          1          1          1          1          1          1          1          1          1          1          1          1          1          1          1          1          1          1          1          1          1          1          1          1          1          1          1          1          1          1          1          1          1          1          1          1          1          1          1          1          1          1          1          1          1          1          1          1          1          1          1          1          1          1          1          1          1          1          1          1          1          1          1          1          1          1          1          1          1          1          1          1          1          1          1          1          1          1          1          1          1          1          1          1          1          1          1          1          1          1          1          1          1          1          1          1          1          1          1          1          1          1          1          1          1          1          1          1          1          1          1          1          1          1          1          1          1          1          1          1          1          1          1          1          1          1          1          1          1          1          1          1          1          1          1          1          1          1          1          1          1          1          1          1          1          1          1          1          1          1          1          1          1          1          1          1          1          1          1          1          1          1          1          1          1          1          1          1          1          1          1          1          1          1          1          1          1          1          1          1          1          1          1          1          1          1          1          1          1          1          1          1          1          1          1          1          1          1          1          1          1          1          1          1          1          1          1          1          1          1          1          1          1          1          1          1          1          1          1          1 </DataArray>
</CellData>
<PointData>
<DataArray type="Float64"                                    Name="u"                                                      NumberOfComponents=" 3" format="ascii">
              0.000003979               0.000000000               0.999999998              -0.000006825              -0.000000000               0.999999998              -0.000012240              -0.000000000               0.999999998              -0.000015442               0.000000000               0.999999998              -0.000017977               0.000000000               0.999999998              -0.000020425               0.000000000               0.999999998              -0.000023079               0.000000000               0.999999998              -0.000026175              -0.000000000               0.999999998              -0.000029722              -0.000000000               0.999999998              -0.000033732              -0.000000000               0.999999998              -0.000038254              -0.000000000               0.999999998              -0.000043293              -0.000000000               0.999999998              -0.000048798               0.000000000               0.999999998              -0.000054784               0.000000000               0.999999998              -0.000061254               0.000000000               0.999999998              -0.000068263              -0.000000000               0.999999998              -0.000075803               0.000000000               0.999999998               0.000003879               0.000026419               0.999999998              -0.000006534               0.000023840               0.999999998              -0.000011694               0.000023289               0.999999998              -0.000014847               0.000023963               0.999999998              -0.000017372               0.000025416               0.999999998              -0.000019839               0.000027323               0.999999998              -0.000022587               0.000029623               0.999999998              -0.000025758               0.000032276               0.999999998              -0.000029421               0.000035093               0.999999998              -0.000033632               0.000038141               0.999999998              -0.000038326               0.000041294               0.999999998              -0.000043508               0.000044651               0.999999998              -0.000049213               0.000048142               0.999999998              -0.000055388               0.000051763               0.999999998              -0.000062036               0.000055572               0.999999998              -0.000069187               0.000059657               0.999999998              -0.000076834               0.000063619               0.999999998               0.000003626               0.000052641               0.999999998              -0.000005707               0.000047413               0.999999998              -0.000010253               0.000046432               0.999999998              -0.000013143               0.000047880               0.999999998              -0.000015642               0.000050803               0.999999998              -0.000018287               0.000054758               0.999999998              -0.000021299               0.000059449               0.999999998              -0.000024832               0.000064648               0.999999998              -0.000028941               0.000070352               0.999999998              -0.000033568               0.000076402               0.999999998              -0.000038698               0.000082782               0.999999998              -0.000044375               0.000089400               0.999999998              -0.000050554               0.000096389               0.999999998              -0.000057224               0.000103558               0.999999998              -0.000064357               0.000111185               0.999999998              -0.000071950               0.000119248               0.999999998              -0.000080018               0.000127351               0.999999998               0.000003271               0.000078394               0.999999998              -0.000004299               0.000070457               0.999999998              -0.000007981               0.000069161               0.999999998              -0.000010587               0.000071511               0.999999998              -0.000013172               0.000076073               0.999999998              -0.000016165               0.000082114               0.999999998              -0.000019712               0.000089221               0.999999998              -0.000023893               0.000097104               0.999999998              -0.000028666               0.000105633               0.999999998              -0.000034052               0.000114713               0.999999998              -0.000040011               0.000124184               0.999999998              -0.000046472               0.000134124               0.999999998              -0.000053437               0.000144553               0.999999998              -0.000060892               0.000155423               0.999999998              -0.000068878               0.000166817               0.999999998              -0.000077312               0.000178813               0.999999998              -0.000086099               0.000190978               0.999999998               0.000002785               0.000103372               0.999999998              -0.000002373               0.000092731               0.999999998              -0.000005056               0.000091352               0.999999998              -0.000007543               0.000094793               0.999999998              -0.000010494               0.000101124               0.999999998              -0.000014099               0.000109384               0.999999998              -0.000018440               0.000118894               0.999999998              -0.000023487               0.000129453               0.999999998              -0.000029251               0.000140860               0.999999998              -0.000035672               0.000152965               0.999999998              -0.000042635               0.000165619               0.999999998              -0.000050102               0.000178787               0.999999998              -0.000058083               0.000192714               0.999999998              -0.000066662               0.000207287               0.999999998              -0.000075707               0.000222364               0.999999998              -0.000085042               0.000237886               0.999999998              -0.000094597               0.000253695               0.999999998               0.000002308               0.000127362               0.999999998               0.000000053               0.000114198               0.999999998              -0.000001798               0.000112976               0.999999998              -0.000004417               0.000117653               0.999999998              -0.000007969               0.000125854               0.999999998              -0.000012479               0.000136272               0.999999998              -0.000017884               0.000148271               0.999999998              -0.000024151               0.000161528               0.999999998              -0.000031097               0.000175806               0.999999998              -0.000038627               0.000190894               0.999999998              -0.000046697               0.000206726               0.999999998              -0.000055348               0.000223263               0.999999998              -0.000064558               0.000240680               0.999999998              -0.000074209               0.000258822               0.999999998              -0.000084193               0.000277256               0.999999998              -0.000094345               0.000295836               0.999999998              -0.000104614               0.000314848               0.999999998               0.000001875               0.000150114               0.999999998               0.000002761               0.000134800               0.999999998               0.000001476               0.000133930               0.999999998              -0.000001569               0.000139984               0.999999998              -0.000006040               0.000150064               0.999999998              -0.000011713               0.000162729               0.999999998              -0.000018429               0.000177199               0.999999998              -0.000025936               0.000193185               0.999999998              -0.000034053               0.000210282               0.999999998              -0.000042730               0.000228369               0.999999998              -0.000052026               0.000247393               0.999999998              -0.000061854               0.000267332               0.999999998              -0.000072188               0.000288079               0.999999998              -0.000082791               0.000309655               0.999999998              -0.000093515               0.000331290               0.999999998              -0.000104389               0.000353076               0.999999998              -0.000115547               0.000375496               0.999999998               0.000001504               0.000171384               0.999999998               0.000005539               0.000154469               0.999999998               0.000004533               0.000154140               0.999999998               0.000000728               0.000161648               0.999999998              -0.000004887               0.000173602               0.999999998              -0.000011871               0.000188511               0.999999998              -0.000019843               0.000205502               0.999999998              -0.000028543               0.000224156               0.999999998              -0.000037828               0.000244093               0.999999998              -0.000047672               0.000265202               0.999999998              -0.000058053               0.000287547               0.999999998              -0.000068879               0.000310984               0.999999998              -0.000080084               0.000335395               0.999999998              -0.000091466               0.000360329               0.999999998              -0.000103011               0.000385356               0.999999998              -0.000114861               0.000410823               0.999999998              -0.000127140               0.000437078               0.999999998               0.000001101               0.000190807               0.999999998               0.000008276               0.000173223               0.999999998               0.000007076               0.000173519               0.999999998               0.000002278               0.000182392               0.999999998              -0.000004517               0.000196287               0.999999998              -0.000012811               0.000213444               0.999999998              -0.000021957               0.000232997               0.999999998              -0.000031762               0.000254362               0.999999998              -0.000042104               0.000277245               0.999999998              -0.000052960               0.000301641               0.999999998              -0.000064289               0.000327510               0.999999998              -0.000076085               0.000354639               0.999999998              -0.000088218               0.000382625               0.999999998              -0.000100465               0.000411130               0.999999998              -0.000112917               0.000440192               0.999999998              -0.000125789               0.000469933               0.999999998              -0.000138970               0.000500298               0.999999998               0.000000444               0.000208991               0.999999998               0.000009966               0.000192728               0.999999998               0.000009938               0.000191149               0.999999998               0.000006009               0.000197749               0.999999998              -0.000000003               0.000209338               0.999999998              -0.000007354               0.000224312               0.999999998              -0.000015602               0.000241760               0.999999998              -0.000024423               0.000261024               0.999999998              -0.000033570               0.000281816               0.999999998              -0.000042992               0.000303990               0.999999998              -0.000052922               0.000327580               0.999999998              -0.000063264               0.000352449               0.999999998              -0.000074089               0.000378429               0.999999998              -0.000084954               0.000405313               0.999999998              -0.000095747               0.000432882               0.999999998              -0.000106675               0.000461108               0.999999998              -0.000117755               0.000490148               0.999999998              -0.000000001               0.000225449               0.999999998               0.000010770               0.000211381               0.999999998               0.000011948               0.000208972               0.999999998               0.000009067               0.000213736               0.999999998               0.000004020               0.000223301               0.999999998              -0.000002251               0.000236267               0.999999998              -0.000009544               0.000251717               0.999999998              -0.000017299               0.000269095               0.999999998              -0.000025266               0.000287991               0.999999998              -0.000033483               0.000308204               0.999999998              -0.000042046               0.000329644               0.999999998              -0.000051024               0.000352376               0.999999998              -0.000060299               0.000376250               0.999999998              -0.000069687               0.000401267               0.999999998              -0.000078896               0.000427168               0.999999998              -0.000088018               0.000453789               0.999999998              -0.000097211               0.000481132               0.999999998              -0.000000307               0.000239812               0.999999998               0.000010705               0.000228685               0.999999998               0.000012818               0.000226228               0.999999998               0.000011015               0.000229806               0.999999998               0.000007109               0.000237744               0.999999998               0.000001923               0.000248943               0.999999998              -0.000004172               0.000262677               0.999999998              -0.000010844               0.000278351               0.999999998              -0.000017636               0.000295595               0.999999998              -0.000024634               0.000314109               0.999999998              -0.000031995               0.000333768               0.999999998              -0.000039564               0.000354587               0.999999998              -0.000047236               0.000376599               0.999999998              -0.000054880               0.000399824               0.999999998              -0.000062440               0.000424075               0.999999998              -0.000069691               0.000449184               0.999999998              -0.000076602               0.000474930               0.999999998              -0.000000459               0.000251840               0.999999998               0.000009774               0.000243984               0.999999998               0.000012392               0.000242118               0.999999998               0.000011557               0.000245110               0.999999998               0.000008768               0.000251914               0.999999998               0.000004737               0.000261659               0.999999998              -0.000000108               0.000273944               0.999999998              -0.000005538               0.000288136               0.999999998              -0.000011199               0.000303978               0.999999998              -0.000016978               0.000321103               0.999999998              -0.000023033               0.000339342               0.999999998              -0.000029263               0.000358657               0.999999998              -0.000035362               0.000379142               0.999999998              -0.000041217               0.000400782               0.999999998              -0.000046738               0.000423582               0.999999998              -0.000052076               0.000447297               0.999999998              -0.000056937               0.000471699               0.999999998              -0.000000457               0.000261387               0.999999998               0.000008056               0.000256634               0.999999998               0.000010672               0.000255745               0.999999998               0.000010547               0.000258615               0.999999998               0.000008711               0.000264717               0.999999998               0.000005856               0.000273533               0.999999998               0.000002218               0.000284627               0.999999998              -0.000001872               0.000297669               0.999999998              -0.000006321               0.000312355               0.999999998              -0.000010758               0.000328468               0.999999998              -0.000015338               0.000345791               0.999999998              -0.000020045               0.000364111               0.999999998              -0.000024640               0.000383499               0.999999998              -0.000028749               0.000404017               0.999999998              -0.000032536               0.000425621               0.999999998              -0.000035951               0.000448132               0.999999998              -0.000038602               0.000471470               0.999999998              -0.000000353               0.000268288               0.999999998               0.000005716               0.000266104               0.999999998               0.000007812               0.000266234               0.999999998               0.000008024               0.000269296               0.999999998               0.000007005               0.000275066               0.999999998               0.000005174               0.000283284               0.999999998               0.000002803               0.000293637               0.999999998               0.000000033               0.000305922               0.999999998              -0.000002977               0.000319872               0.999999998              -0.000006048               0.000335296               0.999999998              -0.000009081               0.000351962               0.999999998              -0.000012124               0.000369730               0.999999998              -0.000015209               0.000388528               0.999999998              -0.000017999               0.000408288               0.999999998              -0.000020328               0.000429080               0.999999998              -0.000022029               0.000450916               0.999999998              -0.000022907               0.000473593               0.999999998              -0.000000195               0.000272433               0.999999998               0.000002959               0.000271945               0.999999998               0.000004115               0.000272850               0.999999998               0.000004313               0.000276160               0.999999998               0.000003876               0.000281861               0.999999998               0.000003032               0.000289808               0.999999998               0.000001883               0.000299802               0.999999998               0.000000523               0.000311631               0.999999998              -0.000001040               0.000325089               0.999999998              -0.000002671               0.000340094               0.999999998              -0.000004127               0.000356405               0.999999998              -0.000005504               0.000373880               0.999999998              -0.000007201               0.000392369               0.999999998              -0.000008837               0.000411816               0.999999998              -0.000009675               0.000432252               0.999999998              -0.000010236               0.000453653               0.999999998              -0.000010492               0.000475943               0.999999998              -0.000000000               0.000273838               0.999999998              -0.000000000               0.000273933               0.999999998               0.000000000               0.000275116               0.999999998              -0.000000000               0.000278539               0.999999998               0.000000000               0.000284246               0.999999998               0.000000000               0.000292069               0.999999998              -0.000000000               0.000301925               0.999999998               0.000000000               0.000313659               0.999999998               0.000000000               0.000326982               0.999999998              -0.000000000               0.000341755               0.999999998              -0.000000000               0.000357990               0.999999998               0.000000000               0.000375441               0.999999998              -0.000000000               0.000393814               0.999999998              -0.000000000               0.000413279               0.999999998              -0.000000000               0.000433581               0.999999998               0.000000000               0.000454734               0.999999998               0.000000000               0.000476927               0.999999998               0.000003979               0.000000000               0.999999998              -0.000006825              -0.000000000               0.999999998              -0.000012240              -0.000000000               0.999999998              -0.000015442               0.000000000               0.999999998              -0.000017977               0.000000000               0.999999998              -0.000020425               0.000000000               0.999999998              -0.000023079               0.000000000               0.999999998              -0.000026175              -0.000000000               0.999999998              -0.000029722              -0.000000000               0.999999998              -0.000033732              -0.000000000               0.999999998              -0.000038254              -0.000000000               0.999999998              -0.000043293              -0.000000000               0.999999998              -0.000048798               0.000000000               0.999999998              -0.000054784               0.000000000               0.999999998              -0.000061254               0.000000000               0.999999998              -0.000068263              -0.000000000               0.999999998              -0.000075803               0.000000000               0.999999998               0.000003879              -0.000026419               0.999999998              -0.000006534              -0.000023840               0.999999998              -0.000011694              -0.000023289               0.999999998              -0.000014847              -0.000023963               0.999999998              -0.000017372              -0.000025416               0.999999998              -0.000019839              -0.000027323               0.999999998              -0.000022587              -0.000029623               0.999999998              -0.000025758              -0.000032276               0.999999998              -0.000029421              -0.000035093               0.999999998              -0.000033632              -0.000038141               0.999999998              -0.000038326              -0.000041294               0.999999998              -0.000043508              -0.000044651               0.999999998              -0.000049213              -0.000048142               0.999999998              -0.000055388              -0.000051763               0.999999998              -0.000062036              -0.000055572               0.999999998              -0.000069187              -0.000059657               0.999999998              -0.000076834              -0.000063619               0.999999998               0.000003626              -0.000052641               0.999999998              -0.000005707              -0.000047413               0.999999998              -0.000010253              -0.000046432               0.999999998              -0.000013143              -0.000047880               0.999999998              -0.000015642              -0.000050803               0.999999998              -0.000018287              -0.000054758               0.999999998              -0.000021299              -0.000059449               0.999999998              -0.000024832              -0.000064648               0.999999998              -0.000028941              -0.000070352               0.999999998              -0.000033568              -0.000076402               0.999999998              -0.000038698              -0.000082782               0.999999998              -0.000044375              -0.000089400               0.999999998              -0.000050554              -0.000096389               0.999999998              -0.000057224              -0.000103558               0.999999998              -0.000064357              -0.000111185               0.999999998              -0.000071950              -0.000119248               0.999999998              -0.000080018              -0.000127351               0.999999998               0.000003271              -0.000078394               0.999999998              -0.000004299              -0.000070457               0.999999998              -0.000007981              -0.000069161               0.999999998              -0.000010587              -0.000071511               0.999999998              -0.000013172              -0.000076073               0.999999998              -0.000016165              -0.000082114               0.999999998              -0.000019712              -0.000089221               0.999999998              -0.000023893              -0.000097104               0.999999998              -0.000028666              -0.000105633               0.999999998              -0.000034052              -0.000114713               0.999999998              -0.000040011              -0.000124184               0.999999998              -0.000046472              -0.000134124               0.999999998              -0.000053437              -0.000144553               0.999999998              -0.000060892              -0.000155423               0.999999998              -0.000068878              -0.000166817               0.999999998              -0.000077312              -0.000178813               0.999999998              -0.000086099              -0.000190978               0.999999998               0.000002785              -0.000103372               0.999999998              -0.000002373              -0.000092731               0.999999998              -0.000005056              -0.000091352               0.999999998              -0.000007543              -0.000094793               0.999999998              -0.000010494              -0.000101124               0.999999998              -0.000014099              -0.000109384               0.999999998              -0.000018440              -0.000118894               0.999999998              -0.000023487              -0.000129453               0.999999998              -0.000029251              -0.000140860               0.999999998              -0.000035672              -0.000152965               0.999999998              -0.000042635              -0.000165619               0.999999998              -0.000050102              -0.000178787               0.999999998              -0.000058083              -0.000192714               0.999999998              -0.000066662              -0.000207287               0.999999998              -0.000075707              -0.000222364               0.999999998              -0.000085042              -0.000237886               0.999999998              -0.000094597              -0.000253695               0.999999998               0.000002308              -0.000127362               0.999999998               0.000000053              -0.000114198               0.999999998              -0.000001798              -0.000112976               0.999999998              -0.000004417              -0.000117653               0.999999998              -0.000007969              -0.000125854               0.999999998              -0.000012479              -0.000136272               0.999999998              -0.000017884              -0.000148271               0.999999998              -0.000024151              -0.000161528               0.999999998              -0.000031097              -0.000175806               0.999999998              -0.000038627              -0.000190894               0.999999998              -0.000046697              -0.000206726               0.999999998              -0.000055348              -0.000223263               0.999999998              -0.000064558              -0.000240680               0.999999998              -0.000074209              -0.000258822               0.999999998              -0.000084193              -0.000277256               0.999999998              -0.000094345              -0.000295836               0.999999998              -0.000104614              -0.000314848               0.999999998               0.000001875              -0.000150114               0.999999998               0.000002761              -0.000134800               0.999999998               0.000001476              -0.000133930               0.999999998              -0.000001569              -0.000139984               0.999999998              -0.000006040              -0.000150064               0.999999998              -0.000011713              -0.000162729               0.999999998              -0.000018429              -0.000177199               0.999999998              -0.000025936              -0.000193185               0.999999998              -0.000034053              -0.000210282               0.999999998              -0.000042730              -0.000228369               0.999999998              -0.000052026              -0.000247393               0.999999998              -0.000061854              -0.000267332               0.999999998              -0.000072188              -0.000288079               0.999999998              -0.000082791              -0.000309655               0.999999998              -0.000093515              -0.000331290               0.999999998              -0.000104389              -0.000353076               0.999999998              -0.000115547              -0.000375496               0.999999998               0.000001504              -0.000171384               0.999999998               0.000005539              -0.000154469               0.999999998               0.000004533              -0.000154140               0.999999998               0.000000728              -0.000161648               0.999999998              -0.000004887              -0.000173602               0.999999998              -0.000011871              -0.000188511               0.999999998              -0.000019843              -0.000205502               0.999999998              -0.000028543              -0.000224156               0.999999998              -0.000037828              -0.000244093               0.999999998              -0.000047672              -0.000265202               0.999999998              -0.000058053              -0.000287547               0.999999998              -0.000068879              -0.000310984               0.999999998              -0.000080084              -0.000335395               0.999999998              -0.000091466              -0.000360329               0.999999998              -0.000103011              -0.000385356               0.999999998              -0.000114861              -0.000410823               0.999999998              -0.000127140              -0.000437078               0.999999998               0.000001101              -0.000190807               0.999999998               0.000008276              -0.000173223               0.999999998               0.000007076              -0.000173519               0.999999998               0.000002278              -0.000182392               0.999999998              -0.000004517              -0.000196287               0.999999998              -0.000012811              -0.000213444               0.999999998              -0.000021957              -0.000232997               0.999999998              -0.000031762              -0.000254362               0.999999998              -0.000042104              -0.000277245               0.999999998              -0.000052960              -0.000301641               0.999999998              -0.000064289              -0.000327510               0.999999998              -0.000076085              -0.000354639               0.999999998              -0.000088218              -0.000382625               0.999999998              -0.000100465              -0.000411130               0.999999998              -0.000112917              -0.000440192               0.999999998              -0.000125789              -0.000469933               0.999999998              -0.000138970              -0.000500298               0.999999998               0.000000444              -0.000208991               0.999999998               0.000009966              -0.000192728               0.999999998               0.000009938              -0.000191149               0.999999998               0.000006009              -0.000197749               0.999999998              -0.000000003              -0.000209338               0.999999998              -0.000007354              -0.000224312               0.999999998              -0.000015602              -0.000241760               0.999999998              -0.000024423              -0.000261024               0.999999998              -0.000033570              -0.000281816               0.999999998              -0.000042992              -0.000303990               0.999999998              -0.000052922              -0.000327580               0.999999998              -0.000063264              -0.000352449               0.999999998              -0.000074089              -0.000378429               0.999999998              -0.000084954              -0.000405313               0.999999998              -0.000095747              -0.000432882               0.999999998              -0.000106675              -0.000461108               0.999999998              -0.000117755              -0.000490148               0.999999998              -0.000000001              -0.000225449               0.999999998               0.000010770              -0.000211381               0.999999998               0.000011948              -0.000208972               0.999999998               0.000009067              -0.000213736               0.999999998               0.000004020              -0.000223301               0.999999998              -0.000002251              -0.000236267               0.999999998              -0.000009544              -0.000251717               0.999999998              -0.000017299              -0.000269095               0.999999998              -0.000025266              -0.000287991               0.999999998              -0.000033483              -0.000308204               0.999999998              -0.000042046              -0.000329644               0.999999998              -0.000051024              -0.000352376               0.999999998              -0.000060299              -0.000376250               0.999999998              -0.000069687              -0.000401267               0.999999998              -0.000078896              -0.000427168               0.999999998              -0.000088018              -0.000453789               0.999999998              -0.000097211              -0.000481132               0.999999998              -0.000000307              -0.000239812               0.999999998               0.000010705              -0.000228685               0.999999998               0.000012818              -0.000226228               0.999999998               0.000011015              -0.000229806               0.999999998               0.000007109              -0.000237744               0.999999998               0.000001923              -0.000248943               0.999999998              -0.000004172              -0.000262677               0.999999998              -0.000010844              -0.000278351               0.999999998              -0.000017636              -0.000295595               0.999999998              -0.000024634              -0.000314109               0.999999998              -0.000031995              -0.000333768               0.999999998              -0.000039564              -0.000354587               0.999999998              -0.000047236              -0.000376599               0.999999998              -0.000054880              -0.000399824               0.999999998              -0.000062440              -0.000424075               0.999999998              -0.000069691              -0.000449184               0.999999998              -0.000076602              -0.000474930               0.999999998              -0.000000459              -0.000251840               0.999999998               0.000009774              -0.000243984               0.999999998               0.000012392              -0.000242118               0.999999998               0.000011557              -0.000245110               0.999999998               0.000008768              -0.000251914               0.999999998               0.000004737              -0.000261659               0.999999998              -0.000000108              -0.000273944               0.999999998              -0.000005538              -0.000288136               0.999999998              -0.000011199              -0.000303978               0.999999998              -0.000016978              -0.000321103               0.999999998              -0.000023033              -0.000339342               0.999999998              -0.000029263              -0.000358657               0.999999998              -0.000035362              -0.000379142               0.999999998              -0.000041217              -0.000400782               0.999999998              -0.000046738              -0.000423582               0.999999998              -0.000052076              -0.000447297               0.999999998              -0.000056937              -0.000471699               0.999999998              -0.000000457              -0.000261387               0.999999998               0.000008056              -0.000256634               0.999999998               0.000010672              -0.000255745               0.999999998               0.000010547              -0.000258615               0.999999998               0.000008711              -0.000264717               0.999999998               0.000005856              -0.000273533               0.999999998               0.000002218              -0.000284627               0.999999998              -0.000001872              -0.000297669               0.999999998              -0.000006321              -0.000312355               0.999999998              -0.000010758              -0.000328468               0.999999998              -0.000015338              -0.000345791               0.999999998              -0.000020045              -0.000364111               0.999999998              -0.000024640              -0.000383499               0.999999998              -0.000028749              -0.000404017               0.999999998              -0.000032536              -0.000425621               0.999999998              -0.000035951              -0.000448132               0.999999998              -0.000038602              -0.000471470               0.999999998              -0.000000353              -0.000268288               0.999999998               0.000005716              -0.000266104               0.999999998               0.000007812              -0.000266234               0.999999998               0.000008024              -0.000269296               0.999999998               0.000007005              -0.000275066               0.999999998               0.000005174              -0.000283284               0.999999998               0.000002803              -0.000293637               0.999999998               0.000000033              -0.000305922               0.999999998              -0.000002977              -0.000319872               0.999999998              -0.000006048              -0.000335296               0.999999998              -0.000009081              -0.000351962               0.999999998              -0.000012124              -0.000369730               0.999999998              -0.000015209              -0.000388528               0.999999998              -0.000017999              -0.000408288               0.999999998              -0.000020328              -0.000429080               0.999999998              -0.000022029              -0.000450916               0.999999998              -0.000022907              -0.000473593               0.999999998              -0.000000195              -0.000272433               0.999999998               0.000002959              -0.000271945               0.999999998               0.000004115              -0.000272850               0.999999998               0.000004313              -0.000276160               0.999999998               0.000003876              -0.000281861               0.999999998               0.000003032              -0.000289808               0.999999998               0.000001883              -0.000299802               0.999999998               0.000000523              -0.000311631               0.999999998              -0.000001040              -0.000325089               0.999999998              -0.000002671              -0.000340094               0.999999998              -0.000004127              -0.000356405               0.999999998              -0.000005504              -0.000373880               0.999999998              -0.000007201              -0.000392369               0.999999998              -0.000008837              -0.000411816               0.999999998              -0.000009675              -0.000432252               0.999999998              -0.000010236              -0.000453653               0.999999998              -0.000010492              -0.000475943               0.999999998              -0.000000000              -0.000273838               0.999999998               0.000000000              -0.000273933               0.999999998               0.000000000              -0.000275116               0.999999998               0.000000000              -0.000278539               0.999999998              -0.000000000              -0.000284246               0.999999998              -0.000000000              -0.000292069               0.999999998              -0.000000000              -0.000301925               0.999999998              -0.000000000              -0.000313659               0.999999998              -0.000000000              -0.000326982               0.999999998              -0.000000000              -0.000341755               0.999999998              -0.000000000              -0.000357990               0.999999998              -0.000000000              -0.000375441               0.999999998              -0.000000000              -0.000393814               0.999999998               0.000000000              -0.000413279               0.999999998               0.000000000              -0.000433581               0.999999998               0.000000000              -0.000454734               0.999999998              -0.000000000              -0.000476927               0.999999998              -0.000003979              -0.000000000               0.999999998               0.000006825              -0.000000000               0.999999998               0.000012240               0.000000000               0.999999998               0.000015442               0.000000000               0.999999998               0.000017977               0.000000000               0.999999998               0.000020425               0.000000000               0.999999998               0.000023079               0.000000000               0.999999998               0.000026175               0.000000000               0.999999998               0.000029722               0.000000000               0.999999998               0.000033732               0.000000000               0.999999998               0.000038254               0.000000000               0.999999998               0.000043293               0.000000000               0.999999998               0.000048798               0.000000000               0.999999998               0.000054784              -0.000000000               0.999999998               0.000061254               0.000000000               0.999999998               0.000068263               0.000000000               0.999999998               0.000075803               0.000000000               0.999999998              -0.000003879              -0.000026419               0.999999998               0.000006534              -0.000023840               0.999999998               0.000011694              -0.000023289               0.999999998               0.000014847              -0.000023963               0.999999998               0.000017372              -0.000025416               0.999999998               0.000019839              -0.000027323               0.999999998               0.000022587              -0.000029623               0.999999998               0.000025758              -0.000032276               0.999999998               0.000029421              -0.000035093               0.999999998               0.000033632              -0.000038141               0.999999998               0.000038326              -0.000041294               0.999999998               0.000043508              -0.000044651               0.999999998               0.000049213              -0.000048142               0.999999998               0.000055388              -0.000051763               0.999999998               0.000062036              -0.000055572               0.999999998               0.000069187              -0.000059657               0.999999998               0.000076834              -0.000063619               0.999999998              -0.000003626              -0.000052641               0.999999998               0.000005707              -0.000047413               0.999999998               0.000010253              -0.000046432               0.999999998               0.000013143              -0.000047880               0.999999998               0.000015642              -0.000050803               0.999999998               0.000018287              -0.000054758               0.999999998               0.000021299              -0.000059449               0.999999998               0.000024832              -0.000064648               0.999999998               0.000028941              -0.000070352               0.999999998               0.000033568              -0.000076402               0.999999998               0.000038698              -0.000082782               0.999999998               0.000044375              -0.000089400               0.999999998               0.000050554              -0.000096389               0.999999998               0.000057224              -0.000103558               0.999999998               0.000064357              -0.000111185               0.999999998               0.000071950              -0.000119248               0.999999998               0.000080018              -0.000127351               0.999999998              -0.000003271              -0.000078394               0.999999998               0.000004299              -0.000070457               0.999999998               0.000007981              -0.000069161               0.999999998               0.000010587              -0.000071511               0.999999998               0.000013172              -0.000076073               0.999999998               0.000016165              -0.000082114               0.999999998               0.000019712              -0.000089221               0.999999998               0.000023893              -0.000097104               0.999999998               0.000028666              -0.000105633               0.999999998               0.000034052              -0.000114713               0.999999998               0.000040011              -0.000124184               0.999999998               0.000046472              -0.000134124               0.999999998               0.000053437              -0.000144553               0.999999998               0.000060892              -0.000155423               0.999999998               0.000068878              -0.000166817               0.999999998               0.000077312              -0.000178813               0.999999998               0.000086099              -0.000190978               0.999999998              -0.000002785              -0.000103372               0.999999998               0.000002373              -0.000092731               0.999999998               0.000005056              -0.000091352               0.999999998               0.000007543              -0.000094793               0.999999998               0.000010494              -0.000101124               0.999999998               0.000014099              -0.000109384               0.999999998               0.000018440              -0.000118894               0.999999998               0.000023487              -0.000129453               0.999999998               0.000029251              -0.000140860               0.999999998               0.000035672              -0.000152965               0.999999998               0.000042635              -0.000165619               0.999999998               0.000050102              -0.000178787               0.999999998               0.000058083              -0.000192714               0.999999998               0.000066662              -0.000207287               0.999999998               0.000075707              -0.000222364               0.999999998               0.000085042              -0.000237886               0.999999998               0.000094597              -0.000253695               0.999999998              -0.000002308              -0.000127362               0.999999998              -0.000000053              -0.000114198               0.999999998               0.000001798              -0.000112976               0.999999998               0.000004417              -0.000117653               0.999999998               0.000007969              -0.000125854               0.999999998               0.000012479              -0.000136272               0.999999998               0.000017884              -0.000148271               0.999999998               0.000024151              -0.000161528               0.999999998               0.000031097              -0.000175806               0.999999998               0.000038627              -0.000190894               0.999999998               0.000046697              -0.000206726               0.999999998               0.000055348              -0.000223263               0.999999998               0.000064558              -0.000240680               0.999999998               0.000074209              -0.000258822               0.999999998               0.000084193              -0.000277256               0.999999998               0.000094345              -0.000295836               0.999999998               0.000104614              -0.000314848               0.999999998              -0.000001875              -0.000150114               0.999999998              -0.000002761              -0.000134800               0.999999998              -0.000001476              -0.000133930               0.999999998               0.000001569              -0.000139984               0.999999998               0.000006040              -0.000150064               0.999999998               0.000011713              -0.000162729               0.999999998               0.000018429              -0.000177199               0.999999998               0.000025936              -0.000193185               0.999999998               0.000034053              -0.000210282               0.999999998               0.000042730              -0.000228369               0.999999998               0.000052026              -0.000247393               0.999999998               0.000061854              -0.000267332               0.999999998               0.000072188              -0.000288079               0.999999998               0.000082791              -0.000309655               0.999999998               0.000093515              -0.000331290               0.999999998               0.000104389              -0.000353076               0.999999998               0.000115547              -0.000375496               0.999999998              -0.000001504              -0.000171384               0.999999998              -0.000005539              -0.000154469               0.999999998              -0.000004533              -0.000154140               0.999999998              -0.000000728              -0.000161648               0.999999998               0.000004887              -0.000173602               0.999999998               0.000011871              -0.000188511               0.999999998               0.000019843              -0.000205502               0.999999998               0.000028543              -0.000224156               0.999999998               0.000037828              -0.000244093               0.999999998               0.000047672              -0.000265202               0.999999998               0.000058053              -0.000287547               0.999999998               0.000068879              -0.000310984               0.999999998               0.000080084              -0.000335395               0.999999998               0.000091466              -0.000360329               0.999999998               0.000103011              -0.000385356               0.999999998               0.000114861              -0.000410823               0.999999998               0.000127140              -0.000437078               0.999999998              -0.000001101              -0.000190807               0.999999998              -0.000008276              -0.000173223               0.999999998              -0.000007076              -0.000173519               0.999999998              -0.000002278              -0.000182392               0.999999998               0.000004517              -0.000196287               0.999999998               0.000012811              -0.000213444               0.999999998               0.000021957              -0.000232997               0.999999998               0.000031762              -0.000254362               0.999999998               0.000042104              -0.000277245               0.999999998               0.000052960              -0.000301641               0.999999998               0.000064289              -0.000327510               0.999999998               0.000076085              -0.000354639               0.999999998               0.000088218              -0.000382625               0.999999998               0.000100465              -0.000411130               0.999999998               0.000112917              -0.000440192               0.999999998               0.000125789              -0.000469933               0.999999998               0.000138970              -0.000500298               0.999999998              -0.000000444              -0.000208991               0.999999998              -0.000009966              -0.000192728               0.999999998              -0.000009938              -0.000191149               0.999999998              -0.000006009              -0.000197749               0.999999998               0.000000003              -0.000209338               0.999999998               0.000007354              -0.000224312               0.999999998               0.000015602              -0.000241760               0.999999998               0.000024423              -0.000261024               0.999999998               0.000033570              -0.000281816               0.999999998               0.000042992              -0.000303990               0.999999998               0.000052922              -0.000327580               0.999999998               0.000063264              -0.000352449               0.999999998               0.000074089              -0.000378429               0.999999998               0.000084954              -0.000405313               0.999999998               0.000095747              -0.000432882               0.999999998               0.000106675              -0.000461108               0.999999998               0.000117755              -0.000490148               0.999999998               0.000000001              -0.000225449               0.999999998              -0.000010770              -0.000211381               0.999999998              -0.000011948              -0.000208972               0.999999998              -0.000009067              -0.000213736               0.999999998              -0.000004020              -0.000223301               0.999999998               0.000002251              -0.000236267               0.999999998               0.000009544              -0.000251717               0.999999998               0.000017299              -0.000269095               0.999999998               0.000025266              -0.000287991               0.999999998               0.000033483              -0.000308204               0.999999998               0.000042046              -0.000329644               0.999999998               0.000051024              -0.000352376               0.999999998               0.000060299              -0.000376250               0.999999998               0.000069687              -0.000401267               0.999999998               0.000078896              -0.000427168               0.999999998               0.000088018              -0.000453789               0.999999998               0.000097211              -0.000481132               0.999999998               0.000000307              -0.000239812               0.999999998              -0.000010705              -0.000228685               0.999999998              -0.000012818              -0.000226228               0.999999998              -0.000011015              -0.000229806               0.999999998              -0.000007109              -0.000237744               0.999999998              -0.000001923              -0.000248943               0.999999998               0.000004172              -0.000262677               0.999999998               0.000010844              -0.000278351               0.999999998               0.000017636              -0.000295595               0.999999998               0.000024634              -0.000314109               0.999999998               0.000031995              -0.000333768               0.999999998               0.000039564              -0.000354587               0.999999998               0.000047236              -0.000376599               0.999999998               0.000054880              -0.000399824               0.999999998               0.000062440              -0.000424075               0.999999998               0.000069691              -0.000449184               0.999999998               0.000076602              -0.000474930               0.999999998               0.000000459              -0.000251840               0.999999998              -0.000009774              -0.000243984               0.999999998              -0.000012392              -0.000242118               0.999999998              -0.000011557              -0.000245110               0.999999998              -0.000008768              -0.000251914               0.999999998              -0.000004737              -0.000261659               0.999999998               0.000000108              -0.000273944               0.999999998               0.000005538              -0.000288136               0.999999998               0.000011199              -0.000303978               0.999999998               0.000016978              -0.000321103               0.999999998               0.000023033              -0.000339342               0.999999998               0.000029263              -0.000358657               0.999999998               0.000035362              -0.000379142               0.999999998               0.000041217              -0.000400782               0.999999998               0.000046738              -0.000423582               0.999999998               0.000052076              -0.000447297               0.999999998               0.000056937              -0.000471699               0.999999998               0.000000457              -0.000261387               0.999999998              -0.000008056              -0.000256634               0.999999998              -0.000010672              -0.000255745               0.999999998              -0.000010547              -0.000258615               0.999999998              -0.000008711              -0.000264717               0.999999998              -0.000005856              -0.000273533               0.999999998              -0.000002218              -0.000284627               0.999999998               0.000001872              -0.000297669               0.999999998               0.000006321              -0.000312355               0.999999998               0.000010758              -0.000328468               0.999999998               0.000015338              -0.000345791               0.999999998               0.000020045              -0.000364111               0.999999998               0.000024640              -0.000383499               0.999999998               0.000028749              -0.000404017               0.999999998               0.000032536              -0.000425621               0.999999998               0.000035951              -0.000448132               0.999999998               0.000038602              -0.000471470               0.999999998               0.000000353              -0.000268288               0.999999998              -0.000005716              -0.000266104               0.999999998              -0.000007812              -0.000266234               0.999999998              -0.000008024              -0.000269296               0.999999998              -0.000007005              -0.000275066               0.999999998              -0.000005174              -0.000283284               0.999999998              -0.000002803              -0.000293637               0.999999998              -0.000000033              -0.000305922               0.999999998               0.000002977              -0.000319872               0.999999998               0.000006048              -0.000335296               0.999999998               0.000009081              -0.000351962               0.999999998               0.000012124              -0.000369730               0.999999998               0.000015209              -0.000388528               0.999999998               0.000017999              -0.000408288               0.999999998               0.000020328              -0.000429080               0.999999998               0.000022029              -0.000450916               0.999999998               0.000022907              -0.000473593               0.999999998               0.000000195              -0.000272433               0.999999998              -0.000002959              -0.000271945               0.999999998              -0.000004115              -0.000272850               0.999999998              -0.000004313              -0.000276160               0.999999998              -0.000003876              -0.000281861               0.999999998              -0.000003032              -0.000289808               0.999999998              -0.000001883              -0.000299802               0.999999998              -0.000000523              -0.000311631               0.999999998               0.000001040              -0.000325089               0.999999998               0.000002671              -0.000340094               0.999999998               0.000004127              -0.000356405               0.999999998               0.000005504              -0.000373880               0.999999998               0.000007201              -0.000392369               0.999999998               0.000008837              -0.000411816               0.999999998               0.000009675              -0.000432252               0.999999998               0.000010236              -0.000453653               0.999999998               0.000010492              -0.000475943               0.999999998              -0.000000000              -0.000273838               0.999999998               0.000000000              -0.000273933               0.999999998               0.000000000              -0.000275116               0.999999998               0.000000000              -0.000278539               0.999999998              -0.000000000              -0.000284246               0.999999998              -0.000000000              -0.000292069               0.999999998              -0.000000000              -0.000301925               0.999999998              -0.000000000              -0.000313659               0.999999998              -0.000000000              -0.000326982               0.999999998              -0.000000000              -0.000341755               0.999999998              -0.000000000              -0.000357990               0.999999998              -0.000000000              -0.000375441               0.999999998              -0.000000000              -0.000393814               0.999999998               0.000000000              -0.000413279               0.999999998               0.000000000              -0.000433581               0.999999998               0.000000000              -0.000454734               0.999999998              -0.000000000              -0.000476927               0.999999998              -0.000003979              -0.000000000               0.999999998               0.000006825              -0.000000000               0.999999998               0.000012240               0.000000000               0.999999998               0.000015442               0.000000000               0.999999998               0.000017977               0.000000000               0.999999998               0.000020425               0.000000000               0.999999998               0.000023079               0.000000000               0.999999998               0.000026175               0.000000000               0.999999998               0.000029722               0.000000000               0.999999998               0.000033732               0.000000000               0.999999998               0.000038254               0.000000000               0.999999998               0.000043293               0.000000000               0.999999998               0.000048798               0.000000000               0.999999998               0.000054784              -0.000000000               0.999999998               0.000061254               0.000000000               0.999999998               0.000068263               0.000000000               0.999999998               0.000075803               0.000000000               0.999999998              -0.000003879               0.000026419               0.999999998               0.000006534               0.000023840               0.999999998               0.000011694               0.000023289               0.999999998               0.000014847               0.000023963               0.999999998               0.000017372               0.000025416               0.999999998               0.000019839               0.000027323               0.999999998               0.000022587               0.000029623               0.999999998               0.000025758               0.000032276               0.999999998               0.000029421               0.000035093               0.999999998               0.000033632               0.000038141               0.999999998               0.000038326               0.000041294               0.999999998               0.000043508               0.000044651               0.999999998               0.000049213               0.000048142               0.999999998               0.000055388               0.000051763               0.999999998               0.000062036               0.000055572               0.999999998               0.000069187               0.000059657               0.999999998               0.000076834               0.000063619               0.999999998              -0.000003626               0.000052641               0.999999998               0.000005707               0.000047413               0.999999998               0.000010253               0.000046432               0.999999998               0.000013143               0.000047880               0.999999998               0.000015642               0.000050803               0.999999998               0.000018287               0.000054758               0.999999998               0.000021299               0.000059449               0.999999998               0.000024832               0.000064648               0.999999998               0.000028941               0.000070352               0.999999998               0.000033568               0.000076402               0.999999998               0.000038698               0.000082782               0.999999998               0.000044375               0.000089400               0.999999998               0.000050554               0.000096389               0.999999998               0.000057224               0.000103558               0.999999998               0.000064357               0.000111185               0.999999998               0.000071950               0.000119248               0.999999998               0.000080018               0.000127351               0.999999998              -0.000003271               0.000078394               0.999999998               0.000004299               0.000070457               0.999999998               0.000007981               0.000069161               0.999999998               0.000010587               0.000071511               0.999999998               0.000013172               0.000076073               0.999999998               0.000016165               0.000082114               0.999999998               0.000019712               0.000089221               0.999999998               0.000023893               0.000097104               0.999999998               0.000028666               0.000105633               0.999999998               0.000034052               0.000114713               0.999999998               0.000040011               0.000124184               0.999999998               0.000046472               0.000134124               0.999999998               0.000053437               0.000144553               0.999999998               0.000060892               0.000155423               0.999999998               0.000068878               0.000166817               0.999999998               0.000077312               0.000178813               0.999999998               0.000086099               0.000190978               0.999999998              -0.000002785               0.000103372               0.999999998               0.000002373               0.000092731               0.999999998               0.000005056               0.000091352               0.999999998               0.000007543               0.000094793               0.999999998               0.000010494               0.000101124               0.999999998               0.000014099               0.000109384               0.999999998               0.000018440               0.000118894               0.999999998               0.000023487               0.000129453               0.999999998               0.000029251               0.000140860               0.999999998               0.000035672               0.000152965               0.999999998               0.000042635               0.000165619               0.999999998               0.000050102               0.000178787               0.999999998               0.000058083               0.000192714               0.999999998               0.000066662               0.000207287               0.999999998               0.000075707               0.000222364               0.999999998               0.000085042               0.000237886               0.999999998               0.000094597               0.000253695               0.999999998              -0.000002308               0.000127362               0.999999998              -0.000000053               0.000114198               0.999999998               0.000001798               0.000112976               0.999999998               0.000004417               0.000117653               0.999999998               0.000007969               0.000125854               0.999999998               0.000012479               0.000136272               0.999999998               0.000017884               0.000148271               0.999999998               0.000024151               0.000161528               0.999999998               0.000031097               0.000175806               0.999999998               0.000038627               0.000190894               0.999999998               0.000046697               0.000206726               0.999999998               0.000055348               0.000223263               0.999999998               0.000064558               0.000240680               0.999999998               0.000074209               0.000258822               0.999999998               0.000084193               0.000277256               0.999999998               0.000094345               0.000295836               0.999999998               0.000104614               0.000314848               0.999999998              -0.000001875               0.000150114               0.999999998              -0.000002761               0.000134800               0.999999998              -0.000001476               0.000133930               0.999999998               0.000001569               0.000139984               0.999999998               0.000006040               0.000150064               0.999999998               0.000011713               0.000162729               0.999999998               0.000018429               0.000177199               0.999999998               0.000025936               0.000193185               0.999999998               0.000034053               0.000210282               0.999999998               0.000042730               0.000228369               0.999999998               0.000052026               0.000247393               0.999999998               0.000061854               0.000267332               0.999999998               0.000072188               0.000288079               0.999999998               0.000082791               0.000309655               0.999999998               0.000093515               0.000331290               0.999999998               0.000104389               0.000353076               0.999999998               0.000115547               0.000375496               0.999999998              -0.000001504               0.000171384               0.999999998              -0.000005539               0.000154469               0.999999998              -0.000004533               0.000154140               0.999999998              -0.000000728               0.000161648               0.999999998               0.000004887               0.000173602               0.999999998               0.000011871               0.000188511               0.999999998               0.000019843               0.000205502               0.999999998               0.000028543               0.000224156               0.999999998               0.000037828               0.000244093               0.999999998               0.000047672               0.000265202               0.999999998               0.000058053               0.000287547               0.999999998               0.000068879               0.000310984               0.999999998               0.000080084               0.000335395               0.999999998               0.000091466               0.000360329               0.999999998               0.000103011               0.000385356               0.999999998               0.000114861               0.000410823               0.999999998               0.000127140               0.000437078               0.999999998              -0.000001101               0.000190807               0.999999998              -0.000008276               0.000173223               0.999999998              -0.000007076               0.000173519               0.999999998              -0.000002278               0.000182392               0.999999998               0.000004517               0.000196287               0.999999998               0.000012811               0.000213444               0.999999998               0.000021957               0.000232997               0.999999998               0.000031762               0.000254362               0.999999998               0.000042104               0.000277245               0.999999998               0.000052960               0.000301641               0.999999998               0.000064289               0.000327510               0.999999998               0.000076085               0.000354639               0.999999998               0.000088218               0.000382625               0.999999998               0.000100465               0.000411130               0.999999998               0.000112917               0.000440192               0.999999998               0.000125789               0.000469933               0.999999998               0.000138970               0.000500298               0.999999998              -0.000000444               0.000208991               0.999999998              -0.000009966               0.000192728               0.999999998              -0.000009938               0.000191149               0.999999998              -0.000006009               0.000197749               0.999999998               0.000000003               0.000209338               0.999999998               0.000007354               0.000224312               0.999999998               0.000015602               0.000241760               0.999999998               0.000024423               0.000261024               0.999999998               0.000033570               0.000281816               0.999999998               0.000042992               0.000303990               0.999999998               0.000052922               0.000327580               0.999999998               0.000063264               0.000352449               0.999999998               0.000074089               0.000378429               0.999999998               0.000084954               0.000405313               0.999999998               0.000095747               0.000432882               0.999999998               0.000106675               0.000461108               0.999999998               0.000117755               0.000490148               0.999999998               0.000000001               0.000225449               0.999999998              -0.000010770               0.000211381               0.999999998              -0.000011948               0.000208972               0.999999998              -0.000009067               0.000213736               0.999999998              -0.000004020               0.000223301               0.999999998               0.000002251               0.000236267               0.999999998               0.000009544               0.000251717               0.999999998               0.000017299               0.000269095               0.999999998               0.000025266               0.000287991               0.999999998               0.000033483               0.000308204               0.999999998               0.000042046               0.000329644               0.999999998               0.000051024               0.000352376               0.999999998               0.000060299               0.000376250               0.999999998               0.000069687               0.000401267               0.999999998               0.000078896               0.000427168               0.999999998               0.000088018               0.000453789               0.999999998               0.000097211               0.000481132               0.999999998               0.000000307               0.000239812               0.999999998              -0.000010705               0.000228685               0.999999998              -0.000012818               0.000226228               0.999999998              -0.000011015               0.000229806               0.999999998              -0.000007109               0.000237744               0.999999998              -0.000001923               0.000248943               0.999999998               0.000004172               0.000262677               0.999999998               0.000010844               0.000278351               0.999999998               0.000017636               0.000295595               0.999999998               0.000024634               0.000314109               0.999999998               0.000031995               0.000333768               0.999999998               0.000039564               0.000354587               0.999999998               0.000047236               0.000376599               0.999999998               0.000054880               0.000399824               0.999999998               0.000062440               0.000424075               0.999999998               0.000069691               0.000449184               0.999999998               0.000076602               0.000474930               0.999999998               0.000000459               0.000251840               0.999999998              -0.000009774               0.000243984               0.999999998              -0.000012392               0.000242118               0.999999998              -0.000011557               0.000245110               0.999999998              -0.000008768               0.000251914               0.999999998              -0.000004737               0.000261659               0.999999998               0.000000108               0.000273944               0.999999998               0.000005538               0.000288136               0.999999998               0.000011199               0.000303978               0.999999998               0.000016978               0.000321103               0.999999998               0.000023033               0.000339342               0.999999998               0.000029263               0.000358657               0.999999998               0.000035362               0.000379142               0.999999998               0.000041217               0.000400782               0.999999998               0.000046738               0.000423582               0.999999998               0.000052076               0.000447297               0.999999998               0.000056937               0.000471699               0.999999998               0.000000457               0.000261387               0.999999998              -0.000008056               0.000256634               0.999999998              -0.000010672               0.000255745               0.999999998              -0.000010547               0.000258615               0.999999998              -0.000008711               0.000264717               0.999999998              -0.000005856               0.000273533               0.999999998              -0.000002218               0.000284627               0.999999998               0.000001872               0.000297669               0.999999998               0.000006321               0.000312355               0.999999998               0.000010758               0.000328468               0.999999998               0.000015338               0.000345791               0.999999998               0.000020045               0.000364111               0.999999998               0.000024640               0.000383499               0.999999998               0.000028749               0.000404017               0.999999998               0.000032536               0.000425621               0.999999998               0.000035951               0.000448132               0.999999998               0.000038602               0.000471470               0.999999998               0.000000353               0.000268288               0.999999998              -0.000005716               0.000266104               0.999999998              -0.000007812               0.000266234               0.999999998              -0.000008024               0.000269296               0.999999998              -0.000007005               0.000275066               0.999999998              -0.000005174               0.000283284               0.999999998              -0.000002803               0.000293637               0.999999998              -0.000000033               0.000305922               0.999999998               0.000002977               0.000319872               0.999999998               0.000006048               0.000335296               0.999999998               0.000009081               0.000351962               0.999999998               0.000012124               0.000369730               0.999999998               0.000015209               0.000388528               0.999999998               0.000017999               0.000408288               0.999999998               0.000020328               0.000429080               0.999999998               0.000022029               0.000450916               0.999999998               0.000022907               0.000473593               0.999999998               0.000000195               0.000272433               0.999999998              -0.000002959               0.000271945               0.999999998              -0.000004115               0.000272850               0.999999998              -0.000004313               0.000276160               0.999999998              -0.000003876               0.000281861               0.999999998              -0.000003032               0.000289808               0.999999998              -0.000001883               0.000299802               0.999999998              -0.000000523               0.000311631               0.999999998               0.000001040               0.000325089               0.999999998               0.000002671               0.000340094               0.999999998               0.000004127               0.000356405               0.999999998               0.000005504               0.000373880               0.999999998               0.000007201               0.000392369               0.999999998               0.000008837               0.000411816               0.999999998               0.000009675               0.000432252               0.999999998               0.000010236               0.000453653               0.999999998               0.000010492               0.000475943               0.999999998              -0.000000000               0.000273838               0.999999998              -0.000000000               0.000273933               0.999999998               0.000000000               0.000275116               0.999999998              -0.000000000               0.000278539               0.999999998               0.000000000               0.000284246               0.999999998               0.000000000               0.000292069               0.999999998              -0.000000000               0.000301925               0.999999998               0.000000000               0.000313659               0.999999998               0.000000000               0.000326982               0.999999998              -0.000000000               0.000341755               0.999999998              -0.000000000               0.000357990               0.999999998               0.000000000               0.000375441               0.999999998              -0.000000000               0.000393814               0.999999998              -0.000000000               0.000413279               0.999999998              -0.000000000               0.000433581               0.999999998               0.000000000               0.000454734               0.999999998               0.000000000               0.000476927               0.999999998 </DataArray>
<DataArray type="Float64"                                    Name="defo"                                                      NumberOfComponents=" 3" format="ascii">
              0.000003979               0.000000000               0.999999998              -0.000006825              -0.000000000               0.999999998              -0.000012240              -0.000000000               0.999999998              -0.000015442               0.000000000               0.999999998              -0.000017977               0.000000000               0.999999998              -0.000020425               0.000000000               0.999999998              -0.000023079               0.000000000               0.999999998              -0.000026175              -0.000000000               0.999999998              -0.000029722              -0.000000000               0.999999998              -0.000033732              -0.000000000               0.999999998              -0.000038254              -0.000000000               0.999999998              -0.000043293              -0.000000000               0.999999998              -0.000048798               0.000000000               0.999999998              -0.000054784               0.000000000               0.999999998              -0.000061254               0.000000000               0.999999998              -0.000068263              -0.000000000               0.999999998              -0.000075803               0.000000000               0.999999998               0.000003879               0.000026419               0.999999998              -0.000006534               0.000023840               0.999999998              -0.000011694               0.000023289               0.999999998              -0.000014847               0.000023963               0.999999998              -0.000017372               0.000025416               0.999999998              -0.000019839               0.000027323               0.999999998              -0.000022587               0.000029623               0.999999998              -0.000025758               0.000032276               0.999999998              -0.000029421               0.000035093               0.999999998              -0.000033632               0.000038141               0.999999998              -0.000038326               0.000041294               0.999999998              -0.000043508               0.000044651               0.999999998              -0.000049213               0.000048142               0.999999998              -0.000055388               0.000051763               0.999999998              -0.000062036               0.000055572               0.999999998              -0.000069187               0.000059657               0.999999998              -0.000076834               0.000063619               0.999999998               0.000003626               0.000052641               0.999999998              -0.000005707               0.000047413               0.999999998              -0.000010253               0.000046432               0.999999998              -0.000013143               0.000047880               0.999999998              -0.000015642               0.000050803               0.999999998              -0.000018287               0.000054758               0.999999998              -0.000021299               0.000059449               0.999999998              -0.000024832               0.000064648               0.999999998              -0.000028941               0.000070352               0.999999998              -0.000033568               0.000076402               0.999999998              -0.000038698               0.000082782               0.999999998              -0.000044375               0.000089400               0.999999998              -0.000050554               0.000096389               0.999999998              -0.000057224               0.000103558               0.999999998              -0.000064357               0.000111185               0.999999998              -0.000071950               0.000119248               0.999999998              -0.000080018               0.000127351               0.999999998               0.000003271               0.000078394               0.999999998              -0.000004299               0.000070457               0.999999998              -0.000007981               0.000069161               0.999999998              -0.000010587               0.000071511               0.999999998              -0.000013172               0.000076073               0.999999998              -0.000016165               0.000082114               0.999999998              -0.000019712               0.000089221               0.999999998              -0.000023893               0.000097104               0.999999998              -0.000028666               0.000105633               0.999999998              -0.000034052               0.000114713               0.999999998              -0.000040011               0.000124184               0.999999998              -0.000046472               0.000134124               0.999999998              -0.000053437               0.000144553               0.999999998              -0.000060892               0.000155423               0.999999998              -0.000068878               0.000166817               0.999999998              -0.000077312               0.000178813               0.999999998              -0.000086099               0.000190978               0.999999998               0.000002785               0.000103372               0.999999998              -0.000002373               0.000092731               0.999999998              -0.000005056               0.000091352               0.999999998              -0.000007543               0.000094793               0.999999998              -0.000010494               0.000101124               0.999999998              -0.000014099               0.000109384               0.999999998              -0.000018440               0.000118894               0.999999998              -0.000023487               0.000129453               0.999999998              -0.000029251               0.000140860               0.999999998              -0.000035672               0.000152965               0.999999998              -0.000042635               0.000165619               0.999999998              -0.000050102               0.000178787               0.999999998              -0.000058083               0.000192714               0.999999998              -0.000066662               0.000207287               0.999999998              -0.000075707               0.000222364               0.999999998              -0.000085042               0.000237886               0.999999998              -0.000094597               0.000253695               0.999999998               0.000002308               0.000127362               0.999999998               0.000000053               0.000114198               0.999999998              -0.000001798               0.000112976               0.999999998              -0.000004417               0.000117653               0.999999998              -0.000007969               0.000125854               0.999999998              -0.000012479               0.000136272               0.999999998              -0.000017884               0.000148271               0.999999998              -0.000024151               0.000161528               0.999999998              -0.000031097               0.000175806               0.999999998              -0.000038627               0.000190894               0.999999998              -0.000046697               0.000206726               0.999999998              -0.000055348               0.000223263               0.999999998              -0.000064558               0.000240680               0.999999998              -0.000074209               0.000258822               0.999999998              -0.000084193               0.000277256               0.999999998              -0.000094345               0.000295836               0.999999998              -0.000104614               0.000314848               0.999999998               0.000001875               0.000150114               0.999999998               0.000002761               0.000134800               0.999999998               0.000001476               0.000133930               0.999999998              -0.000001569               0.000139984               0.999999998              -0.000006040               0.000150064               0.999999998              -0.000011713               0.000162729               0.999999998              -0.000018429               0.000177199               0.999999998              -0.000025936               0.000193185               0.999999998              -0.000034053               0.000210282               0.999999998              -0.000042730               0.000228369               0.999999998              -0.000052026               0.000247393               0.999999998              -0.000061854               0.000267332               0.999999998              -0.000072188               0.000288079               0.999999998              -0.000082791               0.000309655               0.999999998              -0.000093515               0.000331290               0.999999998              -0.000104389               0.000353076               0.999999998              -0.000115547               0.000375496               0.999999998               0.000001504               0.000171384               0.999999998               0.000005539               0.000154469               0.999999998               0.000004533               0.000154140               0.999999998               0.000000728               0.000161648               0.999999998              -0.000004887               0.000173602               0.999999998              -0.000011871               0.000188511               0.999999998              -0.000019843               0.000205502               0.999999998              -0.000028543               0.000224156               0.999999998              -0.000037828               0.000244093               0.999999998              -0.000047672               0.000265202               0.999999998              -0.000058053               0.000287547               0.999999998              -0.000068879               0.000310984               0.999999998              -0.000080084               0.000335395               0.999999998              -0.000091466               0.000360329               0.999999998              -0.000103011               0.000385356               0.999999998              -0.000114861               0.000410823               0.999999998              -0.000127140               0.000437078               0.999999998               0.000001101               0.000190807               0.999999998               0.000008276               0.000173223               0.999999998               0.000007076               0.000173519               0.999999998               0.000002278               0.000182392               0.999999998              -0.000004517               0.000196287               0.999999998              -0.000012811               0.000213444               0.999999998              -0.000021957               0.000232997               0.999999998              -0.000031762               0.000254362               0.999999998              -0.000042104               0.000277245               0.999999998              -0.000052960               0.000301641               0.999999998              -0.000064289               0.000327510               0.999999998              -0.000076085               0.000354639               0.999999998              -0.000088218               0.000382625               0.999999998              -0.000100465               0.000411130               0.999999998              -0.000112917               0.000440192               0.999999998              -0.000125789               0.000469933               0.999999998              -0.000138970               0.000500298               0.999999998               0.000000444               0.000208991               0.999999998               0.000009966               0.000192728               0.999999998               0.000009938               0.000191149               0.999999998               0.000006009               0.000197749               0.999999998              -0.000000003               0.000209338               0.999999998              -0.000007354               0.000224312               0.999999998              -0.000015602               0.000241760               0.999999998              -0.000024423               0.000261024               0.999999998              -0.000033570               0.000281816               0.999999998              -0.000042992               0.000303990               0.999999998              -0.000052922               0.000327580               0.999999998              -0.000063264               0.000352449               0.999999998              -0.000074089               0.000378429               0.999999998              -0.000084954               0.000405313               0.999999998              -0.000095747               0.000432882               0.999999998              -0.000106675               0.000461108               0.999999998              -0.000117755               0.000490148               0.999999998              -0.000000001               0.000225449               0.999999998               0.000010770               0.000211381               0.999999998               0.000011948               0.000208972               0.999999998               0.000009067               0.000213736               0.999999998               0.000004020               0.000223301               0.999999998              -0.000002251               0.000236267               0.999999998              -0.000009544               0.000251717               0.999999998              -0.000017299               0.000269095               0.999999998              -0.000025266               0.000287991               0.999999998              -0.000033483               0.000308204               0.999999998              -0.000042046               0.000329644               0.999999998              -0.000051024               0.000352376               0.999999998              -0.000060299               0.000376250               0.999999998              -0.000069687               0.000401267               0.999999998              -0.000078896               0.000427168               0.999999998              -0.000088018               0.000453789               0.999999998              -0.000097211               0.000481132               0.999999998              -0.000000307               0.000239812               0.999999998               0.000010705               0.000228685               0.999999998               0.000012818               0.000226228               0.999999998               0.000011015               0.000229806               0.999999998               0.000007109               0.000237744               0.999999998               0.000001923               0.000248943               0.999999998              -0.000004172               0.000262677               0.999999998              -0.000010844               0.000278351               0.999999998              -0.000017636               0.000295595               0.999999998              -0.000024634               0.000314109               0.999999998              -0.000031995               0.000333768               0.999999998              -0.000039564               0.000354587               0.999999998              -0.000047236               0.000376599               0.999999998              -0.000054880               0.000399824               0.999999998              -0.000062440               0.000424075               0.999999998              -0.000069691               0.000449184               0.999999998              -0.000076602               0.000474930               0.999999998              -0.000000459               0.000251840               0.999999998               0.000009774               0.000243984               0.999999998               0.000012392               0.000242118               0.999999998               0.000011557               0.000245110               0.999999998               0.000008768               0.000251914               0.999999998               0.000004737               0.000261659               0.999999998              -0.000000108               0.000273944               0.999999998              -0.000005538               0.000288136               0.999999998              -0.000011199               0.000303978               0.999999998              -0.000016978               0.000321103               0.999999998              -0.000023033               0.000339342               0.999999998              -0.000029263               0.000358657               0.999999998              -0.000035362               0.000379142               0.999999998              -0.000041217               0.000400782               0.999999998              -0.000046738               0.000423582               0.999999998              -0.000052076               0.000447297               0.999999998              -0.000056937               0.000471699               0.999999998              -0.000000457               0.000261387               0.999999998               0.000008056               0.000256634               0.999999998               0.000010672               0.000255745               0.999999998               0.000010547               0.000258615               0.999999998               0.000008711               0.000264717               0.999999998               0.000005856               0.000273533               0.999999998               0.000002218               0.000284627               0.999999998              -0.000001872               0.000297669               0.999999998              -0.000006321               0.000312355               0.999999998              -0.000010758               0.000328468               0.999999998              -0.000015338               0.000345791               0.999999998              -0.000020045               0.000364111               0.999999998              -0.000024640               0.000383499               0.999999998              -0.000028749               0.000404017               0.999999998              -0.000032536               0.000425621               0.999999998              -0.000035951               0.000448132               0.999999998              -0.000038602               0.000471470               0.999999998              -0.000000353               0.000268288               0.999999998               0.000005716               0.000266104               0.999999998               0.000007812               0.000266234               0.999999998               0.000008024               0.000269296               0.999999998               0.000007005               0.000275066               0.999999998               0.000005174               0.000283284               0.999999998               0.000002803               0.000293637               0.999999998               0.000000033               0.000305922               0.999999998              -0.000002977               0.000319872               0.999999998              -0.000006048               0.000335296               0.999999998              -0.000009081               0.000351962               0.999999998              -0.000012124               0.000369730               0.999999998              -0.000015209               0.000388528               0.999999998              -0.000017999               0.000408288               0.999999998              -0.000020328               0.000429080               0.999999998              -0.000022029               0.000450916               0.999999998              -0.000022907               0.000473593               0.999999998              -0.000000195               0.000272433               0.999999998               0.000002959               0.000271945               0.999999998               0.000004115               0.000272850               0.999999998               0.000004313               0.000276160               0.999999998               0.000003876               0.000281861               0.999999998               0.000003032               0.000289808               0.999999998               0.000001883               0.000299802               0.999999998               0.000000523               0.000311631               0.999999998              -0.000001040               0.000325089               0.999999998              -0.000002671               0.000340094               0.999999998              -0.000004127               0.000356405               0.999999998              -0.000005504               0.000373880               0.999999998              -0.000007201               0.000392369               0.999999998              -0.000008837               0.000411816               0.999999998              -0.000009675               0.000432252               0.999999998              -0.000010236               0.000453653               0.999999998              -0.000010492               0.000475943               0.999999998              -0.000000000               0.000273838               0.999999998              -0.000000000               0.000273933               0.999999998               0.000000000               0.000275116               0.999999998              -0.000000000               0.000278539               0.999999998               0.000000000               0.000284246               0.999999998               0.000000000               0.000292069               0.999999998              -0.000000000               0.000301925               0.999999998               0.000000000               0.000313659               0.999999998               0.000000000               0.000326982               0.999999998              -0.000000000               0.000341755               0.999999998              -0.000000000               0.000357990               0.999999998               0.000000000               0.000375441               0.999999998              -0.000000000               0.000393814               0.999999998              -0.000000000               0.000413279               0.999999998              -0.000000000               0.000433581               0.999999998               0.000000000               0.000454734               0.999999998               0.000000000               0.000476927               0.999999998               0.000003979               0.000000000               0.999999998              -0.000006825              -0.000000000               0.999999998              -0.000012240              -0.000000000               0.999999998              -0.000015442               0.000000000               0.999999998              -0.000017977               0.000000000               0.999999998              -0.000020425               0.000000000               0.999999998              -0.000023079               0.000000000               0.999999998              -0.000026175              -0.000000000               0.999999998              -0.000029722              -0.000000000               0.999999998              -0.000033732              -0.000000000               0.999999998              -0.000038254              -0.000000000               0.999999998              -0.000043293              -0.000000000               0.999999998              -0.000048798               0.000000000               0.999999998              -0.000054784               0.000000000               0.999999998              -0.000061254               0.000000000               0.999999998              -0.000068263              -0.000000000               0.999999998              -0.000075803               0.000000000               0.999999998               0.000003879              -0.000026419               0.999999998              -0.000006534              -0.000023840               0.999999998              -0.000011694              -0.000023289               0.999999998              -0.000014847              -0.000023963               0.999999998              -0.000017372              -0.000025416               0.999999998              -0.000019839              -0.000027323               0.999999998              -0.000022587              -0.000029623               0.999999998              -0.000025758              -0.000032276               0.999999998              -0.000029421              -0.000035093               0.999999998              -0.000033632              -0.000038141               0.999999998              -0.000038326              -0.000041294               0.999999998              -0.000043508              -0.000044651               0.999999998              -0.000049213              -0.000048142               0.999999998              -0.000055388              -0.000051763               0.999999998              -0.000062036              -0.000055572               0.999999998              -0.000069187              -0.000059657               0.999999998              -0.000076834              -0.000063619               0.999999998               0.000003626              -0.000052641               0.999999998              -0.000005707              -0.000047413               0.999999998              -0.000010253              -0.000046432               0.999999998              -0.000013143              -0.000047880               0.999999998              -0.000015642              -0.000050803               0.999999998              -0.000018287              -0.000054758               0.999999998              -0.000021299              -0.000059449               0.999999998              -0.000024832              -0.000064648               0.999999998              -0.000028941              -0.000070352               0.999999998              -0.000033568              -0.000076402               0.999999998              -0.000038698              -0.000082782               0.999999998              -0.000044375              -0.000089400               0.999999998              -0.000050554              -0.000096389               0.999999998              -0.000057224              -0.000103558               0.999999998              -0.000064357              -0.000111185               0.999999998              -0.000071950              -0.000119248               0.999999998              -0.000080018              -0.000127351               0.999999998               0.000003271              -0.000078394               0.999999998              -0.000004299              -0.000070457               0.999999998              -0.000007981              -0.000069161               0.999999998              -0.000010587              -0.000071511               0.999999998              -0.000013172              -0.000076073               0.999999998              -0.000016165              -0.000082114               0.999999998              -0.000019712              -0.000089221               0.999999998              -0.000023893              -0.000097104               0.999999998              -0.000028666              -0.000105633               0.999999998              -0.000034052              -0.000114713               0.999999998              -0.000040011              -0.000124184               0.999999998              -0.000046472              -0.000134124               0.999999998              -0.000053437              -0.000144553               0.999999998              -0.000060892              -0.000155423               0.999999998              -0.000068878              -0.000166817               0.999999998              -0.000077312              -0.000178813               0.999999998              -0.000086099              -0.000190978               0.999999998               0.000002785              -0.000103372               0.999999998              -0.000002373              -0.000092731               0.999999998              -0.000005056              -0.000091352               0.999999998              -0.000007543              -0.000094793               0.999999998              -0.000010494              -0.000101124               0.999999998              -0.000014099              -0.000109384               0.999999998              -0.000018440              -0.000118894               0.999999998              -0.000023487              -0.000129453               0.999999998              -0.000029251              -0.000140860               0.999999998              -0.000035672              -0.000152965               0.999999998              -0.000042635              -0.000165619               0.999999998              -0.000050102              -0.000178787               0.999999998              -0.000058083              -0.000192714               0.999999998              -0.000066662              -0.000207287               0.999999998              -0.000075707              -0.000222364               0.999999998              -0.000085042              -0.000237886               0.999999998              -0.000094597              -0.000253695               0.999999998               0.000002308              -0.000127362               0.999999998               0.000000053              -0.000114198               0.999999998              -0.000001798              -0.000112976               0.999999998              -0.000004417              -0.000117653               0.999999998              -0.000007969              -0.000125854               0.999999998              -0.000012479              -0.000136272               0.999999998              -0.000017884              -0.000148271               0.999999998              -0.000024151              -0.000161528               0.999999998              -0.000031097              -0.000175806               0.999999998              -0.000038627              -0.000190894               0.999999998              -0.000046697              -0.000206726               0.999999998              -0.000055348              -0.000223263               0.999999998              -0.000064558              -0.000240680               0.999999998              -0.000074209              -0.000258822               0.999999998              -0.000084193              -0.000277256               0.999999998              -0.000094345              -0.000295836               0.999999998              -0.000104614              -0.000314848               0.999999998               0.000001875              -0.000150114               0.999999998               0.000002761              -0.000134800               0.999999998               0.000001476              -0.000133930               0.999999998              -0.000001569              -0.000139984               0.999999998              -0.000006040              -0.000150064               0.999999998              -0.000011713              -0.000162729               0.999999998              -0.000018429              -0.000177199               0.999999998              -0.000025936              -0.000193185               0.999999998              -0.000034053              -0.000210282               0.999999998              -0.000042730              -0.000228369               0.999999998              -0.000052026              -0.000247393               0.999999998              -0.000061854              -0.000267332               0.999999998              -0.000072188              -0.000288079               0.999999998              -0.000082791              -0.000309655               0.999999998              -0.000093515              -0.000331290               0.999999998              -0.000104389              -0.000353076               0.999999998              -0.000115547              -0.000375496               0.999999998               0.000001504              -0.000171384               0.999999998               0.000005539              -0.000154469               0.999999998               0.000004533              -0.000154140               0.999999998               0.000000728              -0.000161648               0.999999998              -0.000004887              -0.000173602               0.999999998              -0.000011871              -0.000188511               0.999999998              -0.000019843              -0.000205502               0.999999998              -0.000028543              -0.000224156               0.999999998              -0.000037828              -0.000244093               0.999999998              -0.000047672              -0.000265202               0.999999998              -0.000058053              -0.000287547               0.999999998              -0.000068879              -0.000310984               0.999999998              -0.000080084              -0.000335395               0.999999998              -0.000091466              -0.000360329               0.999999998              -0.000103011              -0.000385356               0.999999998              -0.000114861              -0.000410823               0.999999998              -0.000127140              -0.000437078               0.999999998               0.000001101              -0.000190807               0.999999998               0.000008276              -0.000173223               0.999999998               0.000007076              -0.000173519               0.999999998               0.000002278              -0.000182392               0.999999998              -0.000004517              -0.000196287               0.999999998              -0.000012811              -0.000213444               0.999999998              -0.000021957              -0.000232997               0.999999998              -0.000031762              -0.000254362               0.999999998              -0.000042104              -0.000277245               0.999999998              -0.000052960              -0.000301641               0.999999998              -0.000064289              -0.000327510               0.999999998              -0.000076085              -0.000354639               0.999999998              -0.000088218              -0.000382625               0.999999998              -0.000100465              -0.000411130               0.999999998              -0.000112917              -0.000440192               0.999999998              -0.000125789              -0.000469933               0.999999998              -0.000138970              -0.000500298               0.999999998               0.000000444              -0.000208991               0.999999998               0.000009966              -0.000192728               0.999999998               0.000009938              -0.000191149               0.999999998               0.000006009              -0.000197749               0.999999998              -0.000000003              -0.000209338               0.999999998              -0.000007354              -0.000224312               0.999999998              -0.000015602              -0.000241760               0.999999998              -0.000024423              -0.000261024               0.999999998              -0.000033570              -0.000281816               0.999999998              -0.000042992              -0.000303990               0.999999998              -0.000052922              -0.000327580               0.999999998              -0.000063264              -0.000352449               0.999999998              -0.000074089              -0.000378429               0.999999998              -0.000084954              -0.000405313               0.999999998              -0.000095747              -0.000432882               0.999999998              -0.000106675              -0.000461108               0.999999998              -0.000117755              -0.000490148               0.999999998              -0.000000001              -0.000225449               0.999999998               0.000010770              -0.000211381               0.999999998               0.000011948              -0.000208972               0.999999998               0.000009067              -0.000213736               0.999999998               0.000004020              -0.000223301               0.999999998              -0.000002251              -0.000236267               0.999999998              -0.000009544              -0.000251717               0.999999998              -0.000017299              -0.000269095               0.999999998              -0.000025266              -0.000287991               0.999999998              -0.000033483              -0.000308204               0.999999998              -0.000042046              -0.000329644               0.999999998              -0.000051024              -0.000352376               0.999999998              -0.000060299              -0.000376250               0.999999998              -0.000069687              -0.000401267               0.999999998              -0.000078896              -0.000427168               0.999999998              -0.000088018              -0.000453789               0.999999998              -0.000097211              -0.000481132               0.999999998              -0.000000307              -0.000239812               0.999999998               0.000010705              -0.000228685               0.999999998               0.000012818              -0.000226228               0.999999998               0.000011015              -0.000229806               0.999999998               0.000007109              -0.000237744               0.999999998               0.000001923              -0.000248943               0.999999998              -0.000004172              -0.000262677               0.999999998              -0.000010844              -0.000278351               0.999999998              -0.000017636              -0.000295595               0.999999998              -0.000024634              -0.000314109               0.999999998              -0.000031995              -0.000333768               0.999999998              -0.000039564              -0.000354587               0.999999998              -0.000047236              -0.000376599               0.999999998              -0.000054880              -0.000399824               0.999999998              -0.000062440              -0.000424075               0.999999998              -0.000069691              -0.000449184               0.999999998              -0.000076602              -0.000474930               0.999999998              -0.000000459              -0.000251840               0.999999998               0.000009774              -0.000243984               0.999999998               0.000012392              -0.000242118               0.999999998               0.000011557              -0.000245110               0.999999998               0.000008768              -0.000251914               0.999999998               0.000004737              -0.000261659               0.999999998              -0.000000108              -0.000273944               0.999999998              -0.000005538              -0.000288136               0.999999998              -0.000011199              -0.000303978               0.999999998              -0.000016978              -0.000321103               0.999999998              -0.000023033              -0.000339342               0.999999998              -0.000029263              -0.000358657               0.999999998              -0.000035362              -0.000379142               0.999999998              -0.000041217              -0.000400782               0.999999998              -0.000046738              -0.000423582               0.999999998              -0.000052076              -0.000447297               0.999999998              -0.000056937              -0.000471699               0.999999998              -0.000000457              -0.000261387               0.999999998               0.000008056              -0.000256634               0.999999998               0.000010672              -0.000255745               0.999999998               0.000010547              -0.000258615               0.999999998               0.000008711              -0.000264717               0.999999998               0.000005856              -0.000273533               0.999999998               0.000002218              -0.000284627               0.999999998              -0.000001872              -0.000297669               0.999999998              -0.000006321              -0.000312355               0.999999998              -0.000010758              -0.000328468               0.999999998              -0.000015338              -0.000345791               0.999999998              -0.000020045              -0.000364111               0.999999998              -0.000024640              -0.000383499               0.999999998              -0.000028749              -0.000404017               0.999999998              -0.000032536              -0.000425621               0.999999998              -0.000035951              -0.000448132               0.999999998              -0.000038602              -0.000471470               0.999999998              -0.000000353              -0.000268288               0.999999998               0.000005716              -0.000266104               0.999999998               0.000007812              -0.000266234               0.999999998               0.000008024              -0.000269296               0.999999998               0.000007005              -0.000275066               0.999999998               0.000005174              -0.000283284               0.999999998               0.000002803              -0.000293637               0.999999998               0.000000033              -0.000305922               0.999999998              -0.000002977              -0.000319872               0.999999998              -0.000006048              -0.000335296               0.999999998              -0.000009081              -0.000351962               0.999999998              -0.000012124              -0.000369730               0.999999998              -0.000015209              -0.000388528               0.999999998              -0.000017999              -0.000408288               0.999999998              -0.000020328              -0.000429080               0.999999998              -0.000022029              -0.000450916               0.999999998              -0.000022907              -0.000473593               0.999999998              -0.000000195              -0.000272433               0.999999998               0.000002959              -0.000271945               0.999999998               0.000004115              -0.000272850               0.999999998               0.000004313              -0.000276160               0.999999998               0.000003876              -0.000281861               0.999999998               0.000003032              -0.000289808               0.999999998               0.000001883              -0.000299802               0.999999998               0.000000523              -0.000311631               0.999999998              -0.000001040              -0.000325089               0.999999998              -0.000002671              -0.000340094               0.999999998              -0.000004127              -0.000356405               0.999999998              -0.000005504              -0.000373880               0.999999998              -0.000007201              -0.000392369               0.999999998              -0.000008837              -0.000411816               0.999999998              -0.000009675              -0.000432252               0.999999998              -0.000010236              -0.000453653               0.999999998              -0.000010492              -0.000475943               0.999999998              -0.000000000              -0.000273838               0.999999998               0.000000000              -0.000273933               0.999999998               0.000000000              -0.000275116               0.999999998               0.000000000              -0.000278539               0.999999998              -0.000000000              -0.000284246               0.999999998              -0.000000000              -0.000292069               0.999999998              -0.000000000              -0.000301925               0.999999998              -0.000000000              -0.000313659               0.999999998              -0.000000000              -0.000326982               0.999999998              -0.000000000              -0.000341755               0.999999998              -0.000000000              -0.000357990               0.999999998              -0.000000000              -0.000375441               0.999999998              -0.000000000              -0.000393814               0.999999998               0.000000000              -0.000413279               0.999999998               0.000000000              -0.000433581               0.999999998               0.000000000              -0.000454734               0.999999998              -0.000000000              -0.000476927               0.999999998              -0.000003979              -0.000000000               0.999999998               0.000006825              -0.000000000               0.999999998               0.000012240               0.000000000               0.999999998               0.000015442               0.000000000               0.999999998               0.000017977               0.000000000               0.999999998               0.000020425               0.000000000               0.999999998               0.000023079               0.000000000               0.999999998               0.000026175               0.000000000               0.999999998               0.000029722               0.000000000               0.999999998               0.000033732               0.000000000               0.999999998               0.000038254               0.000000000               0.999999998               0.000043293               0.000000000               0.999999998               0.000048798               0.000000000               0.999999998               0.000054784              -0.000000000               0.999999998               0.000061254               0.000000000               0.999999998               0.000068263               0.000000000               0.999999998               0.000075803               0.000000000               0.999999998              -0.000003879              -0.000026419               0.999999998               0.000006534              -0.000023840               0.999999998               0.000011694              -0.000023289               0.999999998               0.000014847              -0.000023963               0.999999998               0.000017372              -0.000025416               0.999999998               0.000019839              -0.000027323               0.999999998               0.000022587              -0.000029623               0.999999998               0.000025758              -0.000032276               0.999999998               0.000029421              -0.000035093               0.999999998               0.000033632              -0.000038141               0.999999998               0.000038326              -0.000041294               0.999999998               0.000043508              -0.000044651               0.999999998               0.000049213              -0.000048142               0.999999998               0.000055388              -0.000051763               0.999999998               0.000062036              -0.000055572               0.999999998               0.000069187              -0.000059657               0.999999998               0.000076834              -0.000063619               0.999999998              -0.000003626              -0.000052641               0.999999998               0.000005707              -0.000047413               0.999999998               0.000010253              -0.000046432               0.999999998               0.000013143              -0.000047880               0.999999998               0.000015642              -0.000050803               0.999999998               0.000018287              -0.000054758               0.999999998               0.000021299              -0.000059449               0.999999998               0.000024832              -0.000064648               0.999999998               0.000028941              -0.000070352               0.999999998               0.000033568              -0.000076402               0.999999998               0.000038698              -0.000082782               0.999999998               0.000044375              -0.000089400               0.999999998               0.000050554              -0.000096389               0.999999998               0.000057224              -0.000103558               0.999999998               0.000064357              -0.000111185               0.999999998               0.000071950              -0.000119248               0.999999998               0.000080018              -0.000127351               0.999999998              -0.000003271              -0.000078394               0.999999998               0.000004299              -0.000070457               0.999999998               0.000007981              -0.000069161               0.999999998               0.000010587              -0.000071511               0.999999998               0.000013172              -0.000076073               0.999999998               0.000016165              -0.000082114               0.999999998               0.000019712              -0.000089221               0.999999998               0.000023893              -0.000097104               0.999999998               0.000028666              -0.000105633               0.999999998               0.000034052              -0.000114713               0.999999998               0.000040011              -0.000124184               0.999999998               0.000046472              -0.000134124               0.999999998               0.000053437              -0.000144553               0.999999998               0.000060892              -0.000155423               0.999999998               0.000068878              -0.000166817               0.999999998               0.000077312              -0.000178813               0.999999998               0.000086099              -0.000190978               0.999999998              -0.000002785              -0.000103372               0.999999998               0.000002373              -0.000092731               0.999999998               0.000005056              -0.000091352               0.999999998               0.000007543              -0.000094793               0.999999998               0.000010494              -0.000101124               0.999999998               0.000014099              -0.000109384               0.999999998               0.000018440              -0.000118894               0.999999998               0.000023487              -0.000129453               0.999999998               0.000029251              -0.000140860               0.999999998               0.000035672              -0.000152965               0.999999998               0.000042635              -0.000165619               0.999999998               0.000050102              -0.000178787               0.999999998               0.000058083              -0.000192714               0.999999998               0.000066662              -0.000207287               0.999999998               0.000075707              -0.000222364               0.999999998               0.000085042              -0.000237886               0.999999998               0.000094597              -0.000253695               0.999999998              -0.000002308              -0.000127362               0.999999998              -0.000000053              -0.000114198               0.999999998               0.000001798              -0.000112976               0.999999998               0.000004417              -0.000117653               0.999999998               0.000007969              -0.000125854               0.999999998               0.000012479              -0.000136272               0.999999998               0.000017884              -0.000148271               0.999999998               0.000024151              -0.000161528               0.999999998               0.000031097              -0.000175806               0.999999998               0.000038627              -0.000190894               0.999999998               0.000046697              -0.000206726               0.999999998               0.000055348              -0.000223263               0.999999998               0.000064558              -0.000240680               0.999999998               0.000074209              -0.000258822               0.999999998               0.000084193              -0.000277256               0.999999998               0.000094345              -0.000295836               0.999999998               0.000104614              -0.000314848               0.999999998              -0.000001875              -0.000150114               0.999999998              -0.000002761              -0.000134800               0.999999998              -0.000001476              -0.000133930               0.999999998               0.000001569              -0.000139984               0.999999998               0.000006040              -0.000150064               0.999999998               0.000011713              -0.000162729               0.999999998               0.000018429              -0.000177199               0.999999998               0.000025936              -0.000193185               0.999999998               0.000034053              -0.000210282               0.999999998               0.000042730              -0.000228369               0.999999998               0.000052026              -0.000247393               0.999999998               0.000061854              -0.000267332               0.999999998               0.000072188              -0.000288079               0.999999998               0.000082791              -0.000309655               0.999999998               0.000093515              -0.000331290               0.999999998               0.000104389              -0.000353076               0.999999998               0.000115547              -0.000375496               0.999999998              -0.000001504              -0.000171384               0.999999998              -0.000005539              -0.000154469               0.999999998              -0.000004533              -0.000154140               0.999999998              -0.000000728              -0.000161648               0.999999998               0.000004887              -0.000173602               0.999999998               0.000011871              -0.000188511               0.999999998               0.000019843              -0.000205502               0.999999998               0.000028543              -0.000224156               0.999999998               0.000037828              -0.000244093               0.999999998               0.000047672              -0.000265202               0.999999998               0.000058053              -0.000287547               0.999999998               0.000068879              -0.000310984               0.999999998               0.000080084              -0.000335395               0.999999998               0.000091466              -0.000360329               0.999999998               0.000103011              -0.000385356               0.999999998               0.000114861              -0.000410823               0.999999998               0.000127140              -0.000437078               0.999999998              -0.000001101              -0.000190807               0.999999998              -0.000008276              -0.000173223               0.999999998              -0.000007076              -0.000173519               0.999999998              -0.000002278              -0.000182392               0.999999998               0.000004517              -0.000196287               0.999999998               0.000012811              -0.000213444               0.999999998               0.000021957              -0.000232997               0.999999998               0.000031762              -0.000254362               0.999999998               0.000042104              -0.000277245               0.999999998               0.000052960              -0.000301641               0.999999998               0.000064289              -0.000327510               0.999999998               0.000076085              -0.000354639               0.999999998               0.000088218              -0.000382625               0.999999998               0.000100465              -0.000411130               0.999999998               0.000112917              -0.000440192               0.999999998               0.000125789              -0.000469933               0.999999998               0.000138970              -0.000500298               0.999999998              -0.000000444              -0.000208991               0.999999998              -0.000009966              -0.000192728               0.999999998              -0.000009938              -0.000191149               0.999999998              -0.000006009              -0.000197749               0.999999998               0.000000003              -0.000209338               0.999999998               0.000007354              -0.000224312               0.999999998               0.000015602              -0.000241760               0.999999998               0.000024423              -0.000261024               0.999999998               0.000033570              -0.000281816               0.999999998               0.000042992              -0.000303990               0.999999998               0.000052922              -0.000327580               0.999999998               0.000063264              -0.000352449               0.999999998               0.000074089              -0.000378429               0.999999998               0.000084954              -0.000405313               0.999999998               0.000095747              -0.000432882               0.999999998               0.000106675              -0.000461108               0.999999998               0.000117755              -0.000490148               0.999999998               0.000000001              -0.000225449               0.999999998              -0.000010770              -0.000211381               0.999999998              -0.000011948              -0.000208972               0.999999998              -0.000009067              -0.000213736               0.999999998              -0.000004020              -0.000223301               0.999999998               0.000002251              -0.000236267               0.999999998               0.000009544              -0.000251717               0.999999998               0.000017299              -0.000269095               0.999999998               0.000025266              -0.000287991               0.999999998               0.000033483              -0.000308204               0.999999998               0.000042046              -0.000329644               0.999999998               0.000051024              -0.000352376               0.999999998               0.000060299              -0.000376250               0.999999998               0.000069687              -0.000401267               0.999999998               0.000078896              -0.000427168               0.999999998               0.000088018              -0.000453789               0.999999998               0.000097211              -0.000481132               0.999999998               0.000000307              -0.000239812               0.999999998              -0.000010705              -0.000228685               0.999999998              -0.000012818              -0.000226228               0.999999998              -0.000011015              -0.000229806               0.999999998              -0.000007109              -0.000237744               0.999999998              -0.000001923              -0.000248943               0.999999998               0.000004172              -0.000262677               0.999999998               0.000010844              -0.000278351               0.999999998               0.000017636              -0.000295595               0.999999998               0.000024634              -0.000314109               0.999999998               0.000031995              -0.000333768               0.999999998               0.000039564              -0.000354587               0.999999998               0.000047236              -0.000376599               0.999999998               0.000054880              -0.000399824               0.999999998               0.000062440              -0.000424075               0.999999998               0.000069691              -0.000449184               0.999999998               0.000076602              -0.000474930               0.999999998               0.000000459              -0.000251840               0.999999998              -0.000009774              -0.000243984               0.999999998              -0.000012392              -0.000242118               0.999999998              -0.000011557              -0.000245110               0.999999998              -0.000008768              -0.000251914               0.999999998              -0.000004737              -0.000261659               0.999999998               0.000000108              -0.000273944               0.999999998               0.000005538              -0.000288136               0.999999998               0.000011199              -0.000303978               0.999999998               0.000016978              -0.000321103               0.999999998               0.000023033              -0.000339342               0.999999998               0.000029263              -0.000358657               0.999999998               0.000035362              -0.000379142               0.999999998               0.000041217              -0.000400782               0.999999998               0.000046738              -0.000423582               0.999999998               0.000052076              -0.000447297               0.999999998               0.000056937              -0.000471699               0.999999998               0.000000457              -0.000261387               0.999999998              -0.000008056              -0.000256634               0.999999998              -0.000010672              -0.000255745               0.999999998              -0.000010547              -0.000258615               0.999999998              -0.000008711              -0.000264717               0.999999998              -0.000005856              -0.000273533               0.999999998              -0.000002218              -0.000284627               0.999999998               0.000001872              -0.000297669               0.999999998               0.000006321              -0.000312355               0.999999998               0.000010758              -0.000328468               0.999999998               0.000015338              -0.000345791               0.999999998               0.000020045              -0.000364111               0.999999998               0.000024640              -0.000383499               0.999999998               0.000028749              -0.000404017               0.999999998               0.000032536              -0.000425621               0.999999998               0.000035951              -0.000448132               0.999999998               0.000038602              -0.000471470               0.999999998               0.000000353              -0.000268288               0.999999998              -0.000005716              -0.000266104               0.999999998              -0.000007812              -0.000266234               0.999999998              -0.000008024              -0.000269296               0.999999998              -0.000007005              -0.000275066               0.999999998              -0.000005174              -0.000283284               0.999999998              -0.000002803              -0.000293637               0.999999998              -0.000000033              -0.000305922               0.999999998               0.000002977              -0.000319872               0.999999998               0.000006048              -0.000335296               0.999999998               0.000009081              -0.000351962               0.999999998               0.000012124              -0.000369730               0.999999998               0.000015209              -0.000388528               0.999999998               0.000017999              -0.000408288               0.999999998               0.000020328              -0.000429080               0.999999998               0.000022029              -0.000450916               0.999999998               0.000022907              -0.000473593               0.999999998               0.000000195              -0.000272433               0.999999998              -0.000002959              -0.000271945               0.999999998              -0.000004115              -0.000272850               0.999999998              -0.000004313              -0.000276160               0.999999998              -0.000003876              -0.000281861               0.999999998              -0.000003032              -0.000289808               0.999999998              -0.000001883              -0.000299802               0.999999998              -0.000000523              -0.000311631               0.999999998               0.000001040              -0.000325089               0.999999998               0.000002671              -0.000340094               0.999999998               0.000004127              -0.000356405               0.999999998               0.000005504              -0.000373880               0.999999998               0.000007201              -0.000392369               0.999999998               0.000008837              -0.000411816               0.999999998               0.000009675              -0.000432252               0.999999998               0.000010236              -0.000453653               0.999999998               0.000010492              -0.000475943               0.999999998              -0.000000000              -0.000273838               0.999999998               0.000000000              -0.000273933               0.999999998               0.000000000              -0.000275116               0.999999998               0.000000000              -0.000278539               0.999999998              -0.000000000              -0.000284246               0.999999998              -0.000000000              -0.000292069               0.999999998              -0.000000000              -0.000301925               0.999999998              -0.000000000              -0.000313659               0.999999998              -0.000000000              -0.000326982               0.999999998              -0.000000000              -0.000341755               0.999999998              -0.000000000              -0.000357990               0.999999998              -0.000000000              -0.000375441               0.999999998              -0.000000000              -0.000393814               0.999999998               0.000000000              -0.000413279               0.999999998               0.000000000              -0.000433581               0.999999998               0.000000000              -0.000454734               0.999999998              -0.000000000              -0.000476927               0.999999998              -0.000003979              -0.000000000               0.999999998               0.000006825              -0.000000000               0.999999998               0.000012240               0.000000000               0.999999998               0.000015442               0.000000000               0.999999998               0.000017977               0.000000000               0.999999998               0.000020425               0.000000000               0.999999998               0.000023079               0.000000000               0.999999998               0.000026175               0.000000000               0.999999998               0.000029722               0.000000000               0.999999998               0.000033732               0.000000000               0.999999998               0.000038254               0.000000000               0.999999998               0.000043293               0.000000000               0.999999998               0.000048798               0.000000000               0.999999998               0.000054784              -0.000000000               0.999999998               0.000061254               0.000000000               0.999999998               0.000068263               0.000000000               0.999999998               0.000075803               0.000000000               0.999999998              -0.000003879               0.000026419               0.999999998               0.000006534               0.000023840               0.999999998               0.000011694               0.000023289               0.999999998               0.000014847               0.000023963               0.999999998               0.000017372               0.000025416               0.999999998               0.000019839               0.000027323               0.999999998               0.000022587               0.000029623               0.999999998               0.000025758               0.000032276               0.999999998               0.000029421               0.000035093               0.999999998               0.000033632               0.000038141               0.999999998               0.000038326               0.000041294               0.999999998               0.000043508               0.000044651               0.999999998               0.000049213               0.000048142               0.999999998               0.000055388               0.000051763               0.999999998               0.000062036               0.000055572               0.999999998               0.000069187               0.000059657               0.999999998               0.000076834               0.000063619               0.999999998              -0.000003626               0.000052641               0.999999998               0.000005707               0.000047413               0.999999998               0.000010253               0.000046432               0.999999998               0.000013143               0.000047880               0.999999998               0.000015642               0.000050803               0.999999998               0.000018287               0.000054758               0.999999998               0.000021299               0.000059449               0.999999998               0.000024832               0.000064648               0.999999998               0.000028941               0.000070352               0.999999998               0.000033568               0.000076402               0.999999998               0.000038698               0.000082782               0.999999998               0.000044375               0.000089400               0.999999998               0.000050554               0.000096389               0.999999998               0.000057224               0.000103558               0.999999998               0.000064357               0.000111185               0.999999998               0.000071950               0.000119248               0.999999998               0.000080018               0.000127351               0.999999998              -0.000003271               0.000078394               0.999999998               0.000004299               0.000070457               0.999999998               0.000007981               0.000069161               0.999999998               0.000010587               0.000071511               0.999999998               0.000013172               0.000076073               0.999999998               0.000016165               0.000082114               0.999999998               0.000019712               0.000089221               0.999999998               0.000023893               0.000097104               0.999999998               0.000028666               0.000105633               0.999999998               0.000034052               0.000114713               0.999999998               0.000040011               0.000124184               0.999999998               0.000046472               0.000134124               0.999999998               0.000053437               0.000144553               0.999999998               0.000060892               0.000155423               0.999999998               0.000068878               0.000166817               0.999999998               0.000077312               0.000178813               0.999999998               0.000086099               0.000190978               0.999999998              -0.000002785               0.000103372               0.999999998               0.000002373               0.000092731               0.999999998               0.000005056               0.000091352               0.999999998               0.000007543               0.000094793               0.999999998               0.000010494               0.000101124               0.999999998               0.000014099               0.000109384               0.999999998               0.000018440               0.000118894               0.999999998               0.000023487               0.000129453               0.999999998               0.000029251               0.000140860               0.999999998               0.000035672               0.000152965               0.999999998               0.000042635               0.000165619               0.999999998               0.000050102               0.000178787               0.999999998               0.000058083               0.000192714               0.999999998               0.000066662               0.000207287               0.999999998               0.000075707               0.000222364               0.999999998               0.000085042               0.000237886               0.999999998               0.000094597               0.000253695               0.999999998              -0.000002308               0.000127362               0.999999998              -0.000000053               0.000114198               0.999999998               0.000001798               0.000112976               0.999999998               0.000004417               0.000117653               0.999999998               0.000007969               0.000125854               0.999999998               0.000012479               0.000136272               0.999999998               0.000017884               0.000148271               0.999999998               0.000024151               0.000161528               0.999999998               0.000031097               0.000175806               0.999999998               0.000038627               0.000190894               0.999999998               0.000046697               0.000206726               0.999999998               0.000055348               0.000223263               0.999999998               0.000064558               0.000240680               0.999999998               0.000074209               0.000258822               0.999999998               0.000084193               0.000277256               0.999999998               0.000094345               0.000295836               0.999999998               0.000104614               0.000314848               0.999999998              -0.000001875               0.000150114               0.999999998              -0.000002761               0.000134800               0.999999998              -0.000001476               0.000133930               0.999999998               0.000001569               0.000139984               0.999999998               0.000006040               0.000150064               0.999999998               0.000011713               0.000162729               0.999999998               0.000018429               0.000177199               0.999999998               0.000025936               0.000193185               0.999999998               0.000034053               0.000210282               0.999999998               0.000042730               0.000228369               0.999999998               0.000052026               0.000247393               0.999999998               0.000061854               0.000267332               0.999999998               0.000072188               0.000288079               0.999999998               0.000082791               0.000309655               0.999999998               0.000093515               0.000331290               0.999999998               0.000104389               0.000353076               0.999999998               0.000115547               0.000375496               0.999999998              -0.000001504               0.000171384               0.999999998              -0.000005539               0.000154469               0.999999998              -0.000004533               0.000154140               0.999999998              -0.000000728               0.000161648               0.999999998               0.000004887               0.000173602               0.999999998               0.000011871               0.000188511               0.999999998               0.000019843               0.000205502               0.999999998               0.000028543               0.000224156               0.999999998               0.000037828               0.000244093               0.999999998               0.000047672               0.000265202               0.999999998               0.000058053               0.000287547               0.999999998               0.000068879               0.000310984               0.999999998               0.000080084               0.000335395               0.999999998               0.000091466               0.000360329               0.999999998               0.000103011               0.000385356               0.999999998               0.000114861               0.000410823               0.999999998               0.000127140               0.000437078               0.999999998              -0.000001101               0.000190807               0.999999998              -0.000008276               0.000173223               0.999999998              -0.000007076               0.000173519               0.999999998              -0.000002278               0.000182392               0.999999998               0.000004517               0.000196287               0.999999998               0.000012811               0.000213444               0.999999998               0.000021957               0.000232997               0.999999998               0.000031762               0.000254362               0.999999998               0.000042104               0.000277245               0.999999998               0.000052960               0.000301641               0.999999998               0.000064289               0.000327510               0.999999998               0.000076085               0.000354639               0.999999998               0.000088218               0.000382625               0.999999998               0.000100465               0.000411130               0.999999998               0.000112917               0.000440192               0.999999998               0.000125789               0.000469933               0.999999998               0.000138970               0.000500298               0.999999998              -0.000000444               0.000208991               0.999999998              -0.000009966               0.000192728               0.999999998              -0.000009938               0.000191149               0.999999998              -0.000006009               0.000197749               0.999999998               0.000000003               0.000209338               0.999999998               0.000007354               0.000224312               0.999999998               0.000015602               0.000241760               0.999999998               0.000024423               0.000261024               0.999999998               0.000033570               0.000281816               0.999999998               0.000042992               0.000303990               0.999999998               0.000052922               0.000327580               0.999999998               0.000063264               0.000352449               0.999999998               0.000074089               0.000378429               0.999999998               0.000084954               0.000405313               0.999999998               0.000095747               0.000432882               0.999999998               0.000106675               0.000461108               0.999999998               0.000117755               0.000490148               0.999999998               0.000000001               0.000225449               0.999999998              -0.000010770               0.000211381               0.999999998              -0.000011948               0.000208972               0.999999998              -0.000009067               0.000213736               0.999999998              -0.000004020               0.000223301               0.999999998               0.000002251               0.000236267               0.999999998               0.000009544               0.000251717               0.999999998               0.000017299               0.000269095               0.999999998               0.000025266               0.000287991               0.999999998               0.000033483               0.000308204               0.999999998               0.000042046               0.000329644               0.999999998               0.000051024               0.000352376               0.999999998               0.000060299               0.000376250               0.999999998               0.000069687               0.000401267               0.999999998               0.000078896               0.000427168               0.999999998               0.000088018               0.000453789               0.999999998               0.000097211               0.000481132               0.999999998               0.000000307               0.000239812               0.999999998              -0.000010705               0.000228685               0.999999998              -0.000012818               0.000226228               0.999999998              -0.000011015               0.000229806               0.999999998              -0.000007109               0.000237744               0.999999998              -0.000001923               0.000248943               0.999999998               0.000004172               0.000262677               0.999999998               0.000010844               0.000278351               0.999999998               0.000017636               0.000295595               0.999999998               0.000024634               0.000314109               0.999999998               0.000031995               0.000333768               0.999999998               0.000039564               0.000354587               0.999999998               0.000047236               0.000376599               0.999999998               0.000054880               0.000399824               0.999999998               0.000062440               0.000424075               0.999999998               0.000069691               0.000449184               0.999999998               0.000076602               0.000474930               0.999999998               0.000000459               0.000251840               0.999999998              -0.000009774               0.000243984               0.999999998              -0.000012392               0.000242118               0.999999998              -0.000011557               0.000245110               0.999999998              -0.000008768               0.000251914               0.999999998              -0.000004737               0.000261659               0.999999998               0.000000108               0.000273944               0.999999998               0.000005538               0.000288136               0.999999998               0.000011199               0.000303978               0.999999998               0.000016978               0.000321103               0.999999998               0.000023033               0.000339342               0.999999998               0.000029263               0.000358657               0.999999998               0.000035362               0.000379142               0.999999998               0.000041217               0.000400782               0.999999998               0.000046738               0.000423582               0.999999998               0.000052076               0.000447297               0.999999998               0.000056937               0.000471699               0.999999998               0.000000457               0.000261387               0.999999998              -0.000008056               0.000256634               0.999999998              -0.000010672               0.000255745               0.999999998              -0.000010547               0.000258615               0.999999998              -0.000008711               0.000264717               0.999999998              -0.000005856               0.000273533               0.999999998              -0.000002218               0.000284627               0.999999998               0.000001872               0.000297669               0.999999998               0.000006321               0.000312355               0.999999998               0.000010758               0.000328468               0.999999998               0.000015338               0.000345791               0.999999998               0.000020045               0.000364111               0.999999998               0.000024640               0.000383499               0.999999998               0.000028749               0.000404017               0.999999998               0.000032536               0.000425621               0.999999998               0.000035951               0.000448132               0.999999998               0.000038602               0.000471470               0.999999998               0.000000353               0.000268288               0.999999998              -0.000005716               0.000266104               0.999999998              -0.000007812               0.000266234               0.999999998              -0.000008024               0.000269296               0.999999998              -0.000007005               0.000275066               0.999999998              -0.000005174               0.000283284               0.999999998              -0.000002803               0.000293637               0.999999998              -0.000000033               0.000305922               0.999999998               0.000002977               0.000319872               0.999999998               0.000006048               0.000335296               0.999999998               0.000009081               0.000351962               0.999999998               0.000012124               0.000369730               0.999999998               0.000015209               0.000388528               0.999999998               0.000017999               0.000408288               0.999999998               0.000020328               0.000429080               0.999999998               0.000022029               0.000450916               0.999999998               0.000022907               0.000473593               0.999999998               0.000000195               0.000272433               0.999999998              -0.000002959               0.000271945               0.999999998              -0.000004115               0.000272850               0.999999998              -0.000004313               0.000276160               0.999999998              -0.000003876               0.000281861               0.999999998              -0.000003032               0.000289808               0.999999998              -0.000001883               0.000299802               0.999999998              -0.000000523               0.000311631               0.999999998               0.000001040               0.000325089               0.999999998               0.000002671               0.000340094               0.999999998               0.000004127               0.000356405               0.999999998               0.000005504               0.000373880               0.999999998               0.000007201               0.000392369               0.999999998               0.000008837               0.000411816               0.999999998               0.000009675               0.000432252               0.999999998               0.000010236               0.000453653               0.999999998               0.000010492               0.000475943               0.999999998              -0.000000000               0.000273838               0.999999998              -0.000000000               0.000273933               0.999999998               0.000000000               0.000275116               0.999999998              -0.000000000               0.000278539               0.999999998               0.000000000               0.000284246               0.999999998               0.000000000               0.000292069               0.999999998              -0.000000000               0.000301925               0.999999998               0.000000000               0.000313659               0.999999998               0.000000000               0.000326982               0.999999998              -0.000000000               0.000341755               0.999999998              -0.000000000               0.000357990               0.999999998               0.000000000               0.000375441               0.999999998              -0.000000000               0.000393814               0.999999998              -0.000000000               0.000413279               0.999999998              -0.000000000               0.000433581               0.999999998               0.000000000               0.000454734               0.999999998               0.000000000               0.000476927               0.999999998 </DataArray>
<DataArray type="Float64"                                    Name="stress"                                                      NumberOfComponents="10" format="ascii">
              0.000418919               0.004970827               0.000000000              -0.000464258               0.001811678               0.001347421               0.000000000               0.000000000               0.000000000               0.000000000               0.000471589               0.004145985               0.000000000              -0.000341401               0.001495782               0.001154380               0.000000000               0.000000000               0.000000000               0.000000000               0.000668914               0.003478492               0.000000000              -0.000183968               0.001220808               0.001036840               0.000000000               0.000000000               0.000000000               0.000000000               0.000704285               0.003112427               0.000000000              -0.000124946               0.001079114               0.000954168               0.000000000               0.000000000               0.000000000               0.000000000               0.000674560               0.002899882              -0.000000000              -0.000109525               0.001003126               0.000893601               0.000000000               0.000000000               0.000000000               0.000000000               0.000622056               0.002770077              -0.000000000              -0.000112988               0.000961012               0.000848024               0.000000000               0.000000000               0.000000000               0.000000000               0.000557377               0.002691549              -0.000000000              -0.000127427               0.000939650               0.000812223               0.000000000               0.000000000               0.000000000               0.000000000               0.000490958               0.002647764              -0.000000000              -0.000146861               0.000931533               0.000784672               0.000000000               0.000000000               0.000000000               0.000000000               0.000427655               0.002623081              -0.000000000              -0.000167514               0.000930190               0.000762676               0.000000000               0.000000000               0.000000000               0.000000000               0.000367135               0.002612822              -0.000000000              -0.000188927               0.000933907               0.000744981               0.000000000               0.000000000               0.000000000               0.000000000               0.000308209               0.002610342              -0.000000000              -0.000210714               0.000940343               0.000729629               0.000000000               0.000000000               0.000000000               0.000000000               0.000253178               0.002616873              -0.000000000              -0.000232167               0.000949671               0.000717504               0.000000000               0.000000000               0.000000000               0.000000000               0.000201834               0.002629251              -0.000000000              -0.000252968               0.000960731               0.000707763               0.000000000               0.000000000               0.000000000               0.000000000               0.000152048               0.002645736              -0.000000000              -0.000273698               0.000973136               0.000699438               0.000000000               0.000000000               0.000000000               0.000000000               0.000100978               0.002667315              -0.000000000              -0.000295547               0.000987612               0.000692065               0.000000000               0.000000000               0.000000000               0.000000000               0.000049085               0.002693325              -0.000000000              -0.000318258               0.001003852               0.000685594               0.000000000               0.000000000               0.000000000               0.000000000               0.000025417               0.002711140               0.000000000              -0.000329360               0.001013491               0.000684131               0.000000000               0.000000000               0.000000000               0.000000000               0.000452725               0.004898708              -0.000385844              -0.000442566               0.001780408               0.001337842               0.000000000               0.000000000               0.000000000               0.000000000               0.000487880               0.004093610              -0.000256169              -0.000328746               0.001474105               0.001145359               0.000000000               0.000000000               0.000000000               0.000000000               0.000663907               0.003450962              -0.000119114              -0.000182405               0.001211111               0.001028706               0.000000000               0.000000000               0.000000000               0.000000000               0.000688678               0.003098032              -0.000052633              -0.000129000               0.001075667               0.000946667               0.000000000               0.000000000               0.000000000               0.000000000               0.000656252               0.002892176              -0.000019911              -0.000115427               0.001002525               0.000887098               0.000000000               0.000000000               0.000000000               0.000000000               0.000603150               0.002769506              -0.000003655              -0.000120007               0.000963162               0.000843155               0.000000000               0.000000000               0.000000000               0.000000000               0.000539617               0.002694654               0.000005462              -0.000134475               0.000943034               0.000808559               0.000000000               0.000000000               0.000000000               0.000000000               0.000473436               0.002648903               0.000009054              -0.000153574               0.000934150               0.000780576               0.000000000               0.000000000               0.000000000               0.000000000               0.000409258               0.002624308               0.000009379              -0.000174566               0.000932949               0.000758383               0.000000000               0.000000000               0.000000000               0.000000000               0.000349903               0.002613670               0.000008288              -0.000195494               0.000936379               0.000740885               0.000000000               0.000000000               0.000000000               0.000000000               0.000294744               0.002612650               0.000007166              -0.000216052               0.000942892               0.000726840               0.000000000               0.000000000               0.000000000               0.000000000               0.000240187               0.002617316               0.000007012              -0.000237094               0.000951461               0.000714367               0.000000000               0.000000000               0.000000000               0.000000000               0.000189174               0.002628669               0.000005796              -0.000257643               0.000962095               0.000704452               0.000000000               0.000000000               0.000000000               0.000000000               0.000141407               0.002644249               0.000006233              -0.000277503               0.000973908               0.000696406               0.000000000               0.000000000               0.000000000               0.000000000               0.000093881               0.002666098               0.000010201              -0.000298056               0.000988043               0.000689986               0.000000000               0.000000000               0.000000000               0.000000000               0.000045894               0.002692161               0.000008805              -0.000319309               0.001003814               0.000684505               0.000000000               0.000000000               0.000000000               0.000000000               0.000024848               0.002712199               0.000004191              -0.000329706               0.001013959               0.000684253               0.000000000               0.000000000               0.000000000               0.000000000               0.000538176               0.004681242              -0.000733895              -0.000383338               0.001688178               0.001304839               0.000000000               0.000000000               0.000000000               0.000000000               0.000523510               0.003935759              -0.000487465              -0.000295653               0.001410458               0.001114805               0.000000000               0.000000000               0.000000000               0.000000000               0.000645698               0.003363004              -0.000229475              -0.000178238               0.001180403               0.001002164               0.000000000               0.000000000               0.000000000               0.000000000               0.000645402               0.003048064              -0.000106333              -0.000138982               0.001062339               0.000923357               0.000000000               0.000000000               0.000000000               0.000000000               0.000602015               0.002863617              -0.000045436              -0.000132196               0.000998595               0.000866399               0.000000000               0.000000000               0.000000000               0.000000000               0.000546305               0.002754642              -0.000015307              -0.000139466               0.000964693               0.000825228               0.000000000               0.000000000               0.000000000               0.000000000               0.000484859               0.002687493              -0.000001648              -0.000154114               0.000947193               0.000793079               0.000000000               0.000000000               0.000000000               0.000000000               0.000420935               0.002644472               0.000004241              -0.000172708               0.000939051               0.000766343               0.000000000               0.000000000               0.000000000               0.000000000               0.000361632               0.002621273               0.000006329              -0.000192047               0.000937764               0.000745718               0.000000000               0.000000000               0.000000000               0.000000000               0.000308589               0.002611109               0.000005405              -0.000210667               0.000940583               0.000729916               0.000000000               0.000000000               0.000000000               0.000000000               0.000257558               0.002608863               0.000003229              -0.000229523               0.000946120               0.000716597               0.000000000               0.000000000               0.000000000               0.000000000               0.000207765               0.002612929               0.000003130              -0.000248704               0.000953869               0.000705165               0.000000000               0.000000000               0.000000000               0.000000000               0.000161613               0.002624256               0.000002746              -0.000267427               0.000963886               0.000696459               0.000000000               0.000000000               0.000000000               0.000000000               0.000118253               0.002641326               0.000004690              -0.000285820               0.000975707               0.000689886               0.000000000               0.000000000               0.000000000               0.000000000               0.000077390               0.002663476               0.000011728              -0.000303913               0.000989121               0.000685208               0.000000000               0.000000000               0.000000000               0.000000000               0.000037685               0.002689248               0.000011218              -0.000322023               0.001003748               0.000681725               0.000000000               0.000000000               0.000000000               0.000000000               0.000021446               0.002710817               0.000005749              -0.000330809               0.001013866               0.000683057               0.000000000               0.000000000               0.000000000               0.000000000               0.000655216               0.004332378              -0.001014561              -0.000295841               0.001542725               0.001246884               0.000000000               0.000000000               0.000000000               0.000000000               0.000565271               0.003685746              -0.000674156              -0.000248741               0.001311483               0.001062742               0.000000000               0.000000000               0.000000000               0.000000000               0.000608091               0.003222867              -0.000322440              -0.000174824               0.001132553               0.000957729               0.000000000               0.000000000               0.000000000               0.000000000               0.000577072               0.002966895              -0.000160749              -0.000154460               0.001040442               0.000885982               0.000000000               0.000000000               0.000000000               0.000000000               0.000524475               0.002816834              -0.000082434              -0.000155426               0.000990744               0.000835318               0.000000000               0.000000000               0.000000000               0.000000000               0.000466770               0.002725099              -0.000043699              -0.000165598               0.000963557               0.000797958               0.000000000               0.000000000               0.000000000               0.000000000               0.000407972               0.002665586              -0.000025420              -0.000180208               0.000948589               0.000768381               0.000000000               0.000000000               0.000000000               0.000000000               0.000352023               0.002630150              -0.000016875              -0.000196760               0.000942295               0.000745535               0.000000000               0.000000000               0.000000000               0.000000000               0.000300055               0.002610131              -0.000013155              -0.000213745               0.000941283               0.000727538               0.000000000               0.000000000               0.000000000               0.000000000               0.000252572               0.002601247              -0.000014073              -0.000230441               0.000943887               0.000713446               0.000000000               0.000000000               0.000000000               0.000000000               0.000209985               0.002599787              -0.000015384              -0.000246229               0.000948663               0.000702435               0.000000000               0.000000000               0.000000000               0.000000000               0.000169659               0.002605132              -0.000012531              -0.000262019               0.000955708               0.000693689               0.000000000               0.000000000               0.000000000               0.000000000               0.000130035               0.002618072              -0.000009225              -0.000278495               0.000965514               0.000687019               0.000000000               0.000000000               0.000000000               0.000000000               0.000091279               0.002637382              -0.000005853              -0.000295442               0.000977599               0.000682157               0.000000000               0.000000000               0.000000000               0.000000000               0.000055691               0.002656450               0.000001819              -0.000311171               0.000989198               0.000678027               0.000000000               0.000000000               0.000000000               0.000000000               0.000026012               0.002675042               0.000004963              -0.000324625               0.000999880               0.000675255               0.000000000               0.000000000               0.000000000               0.000000000               0.000015472               0.002690845               0.000001865              -0.000330553               0.001007124               0.000676571               0.000000000               0.000000000               0.000000000               0.000000000               0.000780758               0.003893996              -0.001207299              -0.000193966               0.001362641               0.001168675               0.000000000               0.000000000               0.000000000               0.000000000               0.000604634               0.003381494              -0.000807074              -0.000195949               0.001192470               0.000996521               0.000000000               0.000000000               0.000000000               0.000000000               0.000556286               0.003059394              -0.000399559              -0.000173817               0.001077727               0.000903910               0.000000000               0.000000000               0.000000000               0.000000000               0.000493694               0.002871996              -0.000218130              -0.000173864               0.001015277               0.000841413               0.000000000               0.000000000               0.000000000               0.000000000               0.000436018               0.002758544              -0.000130162              -0.000181311               0.000979943               0.000798632               0.000000000               0.000000000               0.000000000               0.000000000               0.000381751               0.002684593              -0.000087034              -0.000192417               0.000958994               0.000766577               0.000000000               0.000000000               0.000000000               0.000000000               0.000330969               0.002636168              -0.000065370              -0.000205407               0.000947183               0.000741776               0.000000000               0.000000000               0.000000000               0.000000000               0.000284925               0.002607922              -0.000053360              -0.000219143               0.000942346               0.000723203               0.000000000               0.000000000               0.000000000               0.000000000               0.000241867               0.002592561              -0.000046850              -0.000233370               0.000941968               0.000708599               0.000000000               0.000000000               0.000000000               0.000000000               0.000203449               0.002586118              -0.000043402              -0.000246971               0.000944354               0.000697384               0.000000000               0.000000000               0.000000000               0.000000000               0.000169758               0.002588547              -0.000041099              -0.000259908               0.000949476               0.000689568               0.000000000               0.000000000               0.000000000               0.000000000               0.000136787               0.002596872              -0.000034062              -0.000273313               0.000956720               0.000683407               0.000000000               0.000000000               0.000000000               0.000000000               0.000100898               0.002610367              -0.000024737              -0.000288458               0.000966267               0.000677808               0.000000000               0.000000000               0.000000000               0.000000000               0.000065687               0.002625447              -0.000018760              -0.000303548               0.000976323               0.000672775               0.000000000               0.000000000               0.000000000               0.000000000               0.000038853               0.002635302              -0.000012183              -0.000314842               0.000983373               0.000668531               0.000000000               0.000000000               0.000000000               0.000000000               0.000017936               0.002637955              -0.000004384              -0.000323018               0.000986982               0.000663965               0.000000000               0.000000000               0.000000000               0.000000000               0.000009916               0.002642082              -0.000001893              -0.000326541               0.000989532               0.000662991               0.000000000               0.000000000               0.000000000               0.000000000               0.000888094               0.003409660              -0.001306410              -0.000093173               0.001167599               0.001074426               0.000000000               0.000000000               0.000000000               0.000000000               0.000630227               0.003055430              -0.000888521              -0.000145594               0.001066998               0.000921404               0.000000000               0.000000000               0.000000000               0.000000000               0.000495470               0.002887190              -0.000465426              -0.000175097               0.001020753               0.000845655               0.000000000               0.000000000               0.000000000               0.000000000               0.000411914               0.002770863              -0.000279250              -0.000191890               0.000987575               0.000795685               0.000000000               0.000000000               0.000000000               0.000000000               0.000353390               0.002691661              -0.000187724              -0.000203936               0.000965190               0.000761254               0.000000000               0.000000000               0.000000000               0.000000000               0.000305577               0.002635855              -0.000141181              -0.000214890               0.000950240               0.000735350               0.000000000               0.000000000               0.000000000               0.000000000               0.000264456               0.002600525              -0.000114913              -0.000225894               0.000942131               0.000716237               0.000000000               0.000000000               0.000000000               0.000000000               0.000229977               0.002581093              -0.000097408              -0.000236395               0.000939154               0.000702759               0.000000000               0.000000000               0.000000000               0.000000000               0.000199264               0.002569926              -0.000084096              -0.000246516               0.000938805               0.000692289               0.000000000               0.000000000               0.000000000               0.000000000               0.000168932               0.002565832              -0.000072949              -0.000257379               0.000941062               0.000683683               0.000000000               0.000000000               0.000000000               0.000000000               0.000138685               0.002570280              -0.000063618              -0.000269278               0.000946511               0.000677233               0.000000000               0.000000000               0.000000000               0.000000000               0.000107210               0.002580895              -0.000051424              -0.000282407               0.000954425               0.000672018               0.000000000               0.000000000               0.000000000               0.000000000               0.000077839               0.002591934              -0.000036043              -0.000294801               0.000962236               0.000667435               0.000000000               0.000000000               0.000000000               0.000000000               0.000052818               0.002601624              -0.000027425              -0.000305395               0.000968998               0.000663602               0.000000000               0.000000000               0.000000000               0.000000000               0.000032269               0.002602307              -0.000023394              -0.000313187               0.000971823               0.000658636               0.000000000               0.000000000               0.000000000               0.000000000               0.000015959               0.002598588              -0.000012952              -0.000318838               0.000972467               0.000653629               0.000000000               0.000000000               0.000000000               0.000000000               0.000010229               0.002599795              -0.000006254              -0.000321138               0.000973636               0.000652498               0.000000000               0.000000000               0.000000000               0.000000000               0.000958094               0.002911851              -0.001321444              -0.000004698               0.000972173               0.000967475               0.000000000               0.000000000               0.000000000               0.000000000               0.000639210               0.002727032              -0.000926537              -0.000101176               0.000942727               0.000841550               0.000000000               0.000000000               0.000000000               0.000000000               0.000433497               0.002714006              -0.000521825              -0.000176689               0.000963556               0.000786867               0.000000000               0.000000000               0.000000000               0.000000000               0.000340888               0.002666370              -0.000342228              -0.000205463               0.000957269               0.000751806               0.000000000               0.000000000               0.000000000               0.000000000               0.000287029               0.002619668              -0.000249719              -0.000219822               0.000946488               0.000726666               0.000000000               0.000000000               0.000000000               0.000000000               0.000247644               0.002584397              -0.000198374              -0.000230182               0.000938184               0.000708002               0.000000000               0.000000000               0.000000000               0.000000000               0.000216692               0.002561794              -0.000163465              -0.000238964               0.000933578               0.000694614               0.000000000               0.000000000               0.000000000               0.000000000               0.000192270               0.002549059              -0.000136147              -0.000246530               0.000931855               0.000685324               0.000000000               0.000000000               0.000000000               0.000000000               0.000169172               0.002541768              -0.000114296              -0.000254281               0.000932008               0.000677727               0.000000000               0.000000000               0.000000000               0.000000000               0.000141724               0.002541354              -0.000094437              -0.000264522               0.000935284               0.000670761               0.000000000               0.000000000               0.000000000               0.000000000               0.000113135               0.002550382              -0.000076035              -0.000276371               0.000942243               0.000665871               0.000000000               0.000000000               0.000000000               0.000000000               0.000084379               0.002564800              -0.000057913              -0.000288957               0.000951244               0.000662287               0.000000000               0.000000000               0.000000000               0.000000000               0.000061628               0.002578936              -0.000038617              -0.000299256               0.000959389               0.000660133               0.000000000               0.000000000               0.000000000               0.000000000               0.000048116               0.002587629              -0.000028853              -0.000305410               0.000964338               0.000658928               0.000000000               0.000000000               0.000000000               0.000000000               0.000034971               0.002591010              -0.000027086              -0.000310761               0.000967248               0.000656487               0.000000000               0.000000000               0.000000000               0.000000000               0.000017824               0.002597233              -0.000016432              -0.000317969               0.000971726               0.000653756               0.000000000               0.000000000               0.000000000               0.000000000               0.000011455               0.002605919              -0.000009768              -0.000321444               0.000975779               0.000654335               0.000000000               0.000000000               0.000000000               0.000000000               0.000985563               0.002430108              -0.001264648               0.000065820               0.000788087               0.000853908               0.000000000               0.000000000               0.000000000               0.000000000               0.000632550               0.002417708              -0.000928243              -0.000065008               0.000827564               0.000762556               0.000000000               0.000000000               0.000000000               0.000000000               0.000381218               0.002548077              -0.000571782              -0.000175553               0.000907868               0.000732315               0.000000000               0.000000000               0.000000000               0.000000000               0.000288486               0.002558348              -0.000402460              -0.000211611               0.000923311               0.000711700               0.000000000               0.000000000               0.000000000               0.000000000               0.000239768               0.002543186              -0.000307180              -0.000227985               0.000923715               0.000695730               0.000000000               0.000000000               0.000000000               0.000000000               0.000209474               0.002527825              -0.000246880              -0.000237425               0.000921741               0.000684317               0.000000000               0.000000000               0.000000000               0.000000000               0.000187234               0.002518951              -0.000201541              -0.000244656               0.000921194               0.000676538               0.000000000               0.000000000               0.000000000               0.000000000               0.000167189               0.002513116              -0.000164555              -0.000251443               0.000921511               0.000670068               0.000000000               0.000000000               0.000000000               0.000000000               0.000146360               0.002513794              -0.000133906              -0.000259339               0.000924369               0.000665031               0.000000000               0.000000000               0.000000000               0.000000000               0.000122583               0.002524699              -0.000104727              -0.000269618               0.000931431               0.000661813               0.000000000               0.000000000               0.000000000               0.000000000               0.000098265               0.002544409              -0.000077235              -0.000281201               0.000941861               0.000660660               0.000000000               0.000000000               0.000000000               0.000000000               0.000076474               0.002567215              -0.000053777              -0.000292223               0.000953138               0.000660914               0.000000000               0.000000000               0.000000000               0.000000000               0.000062417               0.002586982              -0.000036071              -0.000299966               0.000962307               0.000662342               0.000000000               0.000000000               0.000000000               0.000000000               0.000054023               0.002600574              -0.000029210              -0.000304812               0.000968453               0.000663641               0.000000000               0.000000000               0.000000000               0.000000000               0.000041607               0.002618941              -0.000027462              -0.000311764               0.000976893               0.000665129               0.000000000               0.000000000               0.000000000               0.000000000               0.000021963               0.002642148              -0.000017899              -0.000322032               0.000988051               0.000666019               0.000000000               0.000000000               0.000000000               0.000000000               0.000013165               0.002658251              -0.000012360              -0.000327344               0.000995189               0.000667846               0.000000000               0.000000000               0.000000000               0.000000000               0.000988889               0.002003233              -0.001158936               0.000120427               0.000627595               0.000748022               0.000000000               0.000000000               0.000000000               0.000000000               0.000632483               0.002140810              -0.000912331              -0.000030421               0.000723736               0.000693315               0.000000000               0.000000000               0.000000000               0.000000000               0.000358187               0.002395144              -0.000629456              -0.000165073               0.000853398               0.000688325               0.000000000               0.000000000               0.000000000               0.000000000               0.000265563               0.002460893              -0.000466878              -0.000208025               0.000889631               0.000681606               0.000000000               0.000000000               0.000000000               0.000000000               0.000220259               0.002478047              -0.000365475              -0.000227158               0.000901727               0.000674569               0.000000000               0.000000000               0.000000000               0.000000000               0.000193316               0.002484101              -0.000294877              -0.000238019               0.000907365               0.000669346               0.000000000               0.000000000               0.000000000               0.000000000               0.000178362               0.002490602              -0.000240405              -0.000244439               0.000911672               0.000667233               0.000000000               0.000000000               0.000000000               0.000000000               0.000162884               0.002495619              -0.000195467              -0.000250870               0.000915488               0.000664618               0.000000000               0.000000000               0.000000000               0.000000000               0.000143899               0.002508589              -0.000155210              -0.000259611               0.000922725               0.000663114               0.000000000               0.000000000               0.000000000               0.000000000               0.000122160               0.002533259              -0.000117919              -0.000270847               0.000934693               0.000663847               0.000000000               0.000000000               0.000000000               0.000000000               0.000102455               0.002564153              -0.000086121              -0.000282098               0.000948742               0.000666644               0.000000000               0.000000000               0.000000000               0.000000000               0.000085470               0.002591125              -0.000061748              -0.000291839               0.000960979               0.000669141               0.000000000               0.000000000               0.000000000               0.000000000               0.000076670               0.002611721              -0.000044079              -0.000297713               0.000969803               0.000672089               0.000000000               0.000000000               0.000000000               0.000000000               0.000070552               0.002635059              -0.000031904              -0.000302925               0.000979319               0.000676395               0.000000000               0.000000000               0.000000000               0.000000000               0.000056910               0.002668958              -0.000024301              -0.000312278               0.000993736               0.000681459               0.000000000               0.000000000               0.000000000               0.000000000               0.000037398               0.002708382              -0.000016017              -0.000324523               0.001010959               0.000686437               0.000000000               0.000000000               0.000000000               0.000000000               0.000024138               0.002728731              -0.000010336              -0.000332039               0.001020248               0.000688209               0.000000000               0.000000000               0.000000000               0.000000000               0.000960789               0.001583792              -0.001029143               0.000162319               0.000473818               0.000636138               0.000000000               0.000000000               0.000000000               0.000000000               0.000647536               0.001812482              -0.000888795               0.000016264               0.000598733               0.000614997               0.000000000               0.000000000               0.000000000               0.000000000               0.000376693               0.002157570              -0.000697732              -0.000128437               0.000761995               0.000633558               0.000000000               0.000000000               0.000000000               0.000000000               0.000277613               0.002290195              -0.000546896              -0.000182169               0.000824114               0.000641944               0.000000000               0.000000000               0.000000000               0.000000000               0.000230974               0.002352323              -0.000438913              -0.000207425               0.000853242               0.000645816               0.000000000               0.000000000               0.000000000               0.000000000               0.000200462               0.002390418              -0.000358953              -0.000223629               0.000871341               0.000647712               0.000000000               0.000000000               0.000000000               0.000000000               0.000184847               0.002418061              -0.000297379              -0.000232940               0.000883659               0.000650719               0.000000000               0.000000000               0.000000000               0.000000000               0.000171765               0.002440857              -0.000244430              -0.000240695               0.000893842               0.000653148               0.000000000               0.000000000               0.000000000               0.000000000               0.000155513               0.002466655              -0.000196517              -0.000250014               0.000905548               0.000655534               0.000000000               0.000000000               0.000000000               0.000000000               0.000137713               0.002500706              -0.000156465              -0.000260945               0.000920542               0.000659597               0.000000000               0.000000000               0.000000000               0.000000000               0.000122237               0.002541321              -0.000123672              -0.000271826               0.000937707               0.000665882               0.000000000               0.000000000               0.000000000               0.000000000               0.000109349               0.002581160              -0.000097490              -0.000281638               0.000954257               0.000672619               0.000000000               0.000000000               0.000000000               0.000000000               0.000099707               0.002619861              -0.000073282              -0.000290092               0.000969976               0.000679884               0.000000000               0.000000000               0.000000000               0.000000000               0.000092207               0.002659472              -0.000048799              -0.000297856               0.000985767               0.000687911               0.000000000               0.000000000               0.000000000               0.000000000               0.000078561               0.002698566              -0.000029321              -0.000307860               0.001002133               0.000694273               0.000000000               0.000000000               0.000000000               0.000000000               0.000060241               0.002745796              -0.000013980              -0.000320633               0.001022134               0.000701501               0.000000000               0.000000000               0.000000000               0.000000000               0.000043392               0.002767454              -0.000003487              -0.000329659               0.001032362               0.000702703               0.000000000               0.000000000               0.000000000               0.000000000               0.000886014               0.001184239              -0.000875637               0.000184223               0.000333334               0.000517557               0.000000000               0.000000000               0.000000000               0.000000000               0.000662920               0.001478544              -0.000840721               0.000063775               0.000471584               0.000535359               0.000000000               0.000000000               0.000000000               0.000000000               0.000428632               0.001884798              -0.000747591              -0.000074863               0.000653214               0.000578351               0.000000000               0.000000000               0.000000000               0.000000000               0.000326364               0.002081562              -0.000623307              -0.000137809               0.000739783               0.000601974               0.000000000               0.000000000               0.000000000               0.000000000               0.000271657               0.002195042              -0.000515617              -0.000172509               0.000789176               0.000616667               0.000000000               0.000000000               0.000000000               0.000000000               0.000235861               0.002270187              -0.000431404              -0.000195325               0.000821830               0.000626504               0.000000000               0.000000000               0.000000000               0.000000000               0.000212843               0.002326293              -0.000364327              -0.000210970               0.000845747               0.000634776               0.000000000               0.000000000               0.000000000               0.000000000               0.000198856               0.002372985              -0.000304331              -0.000222052               0.000865004               0.000642953               0.000000000               0.000000000               0.000000000               0.000000000               0.000184409               0.002413720              -0.000252467              -0.000232561               0.000882085               0.000649524               0.000000000               0.000000000               0.000000000               0.000000000               0.000170555               0.002455012              -0.000211642              -0.000242918               0.000899302               0.000656384               0.000000000               0.000000000               0.000000000               0.000000000               0.000158634               0.002503474              -0.000177830              -0.000253446               0.000918965               0.000665519               0.000000000               0.000000000               0.000000000               0.000000000               0.000146316               0.002556295              -0.000146698              -0.000264668               0.000940312               0.000675645               0.000000000               0.000000000               0.000000000               0.000000000               0.000131951               0.002612574              -0.000114347              -0.000277089               0.000963212               0.000686123               0.000000000               0.000000000               0.000000000               0.000000000               0.000119176               0.002668298              -0.000080217              -0.000288845               0.000985706               0.000696860               0.000000000               0.000000000               0.000000000               0.000000000               0.000104440               0.002714831              -0.000049042              -0.000300188               0.001004997               0.000704809               0.000000000               0.000000000               0.000000000               0.000000000               0.000082859               0.002758285              -0.000023081              -0.000313713               0.001023990               0.000710277               0.000000000               0.000000000               0.000000000               0.000000000               0.000059809               0.002771388              -0.000006674              -0.000323994               0.001031785               0.000707791               0.000000000               0.000000000               0.000000000               0.000000000               0.000767946               0.000827677              -0.000700196               0.000184518               0.000214383               0.000398901               0.000000000               0.000000000               0.000000000               0.000000000               0.000658950               0.001152039              -0.000754246               0.000103100               0.000349642               0.000452742               0.000000000               0.000000000               0.000000000               0.000000000               0.000495694               0.001579395              -0.000749604              -0.000011540               0.000530306               0.000518766               0.000000000               0.000000000               0.000000000               0.000000000               0.000404540               0.001826838              -0.000661522              -0.000076653               0.000634491               0.000557838               0.000000000               0.000000000               0.000000000               0.000000000               0.000344166               0.001987068              -0.000566852              -0.000119321               0.000702123               0.000582802               0.000000000               0.000000000               0.000000000               0.000000000               0.000302857               0.002103698              -0.000484592              -0.000149391               0.000751023               0.000601632               0.000000000               0.000000000               0.000000000               0.000000000               0.000269751               0.002194063              -0.000416252              -0.000173101               0.000789047               0.000615946               0.000000000               0.000000000               0.000000000               0.000000000               0.000248793               0.002267019              -0.000354207              -0.000190080               0.000819025               0.000628946               0.000000000               0.000000000               0.000000000               0.000000000               0.000233859               0.002329189              -0.000300588              -0.000203451               0.000844206               0.000640755               0.000000000               0.000000000               0.000000000               0.000000000               0.000217758               0.002383019              -0.000260187              -0.000216218               0.000866404               0.000650187               0.000000000               0.000000000               0.000000000               0.000000000               0.000204711               0.002441200              -0.000226259              -0.000228383               0.000889853               0.000661470               0.000000000               0.000000000               0.000000000               0.000000000               0.000192771               0.002507923              -0.000190433              -0.000241201               0.000916366               0.000675165               0.000000000               0.000000000               0.000000000               0.000000000               0.000178243               0.002583118              -0.000152049              -0.000256048               0.000946380               0.000690332               0.000000000               0.000000000               0.000000000               0.000000000               0.000159355               0.002656078              -0.000112452              -0.000272251               0.000976101               0.000703850               0.000000000               0.000000000               0.000000000               0.000000000               0.000137047               0.002717829              -0.000073879              -0.000288335               0.001002046               0.000713710               0.000000000               0.000000000               0.000000000               0.000000000               0.000109605               0.002764428              -0.000035966              -0.000304451               0.001022950               0.000718500               0.000000000               0.000000000               0.000000000               0.000000000               0.000081595               0.002774613              -0.000012638              -0.000316228               0.001030271               0.000714043               0.000000000               0.000000000               0.000000000               0.000000000               0.000618563               0.000536540              -0.000521066               0.000164892               0.000123880               0.000288772               0.000000000               0.000000000               0.000000000               0.000000000               0.000637383               0.000852163              -0.000634664               0.000132496               0.000239886               0.000372382               0.000000000               0.000000000               0.000000000               0.000000000               0.000567308               0.001265126              -0.000695723               0.000054599               0.000403505               0.000458103               0.000000000               0.000000000               0.000000000               0.000000000               0.000500624               0.001543029              -0.000644874              -0.000005145               0.000516053               0.000510907               0.000000000               0.000000000               0.000000000               0.000000000               0.000442885               0.001740902              -0.000572147              -0.000051531               0.000597472               0.000545940               0.000000000               0.000000000               0.000000000               0.000000000               0.000395595               0.001896983              -0.000500432              -0.000088775               0.000661913               0.000573138               0.000000000               0.000000000               0.000000000               0.000000000               0.000356009               0.002022549              -0.000436353              -0.000119315               0.000713948               0.000594633               0.000000000               0.000000000               0.000000000               0.000000000               0.000324001               0.002125036              -0.000378519              -0.000144129               0.000756381               0.000612252               0.000000000               0.000000000               0.000000000               0.000000000               0.000303868               0.002214609              -0.000327048              -0.000162875               0.000792487               0.000629612               0.000000000               0.000000000               0.000000000               0.000000000               0.000281728               0.002289647              -0.000287107              -0.000180558               0.000823394               0.000642836               0.000000000               0.000000000               0.000000000               0.000000000               0.000258960               0.002361042              -0.000255049              -0.000198020               0.000853013               0.000654993               0.000000000               0.000000000               0.000000000               0.000000000               0.000242213               0.002440706              -0.000219373              -0.000214258               0.000884980               0.000670722               0.000000000               0.000000000               0.000000000               0.000000000               0.000228218               0.002529817              -0.000177398              -0.000230645               0.000920146               0.000689501               0.000000000               0.000000000               0.000000000               0.000000000               0.000209909               0.002619862              -0.000133156              -0.000248766               0.000956201               0.000707435               0.000000000               0.000000000               0.000000000               0.000000000               0.000186803               0.002698528              -0.000092316              -0.000267264               0.000988589               0.000721324               0.000000000               0.000000000               0.000000000               0.000000000               0.000157863               0.002755841              -0.000050334              -0.000285281               0.001013698               0.000728417               0.000000000               0.000000000               0.000000000               0.000000000               0.000130025               0.002772289              -0.000023878              -0.000297776               0.001023346               0.000725570               0.000000000               0.000000000               0.000000000               0.000000000               0.000459466               0.000317307              -0.000356748               0.000132635               0.000061556               0.000194191               0.000000000               0.000000000               0.000000000               0.000000000               0.000602431               0.000598497              -0.000491197               0.000151098               0.000149131               0.000300229               0.000000000               0.000000000               0.000000000               0.000000000               0.000633158               0.000971861              -0.000584094               0.000115950               0.000285300               0.000401250               0.000000000               0.000000000               0.000000000               0.000000000               0.000601104               0.001260853              -0.000564994               0.000067806               0.000397678               0.000465484               0.000000000               0.000000000               0.000000000               0.000000000               0.000552040               0.001487892              -0.000516007               0.000021028               0.000488950               0.000509977               0.000000000               0.000000000               0.000000000               0.000000000               0.000502147               0.001674672              -0.000461706              -0.000021029               0.000565228               0.000544199               0.000000000               0.000000000               0.000000000               0.000000000               0.000455449               0.001831449              -0.000409150              -0.000058138               0.000629856               0.000571718               0.000000000               0.000000000               0.000000000               0.000000000               0.000414725               0.001966782              -0.000361807              -0.000090326               0.000685696               0.000595370               0.000000000               0.000000000               0.000000000               0.000000000               0.000382913               0.002086213              -0.000317309              -0.000117184               0.000734459               0.000617275               0.000000000               0.000000000               0.000000000               0.000000000               0.000354521               0.002190995              -0.000279334              -0.000140929               0.000777300               0.000636372               0.000000000               0.000000000               0.000000000               0.000000000               0.000321928               0.002279689              -0.000250056              -0.000164238               0.000814635               0.000650397               0.000000000               0.000000000               0.000000000               0.000000000               0.000293680               0.002367412              -0.000220514              -0.000185796               0.000851062               0.000665265               0.000000000               0.000000000               0.000000000               0.000000000               0.000278603               0.002465909              -0.000182717              -0.000203762               0.000889882               0.000686120               0.000000000               0.000000000               0.000000000               0.000000000               0.000269500               0.002568177              -0.000141202              -0.000219959               0.000929370               0.000709411               0.000000000               0.000000000               0.000000000               0.000000000               0.000257572               0.002661059              -0.000101953              -0.000236042               0.000965692               0.000729649               0.000000000               0.000000000               0.000000000               0.000000000               0.000235877               0.002737558              -0.000056691              -0.000253740               0.000997090               0.000743350               0.000000000               0.000000000               0.000000000               0.000000000               0.000212424               0.002766419              -0.000028410              -0.000266143               0.001010845               0.000744702               0.000000000               0.000000000               0.000000000               0.000000000               0.000319854               0.000170854              -0.000215702               0.000098588               0.000024088               0.000122676               0.000000000               0.000000000               0.000000000               0.000000000               0.000563400               0.000407151              -0.000332592               0.000160380               0.000082256               0.000242635               0.000000000               0.000000000               0.000000000               0.000000000               0.000684467               0.000732973              -0.000421328               0.000165052               0.000189304               0.000354356               0.000000000               0.000000000               0.000000000               0.000000000               0.000691248               0.001021397              -0.000421324               0.000131542               0.000296615               0.000428157               0.000000000               0.000000000               0.000000000               0.000000000               0.000653560               0.001264525              -0.000394436               0.000087019               0.000392498               0.000479516               0.000000000               0.000000000               0.000000000               0.000000000               0.000602601               0.001473320              -0.000359027               0.000041810               0.000477165               0.000518975               0.000000000               0.000000000               0.000000000               0.000000000               0.000548906               0.001656195              -0.000323238              -0.000001185               0.000552454               0.000551269               0.000000000               0.000000000               0.000000000               0.000000000               0.000499294               0.001817866              -0.000289716              -0.000039998               0.000619282               0.000579284               0.000000000               0.000000000               0.000000000               0.000000000               0.000456853               0.001961925              -0.000257176              -0.000073921               0.000678609               0.000604688               0.000000000               0.000000000               0.000000000               0.000000000               0.000422240               0.002089696              -0.000226288              -0.000102872               0.000730849               0.000627977               0.000000000               0.000000000               0.000000000               0.000000000               0.000384963               0.002198355              -0.000200194              -0.000130433               0.000776255               0.000645822               0.000000000               0.000000000               0.000000000               0.000000000               0.000351171               0.002299040              -0.000180782              -0.000155690               0.000818236               0.000662545               0.000000000               0.000000000               0.000000000               0.000000000               0.000334790               0.002400737              -0.000158012              -0.000174545               0.000858420               0.000683874               0.000000000               0.000000000               0.000000000               0.000000000               0.000333009               0.002507624              -0.000124972              -0.000188574               0.000898724               0.000710150               0.000000000               0.000000000               0.000000000               0.000000000               0.000330050               0.002615727              -0.000087525              -0.000203197               0.000939633               0.000736436               0.000000000               0.000000000               0.000000000               0.000000000               0.000329243               0.002715075              -0.000047022              -0.000215918               0.000976988               0.000761071               0.000000000               0.000000000               0.000000000               0.000000000               0.000326801               0.002758184              -0.000024083              -0.000222222               0.000993460               0.000771238               0.000000000               0.000000000               0.000000000               0.000000000               0.000223993               0.000090600              -0.000100032               0.000072672               0.000005976               0.000078647               0.000000000               0.000000000               0.000000000               0.000000000               0.000532223               0.000289496              -0.000167388               0.000163395               0.000042033               0.000205428               0.000000000               0.000000000               0.000000000               0.000000000               0.000714106               0.000576451              -0.000220831               0.000195731               0.000126905               0.000322636               0.000000000               0.000000000               0.000000000               0.000000000               0.000750727               0.000860186              -0.000225501               0.000173998               0.000228727               0.000402724               0.000000000               0.000000000               0.000000000               0.000000000               0.000725953               0.001110747              -0.000214353               0.000133388               0.000325783               0.000459171               0.000000000               0.000000000               0.000000000               0.000000000               0.000677166               0.001332939              -0.000196803               0.000087319               0.000415202               0.000502521               0.000000000               0.000000000               0.000000000               0.000000000               0.000621282               0.001531306              -0.000178799               0.000041567               0.000496575               0.000538142               0.000000000               0.000000000               0.000000000               0.000000000               0.000564197               0.001705713              -0.000162304              -0.000001640               0.000569112               0.000567472               0.000000000               0.000000000               0.000000000               0.000000000               0.000512381               0.001863741              -0.000145797              -0.000040825               0.000634849               0.000594024               0.000000000               0.000000000               0.000000000               0.000000000               0.000469699               0.002008291              -0.000126392              -0.000074899               0.000694390               0.000619491               0.000000000               0.000000000               0.000000000               0.000000000               0.000434739               0.002136397              -0.000109355              -0.000104022               0.000746799               0.000642777               0.000000000               0.000000000               0.000000000               0.000000000               0.000404178               0.002248423              -0.000102820              -0.000129486               0.000792629               0.000663143               0.000000000               0.000000000               0.000000000               0.000000000               0.000379898               0.002352556              -0.000096504              -0.000151607               0.000834713               0.000683106               0.000000000               0.000000000               0.000000000               0.000000000               0.000370589               0.002460369              -0.000073944              -0.000168575               0.000876307               0.000707732               0.000000000               0.000000000               0.000000000               0.000000000               0.000378517               0.002572555              -0.000047317              -0.000179625               0.000917385               0.000737760               0.000000000               0.000000000               0.000000000               0.000000000               0.000404219               0.002686844              -0.000026855              -0.000184273               0.000957030               0.000772757               0.000000000               0.000000000               0.000000000               0.000000000               0.000424035               0.002743817              -0.000016425              -0.000183964               0.000975918               0.000791954               0.000000000               0.000000000               0.000000000               0.000000000               0.000189217               0.000065127               0.000000000               0.000062815               0.000000770               0.000063585               0.000000000               0.000000000               0.000000000               0.000000000               0.000519849               0.000249551               0.000000000               0.000163748               0.000028600               0.000192348               0.000000000               0.000000000               0.000000000               0.000000000               0.000722765               0.000521658              -0.000000000               0.000205828               0.000105275               0.000311103               0.000000000               0.000000000               0.000000000               0.000000000               0.000769954               0.000803069              -0.000000000               0.000188347               0.000204905               0.000393252               0.000000000               0.000000000               0.000000000               0.000000000               0.000750323               0.001053990               0.000000000               0.000149621               0.000301453               0.000451074               0.000000000               0.000000000               0.000000000               0.000000000               0.000704935               0.001280170              -0.000000000               0.000104328               0.000391943               0.000496271               0.000000000               0.000000000               0.000000000               0.000000000               0.000650819               0.001486633               0.000000000               0.000058227               0.000476130               0.000534358               0.000000000               0.000000000               0.000000000               0.000000000               0.000592567               0.001666739               0.000000000               0.000013870               0.000550951               0.000564821               0.000000000               0.000000000               0.000000000               0.000000000               0.000533579               0.001824879              -0.000000000              -0.000028018               0.000617626               0.000589609               0.000000000               0.000000000               0.000000000               0.000000000               0.000485831               0.001975771              -0.000000000              -0.000064785               0.000680179               0.000615394               0.000000000               0.000000000               0.000000000               0.000000000               0.000455625               0.002116345               0.000000000              -0.000093683               0.000736669               0.000642986               0.000000000               0.000000000               0.000000000               0.000000000               0.000428669               0.002231591              -0.000000000              -0.000118198               0.000783256               0.000665058               0.000000000               0.000000000               0.000000000               0.000000000               0.000396247               0.002336633              -0.000000000              -0.000143486               0.000826698               0.000683212               0.000000000               0.000000000               0.000000000               0.000000000               0.000378028               0.002442536              -0.000000000              -0.000163556               0.000868689               0.000705133               0.000000000               0.000000000               0.000000000               0.000000000               0.000394306               0.002550735              -0.000000000              -0.000170977               0.000907229               0.000736252               0.000000000               0.000000000               0.000000000               0.000000000               0.000433704               0.002672608              -0.000000000              -0.000171437               0.000948006               0.000776569               0.000000000               0.000000000               0.000000000               0.000000000               0.000461246               0.002738106              -0.000000000              -0.000169296               0.000969125               0.000799829               0.000000000               0.000000000               0.000000000               0.000000000               0.000000000               0.000000000               0.000000000               0.000000000               0.000000000               0.000000000               0.000000000               0.000000000               0.000000000               0.000000000               0.000000000               0.000000000               0.000000000               0.000000000               0.000000000               0.000000000               0.000000000               0.000000000               0.000000000               0.000000000               0.000000000               0.000000000               0.000000000               0.000000000               0.000000000               0.000000000               0.000000000               0.000000000               0.000000000               0.000000000               0.000000000               0.000000000               0.000000000               0.000000000               0.000000000               0.000000000               0.000000000               0.000000000               0.000000000               0.000000000               0.000000000               0.000000000               0.000000000               0.000000000               0.000000000               0.000000000               0.000000000               0.000000000               0.000000000               0.000000000               0.000000000               0.000000000               0.000000000               0.000000000               0.000000000               0.000000000               0.000000000               0.000000000               0.000000000               0.000000000               0.000000000               0.000000000               0.000000000               0.000000000               0.000000000               0.000000000               0.000000000               0.000000000               0.000000000               0.000000000               0.000000000               0.000000000               0.000000000               0.000000000               0.000000000               0.000000000               0.000000000               0.000000000               0.000000000               0.000000000               0.000000000               0.000000000               0.000000000               0.000000000               0.000000000               0.000000000               0.000000000               0.000000000               0.000000000               0.000000000               0.000000000               0.000000000               0.000000000               0.000000000               0.000000000               0.000000000               0.000000000               0.000000000               0.000000000               0.000000000               0.000000000               0.000000000               0.000000000               0.000000000               0.000000000               0.000000000               0.000000000               0.000000000               0.000000000               0.000000000               0.000000000               0.000000000               0.000000000               0.000000000               0.000000000               0.000000000               0.000000000               0.000000000               0.000000000               0.000000000               0.000000000               0.000000000               0.000000000               0.000000000               0.000000000               0.000000000               0.000000000               0.000000000               0.000000000               0.000000000               0.000000000               0.000000000               0.000000000               0.000000000               0.000000000               0.000000000               0.000000000               0.000000000               0.000000000               0.000000000               0.000000000               0.000000000               0.000000000               0.000000000               0.000000000               0.000000000               0.000000000               0.000000000               0.000000000               0.000000000               0.000000000               0.000000000               0.000000000               0.000000000               0.000000000               0.000000000               0.000000000               0.000000000               0.000000000               0.000000000               0.000000000               0.000000000               0.000000000               0.000000000               0.000000000               0.000000000               0.000000000               0.000000000               0.000000000               0.000000000               0.000452725               0.004898708               0.000385844              -0.000442566               0.001780408               0.001337842               0.000000000               0.000000000               0.000000000               0.000000000               0.000487880               0.004093610               0.000256169              -0.000328746               0.001474105               0.001145359               0.000000000               0.000000000               0.000000000               0.000000000               0.000663907               0.003450962               0.000119114              -0.000182405               0.001211111               0.001028706               0.000000000               0.000000000               0.000000000               0.000000000               0.000688678               0.003098032               0.000052633              -0.000129000               0.001075667               0.000946667               0.000000000               0.000000000               0.000000000               0.000000000               0.000656252               0.002892176               0.000019911              -0.000115427               0.001002525               0.000887098               0.000000000               0.000000000               0.000000000               0.000000000               0.000603150               0.002769506               0.000003655              -0.000120007               0.000963162               0.000843155               0.000000000               0.000000000               0.000000000               0.000000000               0.000539617               0.002694654              -0.000005462              -0.000134475               0.000943034               0.000808559               0.000000000               0.000000000               0.000000000               0.000000000               0.000473436               0.002648903              -0.000009054              -0.000153574               0.000934150               0.000780576               0.000000000               0.000000000               0.000000000               0.000000000               0.000409258               0.002624308              -0.000009379              -0.000174566               0.000932949               0.000758383               0.000000000               0.000000000               0.000000000               0.000000000               0.000349903               0.002613670              -0.000008288              -0.000195494               0.000936379               0.000740885               0.000000000               0.000000000               0.000000000               0.000000000               0.000294744               0.002612650              -0.000007166              -0.000216052               0.000942892               0.000726840               0.000000000               0.000000000               0.000000000               0.000000000               0.000240187               0.002617316              -0.000007012              -0.000237094               0.000951461               0.000714367               0.000000000               0.000000000               0.000000000               0.000000000               0.000189174               0.002628669              -0.000005796              -0.000257643               0.000962095               0.000704452               0.000000000               0.000000000               0.000000000               0.000000000               0.000141407               0.002644249              -0.000006233              -0.000277503               0.000973908               0.000696406               0.000000000               0.000000000               0.000000000               0.000000000               0.000093881               0.002666098              -0.000010201              -0.000298056               0.000988043               0.000689986               0.000000000               0.000000000               0.000000000               0.000000000               0.000045894               0.002692161              -0.000008805              -0.000319309               0.001003814               0.000684505               0.000000000               0.000000000               0.000000000               0.000000000               0.000024848               0.002712199              -0.000004191              -0.000329706               0.001013959               0.000684253               0.000000000               0.000000000               0.000000000               0.000000000               0.000538176               0.004681242               0.000733895              -0.000383338               0.001688178               0.001304839               0.000000000               0.000000000               0.000000000               0.000000000               0.000523510               0.003935759               0.000487465              -0.000295653               0.001410458               0.001114805               0.000000000               0.000000000               0.000000000               0.000000000               0.000645698               0.003363004               0.000229475              -0.000178238               0.001180403               0.001002164               0.000000000               0.000000000               0.000000000               0.000000000               0.000645402               0.003048064               0.000106333              -0.000138982               0.001062339               0.000923357               0.000000000               0.000000000               0.000000000               0.000000000               0.000602015               0.002863617               0.000045436              -0.000132196               0.000998595               0.000866399               0.000000000               0.000000000               0.000000000               0.000000000               0.000546305               0.002754642               0.000015307              -0.000139466               0.000964693               0.000825228               0.000000000               0.000000000               0.000000000               0.000000000               0.000484859               0.002687493               0.000001648              -0.000154114               0.000947193               0.000793079               0.000000000               0.000000000               0.000000000               0.000000000               0.000420935               0.002644472              -0.000004241              -0.000172708               0.000939051               0.000766343               0.000000000               0.000000000               0.000000000               0.000000000               0.000361632               0.002621273              -0.000006329              -0.000192047               0.000937764               0.000745718               0.000000000               0.000000000               0.000000000               0.000000000               0.000308589               0.002611109              -0.000005405              -0.000210667               0.000940583               0.000729916               0.000000000               0.000000000               0.000000000               0.000000000               0.000257558               0.002608863              -0.000003229              -0.000229523               0.000946120               0.000716597               0.000000000               0.000000000               0.000000000               0.000000000               0.000207765               0.002612929              -0.000003130              -0.000248704               0.000953869               0.000705165               0.000000000               0.000000000               0.000000000               0.000000000               0.000161613               0.002624256              -0.000002746              -0.000267427               0.000963886               0.000696459               0.000000000               0.000000000               0.000000000               0.000000000               0.000118253               0.002641326              -0.000004690              -0.000285820               0.000975707               0.000689886               0.000000000               0.000000000               0.000000000               0.000000000               0.000077390               0.002663476              -0.000011728              -0.000303913               0.000989121               0.000685208               0.000000000               0.000000000               0.000000000               0.000000000               0.000037685               0.002689248              -0.000011218              -0.000322023               0.001003748               0.000681725               0.000000000               0.000000000               0.000000000               0.000000000               0.000021446               0.002710817              -0.000005749              -0.000330809               0.001013866               0.000683057               0.000000000               0.000000000               0.000000000               0.000000000               0.000655216               0.004332378               0.001014561              -0.000295841               0.001542725               0.001246884               0.000000000               0.000000000               0.000000000               0.000000000               0.000565271               0.003685746               0.000674156              -0.000248741               0.001311483               0.001062742               0.000000000               0.000000000               0.000000000               0.000000000               0.000608091               0.003222867               0.000322440              -0.000174824               0.001132553               0.000957729               0.000000000               0.000000000               0.000000000               0.000000000               0.000577072               0.002966895               0.000160749              -0.000154460               0.001040442               0.000885982               0.000000000               0.000000000               0.000000000               0.000000000               0.000524475               0.002816834               0.000082434              -0.000155426               0.000990744               0.000835318               0.000000000               0.000000000               0.000000000               0.000000000               0.000466770               0.002725099               0.000043699              -0.000165598               0.000963557               0.000797958               0.000000000               0.000000000               0.000000000               0.000000000               0.000407972               0.002665586               0.000025420              -0.000180208               0.000948589               0.000768381               0.000000000               0.000000000               0.000000000               0.000000000               0.000352023               0.002630150               0.000016875              -0.000196760               0.000942295               0.000745535               0.000000000               0.000000000               0.000000000               0.000000000               0.000300055               0.002610131               0.000013155              -0.000213745               0.000941283               0.000727538               0.000000000               0.000000000               0.000000000               0.000000000               0.000252572               0.002601247               0.000014073              -0.000230441               0.000943887               0.000713446               0.000000000               0.000000000               0.000000000               0.000000000               0.000209985               0.002599787               0.000015384              -0.000246229               0.000948663               0.000702435               0.000000000               0.000000000               0.000000000               0.000000000               0.000169659               0.002605132               0.000012531              -0.000262019               0.000955708               0.000693689               0.000000000               0.000000000               0.000000000               0.000000000               0.000130035               0.002618072               0.000009225              -0.000278495               0.000965514               0.000687019               0.000000000               0.000000000               0.000000000               0.000000000               0.000091279               0.002637382               0.000005853              -0.000295442               0.000977599               0.000682157               0.000000000               0.000000000               0.000000000               0.000000000               0.000055691               0.002656450              -0.000001819              -0.000311171               0.000989198               0.000678027               0.000000000               0.000000000               0.000000000               0.000000000               0.000026012               0.002675042              -0.000004963              -0.000324625               0.000999880               0.000675255               0.000000000               0.000000000               0.000000000               0.000000000               0.000015472               0.002690845              -0.000001865              -0.000330553               0.001007124               0.000676571               0.000000000               0.000000000               0.000000000               0.000000000               0.000780758               0.003893996               0.001207299              -0.000193966               0.001362641               0.001168675               0.000000000               0.000000000               0.000000000               0.000000000               0.000604634               0.003381494               0.000807074              -0.000195949               0.001192470               0.000996521               0.000000000               0.000000000               0.000000000               0.000000000               0.000556286               0.003059394               0.000399559              -0.000173817               0.001077727               0.000903910               0.000000000               0.000000000               0.000000000               0.000000000               0.000493694               0.002871996               0.000218130              -0.000173864               0.001015277               0.000841413               0.000000000               0.000000000               0.000000000               0.000000000               0.000436018               0.002758544               0.000130162              -0.000181311               0.000979943               0.000798632               0.000000000               0.000000000               0.000000000               0.000000000               0.000381751               0.002684593               0.000087034              -0.000192417               0.000958994               0.000766577               0.000000000               0.000000000               0.000000000               0.000000000               0.000330969               0.002636168               0.000065370              -0.000205407               0.000947183               0.000741776               0.000000000               0.000000000               0.000000000               0.000000000               0.000284925               0.002607922               0.000053360              -0.000219143               0.000942346               0.000723203               0.000000000               0.000000000               0.000000000               0.000000000               0.000241867               0.002592561               0.000046850              -0.000233370               0.000941968               0.000708599               0.000000000               0.000000000               0.000000000               0.000000000               0.000203449               0.002586118               0.000043402              -0.000246971               0.000944354               0.000697384               0.000000000               0.000000000               0.000000000               0.000000000               0.000169758               0.002588547               0.000041099              -0.000259908               0.000949476               0.000689568               0.000000000               0.000000000               0.000000000               0.000000000               0.000136787               0.002596872               0.000034062              -0.000273313               0.000956720               0.000683407               0.000000000               0.000000000               0.000000000               0.000000000               0.000100898               0.002610367               0.000024737              -0.000288458               0.000966267               0.000677808               0.000000000               0.000000000               0.000000000               0.000000000               0.000065687               0.002625447               0.000018760              -0.000303548               0.000976323               0.000672775               0.000000000               0.000000000               0.000000000               0.000000000               0.000038853               0.002635302               0.000012183              -0.000314842               0.000983373               0.000668531               0.000000000               0.000000000               0.000000000               0.000000000               0.000017936               0.002637955               0.000004384              -0.000323018               0.000986982               0.000663965               0.000000000               0.000000000               0.000000000               0.000000000               0.000009916               0.002642082               0.000001893              -0.000326541               0.000989532               0.000662991               0.000000000               0.000000000               0.000000000               0.000000000               0.000888094               0.003409660               0.001306410              -0.000093173               0.001167599               0.001074426               0.000000000               0.000000000               0.000000000               0.000000000               0.000630227               0.003055430               0.000888521              -0.000145594               0.001066998               0.000921404               0.000000000               0.000000000               0.000000000               0.000000000               0.000495470               0.002887190               0.000465426              -0.000175097               0.001020753               0.000845655               0.000000000               0.000000000               0.000000000               0.000000000               0.000411914               0.002770863               0.000279250              -0.000191890               0.000987575               0.000795685               0.000000000               0.000000000               0.000000000               0.000000000               0.000353390               0.002691661               0.000187724              -0.000203936               0.000965190               0.000761254               0.000000000               0.000000000               0.000000000               0.000000000               0.000305577               0.002635855               0.000141181              -0.000214890               0.000950240               0.000735350               0.000000000               0.000000000               0.000000000               0.000000000               0.000264456               0.002600525               0.000114913              -0.000225894               0.000942131               0.000716237               0.000000000               0.000000000               0.000000000               0.000000000               0.000229977               0.002581093               0.000097408              -0.000236395               0.000939154               0.000702759               0.000000000               0.000000000               0.000000000               0.000000000               0.000199264               0.002569926               0.000084096              -0.000246516               0.000938805               0.000692289               0.000000000               0.000000000               0.000000000               0.000000000               0.000168932               0.002565832               0.000072949              -0.000257379               0.000941062               0.000683683               0.000000000               0.000000000               0.000000000               0.000000000               0.000138685               0.002570280               0.000063618              -0.000269278               0.000946511               0.000677233               0.000000000               0.000000000               0.000000000               0.000000000               0.000107210               0.002580895               0.000051424              -0.000282407               0.000954425               0.000672018               0.000000000               0.000000000               0.000000000               0.000000000               0.000077839               0.002591934               0.000036043              -0.000294801               0.000962236               0.000667435               0.000000000               0.000000000               0.000000000               0.000000000               0.000052818               0.002601624               0.000027425              -0.000305395               0.000968998               0.000663602               0.000000000               0.000000000               0.000000000               0.000000000               0.000032269               0.002602307               0.000023394              -0.000313187               0.000971823               0.000658636               0.000000000               0.000000000               0.000000000               0.000000000               0.000015959               0.002598588               0.000012952              -0.000318838               0.000972467               0.000653629               0.000000000               0.000000000               0.000000000               0.000000000               0.000010229               0.002599795               0.000006254              -0.000321138               0.000973636               0.000652498               0.000000000               0.000000000               0.000000000               0.000000000               0.000958094               0.002911851               0.001321444              -0.000004698               0.000972173               0.000967475               0.000000000               0.000000000               0.000000000               0.000000000               0.000639210               0.002727032               0.000926537              -0.000101176               0.000942727               0.000841550               0.000000000               0.000000000               0.000000000               0.000000000               0.000433497               0.002714006               0.000521825              -0.000176689               0.000963556               0.000786867               0.000000000               0.000000000               0.000000000               0.000000000               0.000340888               0.002666370               0.000342228              -0.000205463               0.000957269               0.000751806               0.000000000               0.000000000               0.000000000               0.000000000               0.000287029               0.002619668               0.000249719              -0.000219822               0.000946488               0.000726666               0.000000000               0.000000000               0.000000000               0.000000000               0.000247644               0.002584397               0.000198374              -0.000230182               0.000938184               0.000708002               0.000000000               0.000000000               0.000000000               0.000000000               0.000216692               0.002561794               0.000163465              -0.000238964               0.000933578               0.000694614               0.000000000               0.000000000               0.000000000               0.000000000               0.000192270               0.002549059               0.000136147              -0.000246530               0.000931855               0.000685324               0.000000000               0.000000000               0.000000000               0.000000000               0.000169172               0.002541768               0.000114296              -0.000254281               0.000932008               0.000677727               0.000000000               0.000000000               0.000000000               0.000000000               0.000141724               0.002541354               0.000094437              -0.000264522               0.000935284               0.000670761               0.000000000               0.000000000               0.000000000               0.000000000               0.000113135               0.002550382               0.000076035              -0.000276371               0.000942243               0.000665871               0.000000000               0.000000000               0.000000000               0.000000000               0.000084379               0.002564800               0.000057913              -0.000288957               0.000951244               0.000662287               0.000000000               0.000000000               0.000000000               0.000000000               0.000061628               0.002578936               0.000038617              -0.000299256               0.000959389               0.000660133               0.000000000               0.000000000               0.000000000               0.000000000               0.000048116               0.002587629               0.000028853              -0.000305410               0.000964338               0.000658928               0.000000000               0.000000000               0.000000000               0.000000000               0.000034971               0.002591010               0.000027086              -0.000310761               0.000967248               0.000656487               0.000000000               0.000000000               0.000000000               0.000000000               0.000017824               0.002597233               0.000016432              -0.000317969               0.000971726               0.000653756               0.000000000               0.000000000               0.000000000               0.000000000               0.000011455               0.002605919               0.000009768              -0.000321444               0.000975779               0.000654335               0.000000000               0.000000000               0.000000000               0.000000000               0.000985563               0.002430108               0.001264648               0.000065820               0.000788087               0.000853908               0.000000000               0.000000000               0.000000000               0.000000000               0.000632550               0.002417708               0.000928243              -0.000065008               0.000827564               0.000762556               0.000000000               0.000000000               0.000000000               0.000000000               0.000381218               0.002548077               0.000571782              -0.000175553               0.000907868               0.000732315               0.000000000               0.000000000               0.000000000               0.000000000               0.000288486               0.002558348               0.000402460              -0.000211611               0.000923311               0.000711700               0.000000000               0.000000000               0.000000000               0.000000000               0.000239768               0.002543186               0.000307180              -0.000227985               0.000923715               0.000695730               0.000000000               0.000000000               0.000000000               0.000000000               0.000209474               0.002527825               0.000246880              -0.000237425               0.000921741               0.000684317               0.000000000               0.000000000               0.000000000               0.000000000               0.000187234               0.002518951               0.000201541              -0.000244656               0.000921194               0.000676538               0.000000000               0.000000000               0.000000000               0.000000000               0.000167189               0.002513116               0.000164555              -0.000251443               0.000921511               0.000670068               0.000000000               0.000000000               0.000000000               0.000000000               0.000146360               0.002513794               0.000133906              -0.000259339               0.000924369               0.000665031               0.000000000               0.000000000               0.000000000               0.000000000               0.000122583               0.002524699               0.000104727              -0.000269618               0.000931431               0.000661813               0.000000000               0.000000000               0.000000000               0.000000000               0.000098265               0.002544409               0.000077235              -0.000281201               0.000941861               0.000660660               0.000000000               0.000000000               0.000000000               0.000000000               0.000076474               0.002567215               0.000053777              -0.000292223               0.000953138               0.000660914               0.000000000               0.000000000               0.000000000               0.000000000               0.000062417               0.002586982               0.000036071              -0.000299966               0.000962307               0.000662342               0.000000000               0.000000000               0.000000000               0.000000000               0.000054023               0.002600574               0.000029210              -0.000304812               0.000968453               0.000663641               0.000000000               0.000000000               0.000000000               0.000000000               0.000041607               0.002618941               0.000027462              -0.000311764               0.000976893               0.000665129               0.000000000               0.000000000               0.000000000               0.000000000               0.000021963               0.002642148               0.000017899              -0.000322032               0.000988051               0.000666019               0.000000000               0.000000000               0.000000000               0.000000000               0.000013165               0.002658251               0.000012360              -0.000327344               0.000995189               0.000667846               0.000000000               0.000000000               0.000000000               0.000000000               0.000988889               0.002003233               0.001158936               0.000120427               0.000627595               0.000748022               0.000000000               0.000000000               0.000000000               0.000000000               0.000632483               0.002140810               0.000912331              -0.000030421               0.000723736               0.000693315               0.000000000               0.000000000               0.000000000               0.000000000               0.000358187               0.002395144               0.000629456              -0.000165073               0.000853398               0.000688325               0.000000000               0.000000000               0.000000000               0.000000000               0.000265563               0.002460893               0.000466878              -0.000208025               0.000889631               0.000681606               0.000000000               0.000000000               0.000000000               0.000000000               0.000220259               0.002478047               0.000365475              -0.000227158               0.000901727               0.000674569               0.000000000               0.000000000               0.000000000               0.000000000               0.000193316               0.002484101               0.000294877              -0.000238019               0.000907365               0.000669346               0.000000000               0.000000000               0.000000000               0.000000000               0.000178362               0.002490602               0.000240405              -0.000244439               0.000911672               0.000667233               0.000000000               0.000000000               0.000000000               0.000000000               0.000162884               0.002495619               0.000195467              -0.000250870               0.000915488               0.000664618               0.000000000               0.000000000               0.000000000               0.000000000               0.000143899               0.002508589               0.000155210              -0.000259611               0.000922725               0.000663114               0.000000000               0.000000000               0.000000000               0.000000000               0.000122160               0.002533259               0.000117919              -0.000270847               0.000934693               0.000663847               0.000000000               0.000000000               0.000000000               0.000000000               0.000102455               0.002564153               0.000086121              -0.000282098               0.000948742               0.000666644               0.000000000               0.000000000               0.000000000               0.000000000               0.000085470               0.002591125               0.000061748              -0.000291839               0.000960979               0.000669141               0.000000000               0.000000000               0.000000000               0.000000000               0.000076670               0.002611721               0.000044079              -0.000297713               0.000969803               0.000672089               0.000000000               0.000000000               0.000000000               0.000000000               0.000070552               0.002635059               0.000031904              -0.000302925               0.000979319               0.000676395               0.000000000               0.000000000               0.000000000               0.000000000               0.000056910               0.002668958               0.000024301              -0.000312278               0.000993736               0.000681459               0.000000000               0.000000000               0.000000000               0.000000000               0.000037398               0.002708382               0.000016017              -0.000324523               0.001010959               0.000686437               0.000000000               0.000000000               0.000000000               0.000000000               0.000024138               0.002728731               0.000010336              -0.000332039               0.001020248               0.000688209               0.000000000               0.000000000               0.000000000               0.000000000               0.000960789               0.001583792               0.001029143               0.000162319               0.000473818               0.000636138               0.000000000               0.000000000               0.000000000               0.000000000               0.000647536               0.001812482               0.000888795               0.000016264               0.000598733               0.000614997               0.000000000               0.000000000               0.000000000               0.000000000               0.000376693               0.002157570               0.000697732              -0.000128437               0.000761995               0.000633558               0.000000000               0.000000000               0.000000000               0.000000000               0.000277613               0.002290195               0.000546896              -0.000182169               0.000824114               0.000641944               0.000000000               0.000000000               0.000000000               0.000000000               0.000230974               0.002352323               0.000438913              -0.000207425               0.000853242               0.000645816               0.000000000               0.000000000               0.000000000               0.000000000               0.000200462               0.002390418               0.000358953              -0.000223629               0.000871341               0.000647712               0.000000000               0.000000000               0.000000000               0.000000000               0.000184847               0.002418061               0.000297379              -0.000232940               0.000883659               0.000650719               0.000000000               0.000000000               0.000000000               0.000000000               0.000171765               0.002440857               0.000244430              -0.000240695               0.000893842               0.000653148               0.000000000               0.000000000               0.000000000               0.000000000               0.000155513               0.002466655               0.000196517              -0.000250014               0.000905548               0.000655534               0.000000000               0.000000000               0.000000000               0.000000000               0.000137713               0.002500706               0.000156465              -0.000260945               0.000920542               0.000659597               0.000000000               0.000000000               0.000000000               0.000000000               0.000122237               0.002541321               0.000123672              -0.000271826               0.000937707               0.000665882               0.000000000               0.000000000               0.000000000               0.000000000               0.000109349               0.002581160               0.000097490              -0.000281638               0.000954257               0.000672619               0.000000000               0.000000000               0.000000000               0.000000000               0.000099707               0.002619861               0.000073282              -0.000290092               0.000969976               0.000679884               0.000000000               0.000000000               0.000000000               0.000000000               0.000092207               0.002659472               0.000048799              -0.000297856               0.000985767               0.000687911               0.000000000               0.000000000               0.000000000               0.000000000               0.000078561               0.002698566               0.000029321              -0.000307860               0.001002133               0.000694273               0.000000000               0.000000000               0.000000000               0.000000000               0.000060241               0.002745796               0.000013980              -0.000320633               0.001022134               0.000701501               0.000000000               0.000000000               0.000000000               0.000000000               0.000043392               0.002767454               0.000003487              -0.000329659               0.001032362               0.000702703               0.000000000               0.000000000               0.000000000               0.000000000               0.000886014               0.001184239               0.000875637               0.000184223               0.000333334               0.000517557               0.000000000               0.000000000               0.000000000               0.000000000               0.000662920               0.001478544               0.000840721               0.000063775               0.000471584               0.000535359               0.000000000               0.000000000               0.000000000               0.000000000               0.000428632               0.001884798               0.000747591              -0.000074863               0.000653214               0.000578351               0.000000000               0.000000000               0.000000000               0.000000000               0.000326364               0.002081562               0.000623307              -0.000137809               0.000739783               0.000601974               0.000000000               0.000000000               0.000000000               0.000000000               0.000271657               0.002195042               0.000515617              -0.000172509               0.000789176               0.000616667               0.000000000               0.000000000               0.000000000               0.000000000               0.000235861               0.002270187               0.000431404              -0.000195325               0.000821830               0.000626504               0.000000000               0.000000000               0.000000000               0.000000000               0.000212843               0.002326293               0.000364327              -0.000210970               0.000845747               0.000634776               0.000000000               0.000000000               0.000000000               0.000000000               0.000198856               0.002372985               0.000304331              -0.000222052               0.000865004               0.000642953               0.000000000               0.000000000               0.000000000               0.000000000               0.000184409               0.002413720               0.000252467              -0.000232561               0.000882085               0.000649524               0.000000000               0.000000000               0.000000000               0.000000000               0.000170555               0.002455012               0.000211642              -0.000242918               0.000899302               0.000656384               0.000000000               0.000000000               0.000000000               0.000000000               0.000158634               0.002503474               0.000177830              -0.000253446               0.000918965               0.000665519               0.000000000               0.000000000               0.000000000               0.000000000               0.000146316               0.002556295               0.000146698              -0.000264668               0.000940312               0.000675645               0.000000000               0.000000000               0.000000000               0.000000000               0.000131951               0.002612574               0.000114347              -0.000277089               0.000963212               0.000686123               0.000000000               0.000000000               0.000000000               0.000000000               0.000119176               0.002668298               0.000080217              -0.000288845               0.000985706               0.000696860               0.000000000               0.000000000               0.000000000               0.000000000               0.000104440               0.002714831               0.000049042              -0.000300188               0.001004997               0.000704809               0.000000000               0.000000000               0.000000000               0.000000000               0.000082859               0.002758285               0.000023081              -0.000313713               0.001023990               0.000710277               0.000000000               0.000000000               0.000000000               0.000000000               0.000059809               0.002771388               0.000006674              -0.000323994               0.001031785               0.000707791               0.000000000               0.000000000               0.000000000               0.000000000               0.000767946               0.000827677               0.000700196               0.000184518               0.000214383               0.000398901               0.000000000               0.000000000               0.000000000               0.000000000               0.000658950               0.001152039               0.000754246               0.000103100               0.000349642               0.000452742               0.000000000               0.000000000               0.000000000               0.000000000               0.000495694               0.001579395               0.000749604              -0.000011540               0.000530306               0.000518766               0.000000000               0.000000000               0.000000000               0.000000000               0.000404540               0.001826838               0.000661522              -0.000076653               0.000634491               0.000557838               0.000000000               0.000000000               0.000000000               0.000000000               0.000344166               0.001987068               0.000566852              -0.000119321               0.000702123               0.000582802               0.000000000               0.000000000               0.000000000               0.000000000               0.000302857               0.002103698               0.000484592              -0.000149391               0.000751023               0.000601632               0.000000000               0.000000000               0.000000000               0.000000000               0.000269751               0.002194063               0.000416252              -0.000173101               0.000789047               0.000615946               0.000000000               0.000000000               0.000000000               0.000000000               0.000248793               0.002267019               0.000354207              -0.000190080               0.000819025               0.000628946               0.000000000               0.000000000               0.000000000               0.000000000               0.000233859               0.002329189               0.000300588              -0.000203451               0.000844206               0.000640755               0.000000000               0.000000000               0.000000000               0.000000000               0.000217758               0.002383019               0.000260187              -0.000216218               0.000866404               0.000650187               0.000000000               0.000000000               0.000000000               0.000000000               0.000204711               0.002441200               0.000226259              -0.000228383               0.000889853               0.000661470               0.000000000               0.000000000               0.000000000               0.000000000               0.000192771               0.002507923               0.000190433              -0.000241201               0.000916366               0.000675165               0.000000000               0.000000000               0.000000000               0.000000000               0.000178243               0.002583118               0.000152049              -0.000256048               0.000946380               0.000690332               0.000000000               0.000000000               0.000000000               0.000000000               0.000159355               0.002656078               0.000112452              -0.000272251               0.000976101               0.000703850               0.000000000               0.000000000               0.000000000               0.000000000               0.000137047               0.002717829               0.000073879              -0.000288335               0.001002046               0.000713710               0.000000000               0.000000000               0.000000000               0.000000000               0.000109605               0.002764428               0.000035966              -0.000304451               0.001022950               0.000718500               0.000000000               0.000000000               0.000000000               0.000000000               0.000081595               0.002774613               0.000012638              -0.000316228               0.001030271               0.000714043               0.000000000               0.000000000               0.000000000               0.000000000               0.000618563               0.000536540               0.000521066               0.000164892               0.000123880               0.000288772               0.000000000               0.000000000               0.000000000               0.000000000               0.000637383               0.000852163               0.000634664               0.000132496               0.000239886               0.000372382               0.000000000               0.000000000               0.000000000               0.000000000               0.000567308               0.001265126               0.000695723               0.000054599               0.000403505               0.000458103               0.000000000               0.000000000               0.000000000               0.000000000               0.000500624               0.001543029               0.000644874              -0.000005145               0.000516053               0.000510907               0.000000000               0.000000000               0.000000000               0.000000000               0.000442885               0.001740902               0.000572147              -0.000051531               0.000597472               0.000545940               0.000000000               0.000000000               0.000000000               0.000000000               0.000395595               0.001896983               0.000500432              -0.000088775               0.000661913               0.000573138               0.000000000               0.000000000               0.000000000               0.000000000               0.000356009               0.002022549               0.000436353              -0.000119315               0.000713948               0.000594633               0.000000000               0.000000000               0.000000000               0.000000000               0.000324001               0.002125036               0.000378519              -0.000144129               0.000756381               0.000612252               0.000000000               0.000000000               0.000000000               0.000000000               0.000303868               0.002214609               0.000327048              -0.000162875               0.000792487               0.000629612               0.000000000               0.000000000               0.000000000               0.000000000               0.000281728               0.002289647               0.000287107              -0.000180558               0.000823394               0.000642836               0.000000000               0.000000000               0.000000000               0.000000000               0.000258960               0.002361042               0.000255049              -0.000198020               0.000853013               0.000654993               0.000000000               0.000000000               0.000000000               0.000000000               0.000242213               0.002440706               0.000219373              -0.000214258               0.000884980               0.000670722               0.000000000               0.000000000               0.000000000               0.000000000               0.000228218               0.002529817               0.000177398              -0.000230645               0.000920146               0.000689501               0.000000000               0.000000000               0.000000000               0.000000000               0.000209909               0.002619862               0.000133156              -0.000248766               0.000956201               0.000707435               0.000000000               0.000000000               0.000000000               0.000000000               0.000186803               0.002698528               0.000092316              -0.000267264               0.000988589               0.000721324               0.000000000               0.000000000               0.000000000               0.000000000               0.000157863               0.002755841               0.000050334              -0.000285281               0.001013698               0.000728417               0.000000000               0.000000000               0.000000000               0.000000000               0.000130025               0.002772289               0.000023878              -0.000297776               0.001023346               0.000725570               0.000000000               0.000000000               0.000000000               0.000000000               0.000459466               0.000317307               0.000356748               0.000132635               0.000061556               0.000194191               0.000000000               0.000000000               0.000000000               0.000000000               0.000602431               0.000598497               0.000491197               0.000151098               0.000149131               0.000300229               0.000000000               0.000000000               0.000000000               0.000000000               0.000633158               0.000971861               0.000584094               0.000115950               0.000285300               0.000401250               0.000000000               0.000000000               0.000000000               0.000000000               0.000601104               0.001260853               0.000564994               0.000067806               0.000397678               0.000465484               0.000000000               0.000000000               0.000000000               0.000000000               0.000552040               0.001487892               0.000516007               0.000021028               0.000488950               0.000509977               0.000000000               0.000000000               0.000000000               0.000000000               0.000502147               0.001674672               0.000461706              -0.000021029               0.000565228               0.000544199               0.000000000               0.000000000               0.000000000               0.000000000               0.000455449               0.001831449               0.000409150              -0.000058138               0.000629856               0.000571718               0.000000000               0.000000000               0.000000000               0.000000000               0.000414725               0.001966782               0.000361807              -0.000090326               0.000685696               0.000595370               0.000000000               0.000000000               0.000000000               0.000000000               0.000382913               0.002086213               0.000317309              -0.000117184               0.000734459               0.000617275               0.000000000               0.000000000               0.000000000               0.000000000               0.000354521               0.002190995               0.000279334              -0.000140929               0.000777300               0.000636372               0.000000000               0.000000000               0.000000000               0.000000000               0.000321928               0.002279689               0.000250056              -0.000164238               0.000814635               0.000650397               0.000000000               0.000000000               0.000000000               0.000000000               0.000293680               0.002367412               0.000220514              -0.000185796               0.000851062               0.000665265               0.000000000               0.000000000               0.000000000               0.000000000               0.000278603               0.002465909               0.000182717              -0.000203762               0.000889882               0.000686120               0.000000000               0.000000000               0.000000000               0.000000000               0.000269500               0.002568177               0.000141202              -0.000219959               0.000929370               0.000709411               0.000000000               0.000000000               0.000000000               0.000000000               0.000257572               0.002661059               0.000101953              -0.000236042               0.000965692               0.000729649               0.000000000               0.000000000               0.000000000               0.000000000               0.000235877               0.002737558               0.000056691              -0.000253740               0.000997090               0.000743350               0.000000000               0.000000000               0.000000000               0.000000000               0.000212424               0.002766419               0.000028410              -0.000266143               0.001010845               0.000744702               0.000000000               0.000000000               0.000000000               0.000000000               0.000319854               0.000170854               0.000215702               0.000098588               0.000024088               0.000122676               0.000000000               0.000000000               0.000000000               0.000000000               0.000563400               0.000407151               0.000332592               0.000160380               0.000082256               0.000242635               0.000000000               0.000000000               0.000000000               0.000000000               0.000684467               0.000732973               0.000421328               0.000165052               0.000189304               0.000354356               0.000000000               0.000000000               0.000000000               0.000000000               0.000691248               0.001021397               0.000421324               0.000131542               0.000296615               0.000428157               0.000000000               0.000000000               0.000000000               0.000000000               0.000653560               0.001264525               0.000394436               0.000087019               0.000392498               0.000479516               0.000000000               0.000000000               0.000000000               0.000000000               0.000602601               0.001473320               0.000359027               0.000041810               0.000477165               0.000518975               0.000000000               0.000000000               0.000000000               0.000000000               0.000548906               0.001656195               0.000323238              -0.000001185               0.000552454               0.000551269               0.000000000               0.000000000               0.000000000               0.000000000               0.000499294               0.001817866               0.000289716              -0.000039998               0.000619282               0.000579284               0.000000000               0.000000000               0.000000000               0.000000000               0.000456853               0.001961925               0.000257176              -0.000073921               0.000678609               0.000604688               0.000000000               0.000000000               0.000000000               0.000000000               0.000422240               0.002089696               0.000226288              -0.000102872               0.000730849               0.000627977               0.000000000               0.000000000               0.000000000               0.000000000               0.000384963               0.002198355               0.000200194              -0.000130433               0.000776255               0.000645822               0.000000000               0.000000000               0.000000000               0.000000000               0.000351171               0.002299040               0.000180782              -0.000155690               0.000818236               0.000662545               0.000000000               0.000000000               0.000000000               0.000000000               0.000334790               0.002400737               0.000158012              -0.000174545               0.000858420               0.000683874               0.000000000               0.000000000               0.000000000               0.000000000               0.000333009               0.002507624               0.000124972              -0.000188574               0.000898724               0.000710150               0.000000000               0.000000000               0.000000000               0.000000000               0.000330050               0.002615727               0.000087525              -0.000203197               0.000939633               0.000736436               0.000000000               0.000000000               0.000000000               0.000000000               0.000329243               0.002715075               0.000047022              -0.000215918               0.000976988               0.000761071               0.000000000               0.000000000               0.000000000               0.000000000               0.000326801               0.002758184               0.000024083              -0.000222222               0.000993460               0.000771238               0.000000000               0.000000000               0.000000000               0.000000000               0.000223993               0.000090600               0.000100032               0.000072672               0.000005976               0.000078647               0.000000000               0.000000000               0.000000000               0.000000000               0.000532223               0.000289496               0.000167388               0.000163395               0.000042033               0.000205428               0.000000000               0.000000000               0.000000000               0.000000000               0.000714106               0.000576451               0.000220831               0.000195731               0.000126905               0.000322636               0.000000000               0.000000000               0.000000000               0.000000000               0.000750727               0.000860186               0.000225501               0.000173998               0.000228727               0.000402724               0.000000000               0.000000000               0.000000000               0.000000000               0.000725953               0.001110747               0.000214353               0.000133388               0.000325783               0.000459171               0.000000000               0.000000000               0.000000000               0.000000000               0.000677166               0.001332939               0.000196803               0.000087319               0.000415202               0.000502521               0.000000000               0.000000000               0.000000000               0.000000000               0.000621282               0.001531306               0.000178799               0.000041567               0.000496575               0.000538142               0.000000000               0.000000000               0.000000000               0.000000000               0.000564197               0.001705713               0.000162304              -0.000001640               0.000569112               0.000567472               0.000000000               0.000000000               0.000000000               0.000000000               0.000512381               0.001863741               0.000145797              -0.000040825               0.000634849               0.000594024               0.000000000               0.000000000               0.000000000               0.000000000               0.000469699               0.002008291               0.000126392              -0.000074899               0.000694390               0.000619491               0.000000000               0.000000000               0.000000000               0.000000000               0.000434739               0.002136397               0.000109355              -0.000104022               0.000746799               0.000642777               0.000000000               0.000000000               0.000000000               0.000000000               0.000404178               0.002248423               0.000102820              -0.000129486               0.000792629               0.000663143               0.000000000               0.000000000               0.000000000               0.000000000               0.000379898               0.002352556               0.000096504              -0.000151607               0.000834713               0.000683106               0.000000000               0.000000000               0.000000000               0.000000000               0.000370589               0.002460369               0.000073944              -0.000168575               0.000876307               0.000707732               0.000000000               0.000000000               0.000000000               0.000000000               0.000378517               0.002572555               0.000047317              -0.000179625               0.000917385               0.000737760               0.000000000               0.000000000               0.000000000               0.000000000               0.000404219               0.002686844               0.000026855              -0.000184273               0.000957030               0.000772757               0.000000000               0.000000000               0.000000000               0.000000000               0.000424035               0.002743817               0.000016425              -0.000183964               0.000975918               0.000791954               0.000000000               0.000000000               0.000000000               0.000000000               0.000189217               0.000065127               0.000000000               0.000062815               0.000000770               0.000063585               0.000000000               0.000000000               0.000000000               0.000000000               0.000519849               0.000249551              -0.000000000               0.000163748               0.000028600               0.000192348               0.000000000               0.000000000               0.000000000               0.000000000               0.000722765               0.000521658              -0.000000000               0.000205828               0.000105275               0.000311103               0.000000000               0.000000000               0.000000000               0.000000000               0.000769954               0.000803069              -0.000000000               0.000188347               0.000204905               0.000393252               0.000000000               0.000000000               0.000000000               0.000000000               0.000750323               0.001053990               0.000000000               0.000149621               0.000301453               0.000451074               0.000000000               0.000000000               0.000000000               0.000000000               0.000704935               0.001280170               0.000000000               0.000104328               0.000391943               0.000496271               0.000000000               0.000000000               0.000000000               0.000000000               0.000650819               0.001486633               0.000000000               0.000058227               0.000476130               0.000534358               0.000000000               0.000000000               0.000000000               0.000000000               0.000592567               0.001666739               0.000000000               0.000013870               0.000550951               0.000564821               0.000000000               0.000000000               0.000000000               0.000000000               0.000533579               0.001824879              -0.000000000              -0.000028018               0.000617626               0.000589609               0.000000000               0.000000000               0.000000000               0.000000000               0.000485831               0.001975771              -0.000000000              -0.000064785               0.000680179               0.000615394               0.000000000               0.000000000               0.000000000               0.000000000               0.000455625               0.002116345               0.000000000              -0.000093683               0.000736669               0.000642986               0.000000000               0.000000000               0.000000000               0.000000000               0.000428669               0.002231591               0.000000000              -0.000118198               0.000783256               0.000665058               0.000000000               0.000000000               0.000000000               0.000000000               0.000396247               0.002336633               0.000000000              -0.000143486               0.000826698               0.000683212               0.000000000               0.000000000               0.000000000               0.000000000               0.000378028               0.002442536              -0.000000000              -0.000163556               0.000868689               0.000705133               0.000000000               0.000000000               0.000000000               0.000000000               0.000394306               0.002550735               0.000000000              -0.000170977               0.000907229               0.000736252               0.000000000               0.000000000               0.000000000               0.000000000               0.000433704               0.002672608               0.000000000              -0.000171437               0.000948006               0.000776569               0.000000000               0.000000000               0.000000000               0.000000000               0.000461246               0.002738106               0.000000000              -0.000169296               0.000969125               0.000799829               0.000000000               0.000000000               0.000000000               0.000000000               0.000418919               0.004970827              -0.000000000              -0.000464258               0.001811678               0.001347421               0.000000000               0.000000000               0.000000000               0.000000000               0.000471589               0.004145985              -0.000000000              -0.000341401               0.001495782               0.001154380               0.000000000               0.000000000               0.000000000               0.000000000               0.000668914               0.003478492              -0.000000000              -0.000183968               0.001220808               0.001036840               0.000000000               0.000000000               0.000000000               0.000000000               0.000704285               0.003112427              -0.000000000              -0.000124946               0.001079114               0.000954168               0.000000000               0.000000000               0.000000000               0.000000000               0.000674560               0.002899882               0.000000000              -0.000109525               0.001003126               0.000893601               0.000000000               0.000000000               0.000000000               0.000000000               0.000622056               0.002770077               0.000000000              -0.000112988               0.000961012               0.000848024               0.000000000               0.000000000               0.000000000               0.000000000               0.000557377               0.002691549               0.000000000              -0.000127427               0.000939650               0.000812223               0.000000000               0.000000000               0.000000000               0.000000000               0.000490958               0.002647764               0.000000000              -0.000146861               0.000931533               0.000784672               0.000000000               0.000000000               0.000000000               0.000000000               0.000427655               0.002623081              -0.000000000              -0.000167514               0.000930190               0.000762676               0.000000000               0.000000000               0.000000000               0.000000000               0.000367135               0.002612822               0.000000000              -0.000188927               0.000933907               0.000744981               0.000000000               0.000000000               0.000000000               0.000000000               0.000308209               0.002610342               0.000000000              -0.000210714               0.000940343               0.000729629               0.000000000               0.000000000               0.000000000               0.000000000               0.000253178               0.002616873               0.000000000              -0.000232167               0.000949671               0.000717504               0.000000000               0.000000000               0.000000000               0.000000000               0.000201834               0.002629251               0.000000000              -0.000252968               0.000960731               0.000707763               0.000000000               0.000000000               0.000000000               0.000000000               0.000152048               0.002645736               0.000000000              -0.000273698               0.000973136               0.000699438               0.000000000               0.000000000               0.000000000               0.000000000               0.000100978               0.002667315               0.000000000              -0.000295547               0.000987612               0.000692065               0.000000000               0.000000000               0.000000000               0.000000000               0.000049085               0.002693325              -0.000000000              -0.000318258               0.001003852               0.000685594               0.000000000               0.000000000               0.000000000               0.000000000               0.000025417               0.002711140              -0.000000000              -0.000329360               0.001013491               0.000684131               0.000000000               0.000000000               0.000000000               0.000000000               0.000452725               0.004898708              -0.000385844              -0.000442566               0.001780408               0.001337842               0.000000000               0.000000000               0.000000000               0.000000000               0.000487880               0.004093610              -0.000256169              -0.000328746               0.001474105               0.001145359               0.000000000               0.000000000               0.000000000               0.000000000               0.000663907               0.003450962              -0.000119114              -0.000182405               0.001211111               0.001028706               0.000000000               0.000000000               0.000000000               0.000000000               0.000688678               0.003098032              -0.000052633              -0.000129000               0.001075667               0.000946667               0.000000000               0.000000000               0.000000000               0.000000000               0.000656252               0.002892176              -0.000019911              -0.000115427               0.001002525               0.000887098               0.000000000               0.000000000               0.000000000               0.000000000               0.000603150               0.002769506              -0.000003655              -0.000120007               0.000963162               0.000843155               0.000000000               0.000000000               0.000000000               0.000000000               0.000539617               0.002694654               0.000005462              -0.000134475               0.000943034               0.000808559               0.000000000               0.000000000               0.000000000               0.000000000               0.000473436               0.002648903               0.000009054              -0.000153574               0.000934150               0.000780576               0.000000000               0.000000000               0.000000000               0.000000000               0.000409258               0.002624308               0.000009379              -0.000174566               0.000932949               0.000758383               0.000000000               0.000000000               0.000000000               0.000000000               0.000349903               0.002613670               0.000008288              -0.000195494               0.000936379               0.000740885               0.000000000               0.000000000               0.000000000               0.000000000               0.000294744               0.002612650               0.000007166              -0.000216052               0.000942892               0.000726840               0.000000000               0.000000000               0.000000000               0.000000000               0.000240187               0.002617316               0.000007012              -0.000237094               0.000951461               0.000714367               0.000000000               0.000000000               0.000000000               0.000000000               0.000189174               0.002628669               0.000005796              -0.000257643               0.000962095               0.000704452               0.000000000               0.000000000               0.000000000               0.000000000               0.000141407               0.002644249               0.000006233              -0.000277503               0.000973908               0.000696406               0.000000000               0.000000000               0.000000000               0.000000000               0.000093881               0.002666098               0.000010201              -0.000298056               0.000988043               0.000689986               0.000000000               0.000000000               0.000000000               0.000000000               0.000045894               0.002692161               0.000008805              -0.000319309               0.001003814               0.000684505               0.000000000               0.000000000               0.000000000               0.000000000               0.000024848               0.002712199               0.000004191              -0.000329706               0.001013959               0.000684253               0.000000000               0.000000000               0.000000000               0.000000000               0.000538176               0.004681242              -0.000733895              -0.000383338               0.001688178               0.001304839               0.000000000               0.000000000               0.000000000               0.000000000               0.000523510               0.003935759              -0.000487465              -0.000295653               0.001410458               0.001114805               0.000000000               0.000000000               0.000000000               0.000000000               0.000645698               0.003363004              -0.000229475              -0.000178238               0.001180403               0.001002164               0.000000000               0.000000000               0.000000000               0.000000000               0.000645402               0.003048064              -0.000106333              -0.000138982               0.001062339               0.000923357               0.000000000               0.000000000               0.000000000               0.000000000               0.000602015               0.002863617              -0.000045436              -0.000132196               0.000998595               0.000866399               0.000000000               0.000000000               0.000000000               0.000000000               0.000546305               0.002754642              -0.000015307              -0.000139466               0.000964693               0.000825228               0.000000000               0.000000000               0.000000000               0.000000000               0.000484859               0.002687493              -0.000001648              -0.000154114               0.000947193               0.000793079               0.000000000               0.000000000               0.000000000               0.000000000               0.000420935               0.002644472               0.000004241              -0.000172708               0.000939051               0.000766343               0.000000000               0.000000000               0.000000000               0.000000000               0.000361632               0.002621273               0.000006329              -0.000192047               0.000937764               0.000745718               0.000000000               0.000000000               0.000000000               0.000000000               0.000308589               0.002611109               0.000005405              -0.000210667               0.000940583               0.000729916               0.000000000               0.000000000               0.000000000               0.000000000               0.000257558               0.002608863               0.000003229              -0.000229523               0.000946120               0.000716597               0.000000000               0.000000000               0.000000000               0.000000000               0.000207765               0.002612929               0.000003130              -0.000248704               0.000953869               0.000705165               0.000000000               0.000000000               0.000000000               0.000000000               0.000161613               0.002624256               0.000002746              -0.000267427               0.000963886               0.000696459               0.000000000               0.000000000               0.000000000               0.000000000               0.000118253               0.002641326               0.000004690              -0.000285820               0.000975707               0.000689886               0.000000000               0.000000000               0.000000000               0.000000000               0.000077390               0.002663476               0.000011728              -0.000303913               0.000989121               0.000685208               0.000000000               0.000000000               0.000000000               0.000000000               0.000037685               0.002689248               0.000011218              -0.000322023               0.001003748               0.000681725               0.000000000               0.000000000               0.000000000               0.000000000               0.000021446               0.002710817               0.000005749              -0.000330809               0.001013866               0.000683057               0.000000000               0.000000000               0.000000000               0.000000000               0.000655216               0.004332378              -0.001014561              -0.000295841               0.001542725               0.001246884               0.000000000               0.000000000               0.000000000               0.000000000               0.000565271               0.003685746              -0.000674156              -0.000248741               0.001311483               0.001062742               0.000000000               0.000000000               0.000000000               0.000000000               0.000608091               0.003222867              -0.000322440              -0.000174824               0.001132553               0.000957729               0.000000000               0.000000000               0.000000000               0.000000000               0.000577072               0.002966895              -0.000160749              -0.000154460               0.001040442               0.000885982               0.000000000               0.000000000               0.000000000               0.000000000               0.000524475               0.002816834              -0.000082434              -0.000155426               0.000990744               0.000835318               0.000000000               0.000000000               0.000000000               0.000000000               0.000466770               0.002725099              -0.000043699              -0.000165598               0.000963557               0.000797958               0.000000000               0.000000000               0.000000000               0.000000000               0.000407972               0.002665586              -0.000025420              -0.000180208               0.000948589               0.000768381               0.000000000               0.000000000               0.000000000               0.000000000               0.000352023               0.002630150              -0.000016875              -0.000196760               0.000942295               0.000745535               0.000000000               0.000000000               0.000000000               0.000000000               0.000300055               0.002610131              -0.000013155              -0.000213745               0.000941283               0.000727538               0.000000000               0.000000000               0.000000000               0.000000000               0.000252572               0.002601247              -0.000014073              -0.000230441               0.000943887               0.000713446               0.000000000               0.000000000               0.000000000               0.000000000               0.000209985               0.002599787              -0.000015384              -0.000246229               0.000948663               0.000702435               0.000000000               0.000000000               0.000000000               0.000000000               0.000169659               0.002605132              -0.000012531              -0.000262019               0.000955708               0.000693689               0.000000000               0.000000000               0.000000000               0.000000000               0.000130035               0.002618072              -0.000009225              -0.000278495               0.000965514               0.000687019               0.000000000               0.000000000               0.000000000               0.000000000               0.000091279               0.002637382              -0.000005853              -0.000295442               0.000977599               0.000682157               0.000000000               0.000000000               0.000000000               0.000000000               0.000055691               0.002656450               0.000001819              -0.000311171               0.000989198               0.000678027               0.000000000               0.000000000               0.000000000               0.000000000               0.000026012               0.002675042               0.000004963              -0.000324625               0.000999880               0.000675255               0.000000000               0.000000000               0.000000000               0.000000000               0.000015472               0.002690845               0.000001865              -0.000330553               0.001007124               0.000676571               0.000000000               0.000000000               0.000000000               0.000000000               0.000780758               0.003893996              -0.001207299              -0.000193966               0.001362641               0.001168675               0.000000000               0.000000000               0.000000000               0.000000000               0.000604634               0.003381494              -0.000807074              -0.000195949               0.001192470               0.000996521               0.000000000               0.000000000               0.000000000               0.000000000               0.000556286               0.003059394              -0.000399559              -0.000173817               0.001077727               0.000903910               0.000000000               0.000000000               0.000000000               0.000000000               0.000493694               0.002871996              -0.000218130              -0.000173864               0.001015277               0.000841413               0.000000000               0.000000000               0.000000000               0.000000000               0.000436018               0.002758544              -0.000130162              -0.000181311               0.000979943               0.000798632               0.000000000               0.000000000               0.000000000               0.000000000               0.000381751               0.002684593              -0.000087034              -0.000192417               0.000958994               0.000766577               0.000000000               0.000000000               0.000000000               0.000000000               0.000330969               0.002636168              -0.000065370              -0.000205407               0.000947183               0.000741776               0.000000000               0.000000000               0.000000000               0.000000000               0.000284925               0.002607922              -0.000053360              -0.000219143               0.000942346               0.000723203               0.000000000               0.000000000               0.000000000               0.000000000               0.000241867               0.002592561              -0.000046850              -0.000233370               0.000941968               0.000708599               0.000000000               0.000000000               0.000000000               0.000000000               0.000203449               0.002586118              -0.000043402              -0.000246971               0.000944354               0.000697384               0.000000000               0.000000000               0.000000000               0.000000000               0.000169758               0.002588547              -0.000041099              -0.000259908               0.000949476               0.000689568               0.000000000               0.000000000               0.000000000               0.000000000               0.000136787               0.002596872              -0.000034062              -0.000273313               0.000956720               0.000683407               0.000000000               0.000000000               0.000000000               0.000000000               0.000100898               0.002610367              -0.000024737              -0.000288458               0.000966267               0.000677808               0.000000000               0.000000000               0.000000000               0.000000000               0.000065687               0.002625447              -0.000018760              -0.000303548               0.000976323               0.000672775               0.000000000               0.000000000               0.000000000               0.000000000               0.000038853               0.002635302              -0.000012183              -0.000314842               0.000983373               0.000668531               0.000000000               0.000000000               0.000000000               0.000000000               0.000017936               0.002637955              -0.000004384              -0.000323018               0.000986982               0.000663965               0.000000000               0.000000000               0.000000000               0.000000000               0.000009916               0.002642082              -0.000001893              -0.000326541               0.000989532               0.000662991               0.000000000               0.000000000               0.000000000               0.000000000               0.000888094               0.003409660              -0.001306410              -0.000093173               0.001167599               0.001074426               0.000000000               0.000000000               0.000000000               0.000000000               0.000630227               0.003055430              -0.000888521              -0.000145594               0.001066998               0.000921404               0.000000000               0.000000000               0.000000000               0.000000000               0.000495470               0.002887190              -0.000465426              -0.000175097               0.001020753               0.000845655               0.000000000               0.000000000               0.000000000               0.000000000               0.000411914               0.002770863              -0.000279250              -0.000191890               0.000987575               0.000795685               0.000000000               0.000000000               0.000000000               0.000000000               0.000353390               0.002691661              -0.000187724              -0.000203936               0.000965190               0.000761254               0.000000000               0.000000000               0.000000000               0.000000000               0.000305577               0.002635855              -0.000141181              -0.000214890               0.000950240               0.000735350               0.000000000               0.000000000               0.000000000               0.000000000               0.000264456               0.002600525              -0.000114913              -0.000225894               0.000942131               0.000716237               0.000000000               0.000000000               0.000000000               0.000000000               0.000229977               0.002581093              -0.000097408              -0.000236395               0.000939154               0.000702759               0.000000000               0.000000000               0.000000000               0.000000000               0.000199264               0.002569926              -0.000084096              -0.000246516               0.000938805               0.000692289               0.000000000               0.000000000               0.000000000               0.000000000               0.000168932               0.002565832              -0.000072949              -0.000257379               0.000941062               0.000683683               0.000000000               0.000000000               0.000000000               0.000000000               0.000138685               0.002570280              -0.000063618              -0.000269278               0.000946511               0.000677233               0.000000000               0.000000000               0.000000000               0.000000000               0.000107210               0.002580895              -0.000051424              -0.000282407               0.000954425               0.000672018               0.000000000               0.000000000               0.000000000               0.000000000               0.000077839               0.002591934              -0.000036043              -0.000294801               0.000962236               0.000667435               0.000000000               0.000000000               0.000000000               0.000000000               0.000052818               0.002601624              -0.000027425              -0.000305395               0.000968998               0.000663602               0.000000000               0.000000000               0.000000000               0.000000000               0.000032269               0.002602307              -0.000023394              -0.000313187               0.000971823               0.000658636               0.000000000               0.000000000               0.000000000               0.000000000               0.000015959               0.002598588              -0.000012952              -0.000318838               0.000972467               0.000653629               0.000000000               0.000000000               0.000000000               0.000000000               0.000010229               0.002599795              -0.000006254              -0.000321138               0.000973636               0.000652498               0.000000000               0.000000000               0.000000000               0.000000000               0.000958094               0.002911851              -0.001321444              -0.000004698               0.000972173               0.000967475               0.000000000               0.000000000               0.000000000               0.000000000               0.000639210               0.002727032              -0.000926537              -0.000101176               0.000942727               0.000841550               0.000000000               0.000000000               0.000000000               0.000000000               0.000433497               0.002714006              -0.000521825              -0.000176689               0.000963556               0.000786867               0.000000000               0.000000000               0.000000000               0.000000000               0.000340888               0.002666370              -0.000342228              -0.000205463               0.000957269               0.000751806               0.000000000               0.000000000               0.000000000               0.000000000               0.000287029               0.002619668              -0.000249719              -0.000219822               0.000946488               0.000726666               0.000000000               0.000000000               0.000000000               0.000000000               0.000247644               0.002584397              -0.000198374              -0.000230182               0.000938184               0.000708002               0.000000000               0.000000000               0.000000000               0.000000000               0.000216692               0.002561794              -0.000163465              -0.000238964               0.000933578               0.000694614               0.000000000               0.000000000               0.000000000               0.000000000               0.000192270               0.002549059              -0.000136147              -0.000246530               0.000931855               0.000685324               0.000000000               0.000000000               0.000000000               0.000000000               0.000169172               0.002541768              -0.000114296              -0.000254281               0.000932008               0.000677727               0.000000000               0.000000000               0.000000000               0.000000000               0.000141724               0.002541354              -0.000094437              -0.000264522               0.000935284               0.000670761               0.000000000               0.000000000               0.000000000               0.000000000               0.000113135               0.002550382              -0.000076035              -0.000276371               0.000942243               0.000665871               0.000000000               0.000000000               0.000000000               0.000000000               0.000084379               0.002564800              -0.000057913              -0.000288957               0.000951244               0.000662287               0.000000000               0.000000000               0.000000000               0.000000000               0.000061628               0.002578936              -0.000038617              -0.000299256               0.000959389               0.000660133               0.000000000               0.000000000               0.000000000               0.000000000               0.000048116               0.002587629              -0.000028853              -0.000305410               0.000964338               0.000658928               0.000000000               0.000000000               0.000000000               0.000000000               0.000034971               0.002591010              -0.000027086              -0.000310761               0.000967248               0.000656487               0.000000000               0.000000000               0.000000000               0.000000000               0.000017824               0.002597233              -0.000016432              -0.000317969               0.000971726               0.000653756               0.000000000               0.000000000               0.000000000               0.000000000               0.000011455               0.002605919              -0.000009768              -0.000321444               0.000975779               0.000654335               0.000000000               0.000000000               0.000000000               0.000000000               0.000985563               0.002430108              -0.001264648               0.000065820               0.000788087               0.000853908               0.000000000               0.000000000               0.000000000               0.000000000               0.000632550               0.002417708              -0.000928243              -0.000065008               0.000827564               0.000762556               0.000000000               0.000000000               0.000000000               0.000000000               0.000381218               0.002548077              -0.000571782              -0.000175553               0.000907868               0.000732315               0.000000000               0.000000000               0.000000000               0.000000000               0.000288486               0.002558348              -0.000402460              -0.000211611               0.000923311               0.000711700               0.000000000               0.000000000               0.000000000               0.000000000               0.000239768               0.002543186              -0.000307180              -0.000227985               0.000923715               0.000695730               0.000000000               0.000000000               0.000000000               0.000000000               0.000209474               0.002527825              -0.000246880              -0.000237425               0.000921741               0.000684317               0.000000000               0.000000000               0.000000000               0.000000000               0.000187234               0.002518951              -0.000201541              -0.000244656               0.000921194               0.000676538               0.000000000               0.000000000               0.000000000               0.000000000               0.000167189               0.002513116              -0.000164555              -0.000251443               0.000921511               0.000670068               0.000000000               0.000000000               0.000000000               0.000000000               0.000146360               0.002513794              -0.000133906              -0.000259339               0.000924369               0.000665031               0.000000000               0.000000000               0.000000000               0.000000000               0.000122583               0.002524699              -0.000104727              -0.000269618               0.000931431               0.000661813               0.000000000               0.000000000               0.000000000               0.000000000               0.000098265               0.002544409              -0.000077235              -0.000281201               0.000941861               0.000660660               0.000000000               0.000000000               0.000000000               0.000000000               0.000076474               0.002567215              -0.000053777              -0.000292223               0.000953138               0.000660914               0.000000000               0.000000000               0.000000000               0.000000000               0.000062417               0.002586982              -0.000036071              -0.000299966               0.000962307               0.000662342               0.000000000               0.000000000               0.000000000               0.000000000               0.000054023               0.002600574              -0.000029210              -0.000304812               0.000968453               0.000663641               0.000000000               0.000000000               0.000000000               0.000000000               0.000041607               0.002618941              -0.000027462              -0.000311764               0.000976893               0.000665129               0.000000000               0.000000000               0.000000000               0.000000000               0.000021963               0.002642148              -0.000017899              -0.000322032               0.000988051               0.000666019               0.000000000               0.000000000               0.000000000               0.000000000               0.000013165               0.002658251              -0.000012360              -0.000327344               0.000995189               0.000667846               0.000000000               0.000000000               0.000000000               0.000000000               0.000988889               0.002003233              -0.001158936               0.000120427               0.000627595               0.000748022               0.000000000               0.000000000               0.000000000               0.000000000               0.000632483               0.002140810              -0.000912331              -0.000030421               0.000723736               0.000693315               0.000000000               0.000000000               0.000000000               0.000000000               0.000358187               0.002395144              -0.000629456              -0.000165073               0.000853398               0.000688325               0.000000000               0.000000000               0.000000000               0.000000000               0.000265563               0.002460893              -0.000466878              -0.000208025               0.000889631               0.000681606               0.000000000               0.000000000               0.000000000               0.000000000               0.000220259               0.002478047              -0.000365475              -0.000227158               0.000901727               0.000674569               0.000000000               0.000000000               0.000000000               0.000000000               0.000193316               0.002484101              -0.000294877              -0.000238019               0.000907365               0.000669346               0.000000000               0.000000000               0.000000000               0.000000000               0.000178362               0.002490602              -0.000240405              -0.000244439               0.000911672               0.000667233               0.000000000               0.000000000               0.000000000               0.000000000               0.000162884               0.002495619              -0.000195467              -0.000250870               0.000915488               0.000664618               0.000000000               0.000000000               0.000000000               0.000000000               0.000143899               0.002508589              -0.000155210              -0.000259611               0.000922725               0.000663114               0.000000000               0.000000000               0.000000000               0.000000000               0.000122160               0.002533259              -0.000117919              -0.000270847               0.000934693               0.000663847               0.000000000               0.000000000               0.000000000               0.000000000               0.000102455               0.002564153              -0.000086121              -0.000282098               0.000948742               0.000666644               0.000000000               0.000000000               0.000000000               0.000000000               0.000085470               0.002591125              -0.000061748              -0.000291839               0.000960979               0.000669141               0.000000000               0.000000000               0.000000000               0.000000000               0.000076670               0.002611721              -0.000044079              -0.000297713               0.000969803               0.000672089               0.000000000               0.000000000               0.000000000               0.000000000               0.000070552               0.002635059              -0.000031904              -0.000302925               0.000979319               0.000676395               0.000000000               0.000000000               0.000000000               0.000000000               0.000056910               0.002668958              -0.000024301              -0.000312278               0.000993736               0.000681459               0.000000000               0.000000000               0.000000000               0.000000000               0.000037398               0.002708382              -0.000016017              -0.000324523               0.001010959               0.000686437               0.000000000               0.000000000               0.000000000               0.000000000               0.000024138               0.002728731              -0.000010336              -0.000332039               0.001020248               0.000688209               0.000000000               0.000000000               0.000000000               0.000000000               0.000960789               0.001583792              -0.001029143               0.000162319               0.000473818               0.000636138               0.000000000               0.000000000               0.000000000               0.000000000               0.000647536               0.001812482              -0.000888795               0.000016264               0.000598733               0.000614997               0.000000000               0.000000000               0.000000000               0.000000000               0.000376693               0.002157570              -0.000697732              -0.000128437               0.000761995               0.000633558               0.000000000               0.000000000               0.000000000               0.000000000               0.000277613               0.002290195              -0.000546896              -0.000182169               0.000824114               0.000641944               0.000000000               0.000000000               0.000000000               0.000000000               0.000230974               0.002352323              -0.000438913              -0.000207425               0.000853242               0.000645816               0.000000000               0.000000000               0.000000000               0.000000000               0.000200462               0.002390418              -0.000358953              -0.000223629               0.000871341               0.000647712               0.000000000               0.000000000               0.000000000               0.000000000               0.000184847               0.002418061              -0.000297379              -0.000232940               0.000883659               0.000650719               0.000000000               0.000000000               0.000000000               0.000000000               0.000171765               0.002440857              -0.000244430              -0.000240695               0.000893842               0.000653148               0.000000000               0.000000000               0.000000000               0.000000000               0.000155513               0.002466655              -0.000196517              -0.000250014               0.000905548               0.000655534               0.000000000               0.000000000               0.000000000               0.000000000               0.000137713               0.002500706              -0.000156465              -0.000260945               0.000920542               0.000659597               0.000000000               0.000000000               0.000000000               0.000000000               0.000122237               0.002541321              -0.000123672              -0.000271826               0.000937707               0.000665882               0.000000000               0.000000000               0.000000000               0.000000000               0.000109349               0.002581160              -0.000097490              -0.000281638               0.000954257               0.000672619               0.000000000               0.000000000               0.000000000               0.000000000               0.000099707               0.002619861              -0.000073282              -0.000290092               0.000969976               0.000679884               0.000000000               0.000000000               0.000000000               0.000000000               0.000092207               0.002659472              -0.000048799              -0.000297856               0.000985767               0.000687911               0.000000000               0.000000000               0.000000000               0.000000000               0.000078561               0.002698566              -0.000029321              -0.000307860               0.001002133               0.000694273               0.000000000               0.000000000               0.000000000               0.000000000               0.000060241               0.002745796              -0.000013980              -0.000320633               0.001022134               0.000701501               0.000000000               0.000000000               0.000000000               0.000000000               0.000043392               0.002767454              -0.000003487              -0.000329659               0.001032362               0.000702703               0.000000000               0.000000000               0.000000000               0.000000000               0.000886014               0.001184239              -0.000875637               0.000184223               0.000333334               0.000517557               0.000000000               0.000000000               0.000000000               0.000000000               0.000662920               0.001478544              -0.000840721               0.000063775               0.000471584               0.000535359               0.000000000               0.000000000               0.000000000               0.000000000               0.000428632               0.001884798              -0.000747591              -0.000074863               0.000653214               0.000578351               0.000000000               0.000000000               0.000000000               0.000000000               0.000326364               0.002081562              -0.000623307              -0.000137809               0.000739783               0.000601974               0.000000000               0.000000000               0.000000000               0.000000000               0.000271657               0.002195042              -0.000515617              -0.000172509               0.000789176               0.000616667               0.000000000               0.000000000               0.000000000               0.000000000               0.000235861               0.002270187              -0.000431404              -0.000195325               0.000821830               0.000626504               0.000000000               0.000000000               0.000000000               0.000000000               0.000212843               0.002326293              -0.000364327              -0.000210970               0.000845747               0.000634776               0.000000000               0.000000000               0.000000000               0.000000000               0.000198856               0.002372985              -0.000304331              -0.000222052               0.000865004               0.000642953               0.000000000               0.000000000               0.000000000               0.000000000               0.000184409               0.002413720              -0.000252467              -0.000232561               0.000882085               0.000649524               0.000000000               0.000000000               0.000000000               0.000000000               0.000170555               0.002455012              -0.000211642              -0.000242918               0.000899302               0.000656384               0.000000000               0.000000000               0.000000000               0.000000000               0.000158634               0.002503474              -0.000177830              -0.000253446               0.000918965               0.000665519               0.000000000               0.000000000               0.000000000               0.000000000               0.000146316               0.002556295              -0.000146698              -0.000264668               0.000940312               0.000675645               0.000000000               0.000000000               0.000000000               0.000000000               0.000131951               0.002612574              -0.000114347              -0.000277089               0.000963212               0.000686123               0.000000000               0.000000000               0.000000000               0.000000000               0.000119176               0.002668298              -0.000080217              -0.000288845               0.000985706               0.000696860               0.000000000               0.000000000               0.000000000               0.000000000               0.000104440               0.002714831              -0.000049042              -0.000300188               0.001004997               0.000704809               0.000000000               0.000000000               0.000000000               0.000000000               0.000082859               0.002758285              -0.000023081              -0.000313713               0.001023990               0.000710277               0.000000000               0.000000000               0.000000000               0.000000000               0.000059809               0.002771388              -0.000006674              -0.000323994               0.001031785               0.000707791               0.000000000               0.000000000               0.000000000               0.000000000               0.000767946               0.000827677              -0.000700196               0.000184518               0.000214383               0.000398901               0.000000000               0.000000000               0.000000000               0.000000000               0.000658950               0.001152039              -0.000754246               0.000103100               0.000349642               0.000452742               0.000000000               0.000000000               0.000000000               0.000000000               0.000495694               0.001579395              -0.000749604              -0.000011540               0.000530306               0.000518766               0.000000000               0.000000000               0.000000000               0.000000000               0.000404540               0.001826838              -0.000661522              -0.000076653               0.000634491               0.000557838               0.000000000               0.000000000               0.000000000               0.000000000               0.000344166               0.001987068              -0.000566852              -0.000119321               0.000702123               0.000582802               0.000000000               0.000000000               0.000000000               0.000000000               0.000302857               0.002103698              -0.000484592              -0.000149391               0.000751023               0.000601632               0.000000000               0.000000000               0.000000000               0.000000000               0.000269751               0.002194063              -0.000416252              -0.000173101               0.000789047               0.000615946               0.000000000               0.000000000               0.000000000               0.000000000               0.000248793               0.002267019              -0.000354207              -0.000190080               0.000819025               0.000628946               0.000000000               0.000000000               0.000000000               0.000000000               0.000233859               0.002329189              -0.000300588              -0.000203451               0.000844206               0.000640755               0.000000000               0.000000000               0.000000000               0.000000000               0.000217758               0.002383019              -0.000260187              -0.000216218               0.000866404               0.000650187               0.000000000               0.000000000               0.000000000               0.000000000               0.000204711               0.002441200              -0.000226259              -0.000228383               0.000889853               0.000661470               0.000000000               0.000000000               0.000000000               0.000000000               0.000192771               0.002507923              -0.000190433              -0.000241201               0.000916366               0.000675165               0.000000000               0.000000000               0.000000000               0.000000000               0.000178243               0.002583118              -0.000152049              -0.000256048               0.000946380               0.000690332               0.000000000               0.000000000               0.000000000               0.000000000               0.000159355               0.002656078              -0.000112452              -0.000272251               0.000976101               0.000703850               0.000000000               0.000000000               0.000000000               0.000000000               0.000137047               0.002717829              -0.000073879              -0.000288335               0.001002046               0.000713710               0.000000000               0.000000000               0.000000000               0.000000000               0.000109605               0.002764428              -0.000035966              -0.000304451               0.001022950               0.000718500               0.000000000               0.000000000               0.000000000               0.000000000               0.000081595               0.002774613              -0.000012638              -0.000316228               0.001030271               0.000714043               0.000000000               0.000000000               0.000000000               0.000000000               0.000618563               0.000536540              -0.000521066               0.000164892               0.000123880               0.000288772               0.000000000               0.000000000               0.000000000               0.000000000               0.000637383               0.000852163              -0.000634664               0.000132496               0.000239886               0.000372382               0.000000000               0.000000000               0.000000000               0.000000000               0.000567308               0.001265126              -0.000695723               0.000054599               0.000403505               0.000458103               0.000000000               0.000000000               0.000000000               0.000000000               0.000500624               0.001543029              -0.000644874              -0.000005145               0.000516053               0.000510907               0.000000000               0.000000000               0.000000000               0.000000000               0.000442885               0.001740902              -0.000572147              -0.000051531               0.000597472               0.000545940               0.000000000               0.000000000               0.000000000               0.000000000               0.000395595               0.001896983              -0.000500432              -0.000088775               0.000661913               0.000573138               0.000000000               0.000000000               0.000000000               0.000000000               0.000356009               0.002022549              -0.000436353              -0.000119315               0.000713948               0.000594633               0.000000000               0.000000000               0.000000000               0.000000000               0.000324001               0.002125036              -0.000378519              -0.000144129               0.000756381               0.000612252               0.000000000               0.000000000               0.000000000               0.000000000               0.000303868               0.002214609              -0.000327048              -0.000162875               0.000792487               0.000629612               0.000000000               0.000000000               0.000000000               0.000000000               0.000281728               0.002289647              -0.000287107              -0.000180558               0.000823394               0.000642836               0.000000000               0.000000000               0.000000000               0.000000000               0.000258960               0.002361042              -0.000255049              -0.000198020               0.000853013               0.000654993               0.000000000               0.000000000               0.000000000               0.000000000               0.000242213               0.002440706              -0.000219373              -0.000214258               0.000884980               0.000670722               0.000000000               0.000000000               0.000000000               0.000000000               0.000228218               0.002529817              -0.000177398              -0.000230645               0.000920146               0.000689501               0.000000000               0.000000000               0.000000000               0.000000000               0.000209909               0.002619862              -0.000133156              -0.000248766               0.000956201               0.000707435               0.000000000               0.000000000               0.000000000               0.000000000               0.000186803               0.002698528              -0.000092316              -0.000267264               0.000988589               0.000721324               0.000000000               0.000000000               0.000000000               0.000000000               0.000157863               0.002755841              -0.000050334              -0.000285281               0.001013698               0.000728417               0.000000000               0.000000000               0.000000000               0.000000000               0.000130025               0.002772289              -0.000023878              -0.000297776               0.001023346               0.000725570               0.000000000               0.000000000               0.000000000               0.000000000               0.000459466               0.000317307              -0.000356748               0.000132635               0.000061556               0.000194191               0.000000000               0.000000000               0.000000000               0.000000000               0.000602431               0.000598497              -0.000491197               0.000151098               0.000149131               0.000300229               0.000000000               0.000000000               0.000000000               0.000000000               0.000633158               0.000971861              -0.000584094               0.000115950               0.000285300               0.000401250               0.000000000               0.000000000               0.000000000               0.000000000               0.000601104               0.001260853              -0.000564994               0.000067806               0.000397678               0.000465484               0.000000000               0.000000000               0.000000000               0.000000000               0.000552040               0.001487892              -0.000516007               0.000021028               0.000488950               0.000509977               0.000000000               0.000000000               0.000000000               0.000000000               0.000502147               0.001674672              -0.000461706              -0.000021029               0.000565228               0.000544199               0.000000000               0.000000000               0.000000000               0.000000000               0.000455449               0.001831449              -0.000409150              -0.000058138               0.000629856               0.000571718               0.000000000               0.000000000               0.000000000               0.000000000               0.000414725               0.001966782              -0.000361807              -0.000090326               0.000685696               0.000595370               0.000000000               0.000000000               0.000000000               0.000000000               0.000382913               0.002086213              -0.000317309              -0.000117184               0.000734459               0.000617275               0.000000000               0.000000000               0.000000000               0.000000000               0.000354521               0.002190995              -0.000279334              -0.000140929               0.000777300               0.000636372               0.000000000               0.000000000               0.000000000               0.000000000               0.000321928               0.002279689              -0.000250056              -0.000164238               0.000814635               0.000650397               0.000000000               0.000000000               0.000000000               0.000000000               0.000293680               0.002367412              -0.000220514              -0.000185796               0.000851062               0.000665265               0.000000000               0.000000000               0.000000000               0.000000000               0.000278603               0.002465909              -0.000182717              -0.000203762               0.000889882               0.000686120               0.000000000               0.000000000               0.000000000               0.000000000               0.000269500               0.002568177              -0.000141202              -0.000219959               0.000929370               0.000709411               0.000000000               0.000000000               0.000000000               0.000000000               0.000257572               0.002661059              -0.000101953              -0.000236042               0.000965692               0.000729649               0.000000000               0.000000000               0.000000000               0.000000000               0.000235877               0.002737558              -0.000056691              -0.000253740               0.000997090               0.000743350               0.000000000               0.000000000               0.000000000               0.000000000               0.000212424               0.002766419              -0.000028410              -0.000266143               0.001010845               0.000744702               0.000000000               0.000000000               0.000000000               0.000000000               0.000319854               0.000170854              -0.000215702               0.000098588               0.000024088               0.000122676               0.000000000               0.000000000               0.000000000               0.000000000               0.000563400               0.000407151              -0.000332592               0.000160380               0.000082256               0.000242635               0.000000000               0.000000000               0.000000000               0.000000000               0.000684467               0.000732973              -0.000421328               0.000165052               0.000189304               0.000354356               0.000000000               0.000000000               0.000000000               0.000000000               0.000691248               0.001021397              -0.000421324               0.000131542               0.000296615               0.000428157               0.000000000               0.000000000               0.000000000               0.000000000               0.000653560               0.001264525              -0.000394436               0.000087019               0.000392498               0.000479516               0.000000000               0.000000000               0.000000000               0.000000000               0.000602601               0.001473320              -0.000359027               0.000041810               0.000477165               0.000518975               0.000000000               0.000000000               0.000000000               0.000000000               0.000548906               0.001656195              -0.000323238              -0.000001185               0.000552454               0.000551269               0.000000000               0.000000000               0.000000000               0.000000000               0.000499294               0.001817866              -0.000289716              -0.000039998               0.000619282               0.000579284               0.000000000               0.000000000               0.000000000               0.000000000               0.000456853               0.001961925              -0.000257176              -0.000073921               0.000678609               0.000604688               0.000000000               0.000000000               0.000000000               0.000000000               0.000422240               0.002089696              -0.000226288              -0.000102872               0.000730849               0.000627977               0.000000000               0.000000000               0.000000000               0.000000000               0.000384963               0.002198355              -0.000200194              -0.000130433               0.000776255               0.000645822               0.000000000               0.000000000               0.000000000               0.000000000               0.000351171               0.002299040              -0.000180782              -0.000155690               0.000818236               0.000662545               0.000000000               0.000000000               0.000000000               0.000000000               0.000334790               0.002400737              -0.000158012              -0.000174545               0.000858420               0.000683874               0.000000000               0.000000000               0.000000000               0.000000000               0.000333009               0.002507624              -0.000124972              -0.000188574               0.000898724               0.000710150               0.000000000               0.000000000               0.000000000               0.000000000               0.000330050               0.002615727              -0.000087525              -0.000203197               0.000939633               0.000736436               0.000000000               0.000000000               0.000000000               0.000000000               0.000329243               0.002715075              -0.000047022              -0.000215918               0.000976988               0.000761071               0.000000000               0.000000000               0.000000000               0.000000000               0.000326801               0.002758184              -0.000024083              -0.000222222               0.000993460               0.000771238               0.000000000               0.000000000               0.000000000               0.000000000               0.000223993               0.000090600              -0.000100032               0.000072672               0.000005976               0.000078647               0.000000000               0.000000000               0.000000000               0.000000000               0.000532223               0.000289496              -0.000167388               0.000163395               0.000042033               0.000205428               0.000000000               0.000000000               0.000000000               0.000000000               0.000714106               0.000576451              -0.000220831               0.000195731               0.000126905               0.000322636               0.000000000               0.000000000               0.000000000               0.000000000               0.000750727               0.000860186              -0.000225501               0.000173998               0.000228727               0.000402724               0.000000000               0.000000000               0.000000000               0.000000000               0.000725953               0.001110747              -0.000214353               0.000133388               0.000325783               0.000459171               0.000000000               0.000000000               0.000000000               0.000000000               0.000677166               0.001332939              -0.000196803               0.000087319               0.000415202               0.000502521               0.000000000               0.000000000               0.000000000               0.000000000               0.000621282               0.001531306              -0.000178799               0.000041567               0.000496575               0.000538142               0.000000000               0.000000000               0.000000000               0.000000000               0.000564197               0.001705713              -0.000162304              -0.000001640               0.000569112               0.000567472               0.000000000               0.000000000               0.000000000               0.000000000               0.000512381               0.001863741              -0.000145797              -0.000040825               0.000634849               0.000594024               0.000000000               0.000000000               0.000000000               0.000000000               0.000469699               0.002008291              -0.000126392              -0.000074899               0.000694390               0.000619491               0.000000000               0.000000000               0.000000000               0.000000000               0.000434739               0.002136397              -0.000109355              -0.000104022               0.000746799               0.000642777               0.000000000               0.000000000               0.000000000               0.000000000               0.000404178               0.002248423              -0.000102820              -0.000129486               0.000792629               0.000663143               0.000000000               0.000000000               0.000000000               0.000000000               0.000379898               0.002352556              -0.000096504              -0.000151607               0.000834713               0.000683106               0.000000000               0.000000000               0.000000000               0.000000000               0.000370589               0.002460369              -0.000073944              -0.000168575               0.000876307               0.000707732               0.000000000               0.000000000               0.000000000               0.000000000               0.000378517               0.002572555              -0.000047317              -0.000179625               0.000917385               0.000737760               0.000000000               0.000000000               0.000000000               0.000000000               0.000404219               0.002686844              -0.000026855              -0.000184273               0.000957030               0.000772757               0.000000000               0.000000000               0.000000000               0.000000000               0.000424035               0.002743817              -0.000016425              -0.000183964               0.000975918               0.000791954               0.000000000               0.000000000               0.000000000               0.000000000               0.000000000               0.000000000               0.000000000               0.000000000               0.000000000               0.000000000               0.000000000               0.000000000               0.000000000               0.000000000               0.000000000               0.000000000               0.000000000               0.000000000               0.000000000               0.000000000               0.000000000               0.000000000               0.000000000               0.000000000               0.000000000               0.000000000               0.000000000               0.000000000               0.000000000               0.000000000               0.000000000               0.000000000               0.000000000               0.000000000               0.000000000               0.000000000               0.000000000               0.000000000               0.000000000               0.000000000               0.000000000               0.000000000               0.000000000               0.000000000               0.000000000               0.000000000               0.000000000               0.000000000               0.000000000               0.000000000               0.000000000               0.000000000               0.000000000               0.000000000               0.000000000               0.000000000               0.000000000               0.000000000               0.000000000               0.000000000               0.000000000               0.000000000               0.000000000               0.000000000               0.000000000               0.000000000               0.000000000               0.000000000               0.000000000               0.000000000               0.000000000               0.000000000               0.000000000               0.000000000               0.000000000               0.000000000               0.000000000               0.000000000               0.000000000               0.000000000               0.000000000               0.000000000               0.000000000               0.000000000               0.000000000               0.000000000               0.000000000               0.000000000               0.000000000               0.000000000               0.000000000               0.000000000               0.000000000               0.000000000               0.000000000               0.000000000               0.000000000               0.000000000               0.000000000               0.000000000               0.000000000               0.000000000               0.000000000               0.000000000               0.000000000               0.000000000               0.000000000               0.000000000               0.000000000               0.000000000               0.000000000               0.000000000               0.000000000               0.000000000               0.000000000               0.000000000               0.000000000               0.000000000               0.000000000               0.000000000               0.000000000               0.000000000               0.000000000               0.000000000               0.000000000               0.000000000               0.000000000               0.000000000               0.000000000               0.000000000               0.000000000               0.000000000               0.000000000               0.000000000               0.000000000               0.000000000               0.000000000               0.000000000               0.000000000               0.000000000               0.000000000               0.000000000               0.000000000               0.000000000               0.000000000               0.000000000               0.000000000               0.000000000               0.000000000               0.000000000               0.000000000               0.000000000               0.000000000               0.000000000               0.000000000               0.000000000               0.000000000               0.000000000               0.000000000               0.000000000               0.000000000               0.000000000               0.000000000               0.000000000               0.000000000               0.000000000               0.000000000               0.000000000               0.000000000               0.000000000               0.000000000               0.000000000               0.000000000               0.000000000               0.000000000               0.000000000               0.000000000               0.000000000               0.000000000               0.000000000               0.000000000               0.000000000               0.000000000               0.000000000               0.000000000               0.000000000               0.000000000               0.000000000               0.000000000               0.000000000               0.000000000               0.000000000               0.000000000               0.000000000               0.000000000               0.000000000               0.000000000               0.000000000               0.000000000               0.000000000               0.000000000               0.000000000               0.000000000               0.000000000               0.000000000               0.000000000               0.000000000               0.000000000               0.000000000               0.000000000               0.000000000               0.000000000               0.000000000               0.000000000               0.000000000               0.000000000               0.000000000               0.000000000               0.000000000               0.000000000               0.000000000               0.000000000               0.000000000               0.000000000               0.000000000               0.000000000               0.000000000               0.000000000               0.000000000               0.000000000               0.000000000               0.000000000               0.000000000               0.000000000               0.000000000               0.000000000               0.000000000               0.000000000               0.000000000               0.000000000               0.000000000               0.000000000               0.000000000               0.000000000               0.000000000               0.000000000               0.000000000               0.000000000               0.000000000               0.000000000               0.000000000               0.000000000               0.000000000               0.000000000               0.000000000               0.000000000               0.000000000               0.000000000               0.000000000               0.000000000               0.000000000               0.000000000               0.000000000               0.000000000               0.000000000               0.000000000               0.000000000               0.000000000               0.000000000               0.000000000               0.000000000               0.000000000               0.000000000               0.000000000               0.000000000               0.000000000               0.000000000               0.000000000               0.000000000               0.000000000               0.000000000               0.000000000               0.000000000               0.000000000               0.000000000               0.000000000               0.000000000               0.000000000               0.000000000               0.000000000               0.000000000               0.000000000               0.000000000               0.000000000               0.000000000               0.000000000               0.000000000               0.000000000               0.000000000               0.000000000               0.000000000               0.000000000               0.000000000               0.000000000               0.000000000               0.000000000               0.000000000               0.000000000               0.000000000               0.000000000               0.000000000               0.000000000               0.000000000               0.000000000               0.000000000               0.000000000               0.000000000               0.000000000               0.000000000               0.000000000               0.000000000               0.000000000               0.000000000               0.000000000               0.000000000               0.000000000               0.000000000               0.000000000               0.000000000               0.000000000               0.000000000               0.000000000               0.000000000               0.000000000               0.000000000               0.000000000               0.000000000               0.000000000               0.000000000               0.000000000               0.000000000               0.000000000               0.000000000               0.000000000               0.000452725               0.004898708               0.000385844              -0.000442566               0.001780408               0.001337842               0.000000000               0.000000000               0.000000000               0.000000000               0.000487880               0.004093610               0.000256169              -0.000328746               0.001474105               0.001145359               0.000000000               0.000000000               0.000000000               0.000000000               0.000663907               0.003450962               0.000119114              -0.000182405               0.001211111               0.001028706               0.000000000               0.000000000               0.000000000               0.000000000               0.000688678               0.003098032               0.000052633              -0.000129000               0.001075667               0.000946667               0.000000000               0.000000000               0.000000000               0.000000000               0.000656252               0.002892176               0.000019911              -0.000115427               0.001002525               0.000887098               0.000000000               0.000000000               0.000000000               0.000000000               0.000603150               0.002769506               0.000003655              -0.000120007               0.000963162               0.000843155               0.000000000               0.000000000               0.000000000               0.000000000               0.000539617               0.002694654              -0.000005462              -0.000134475               0.000943034               0.000808559               0.000000000               0.000000000               0.000000000               0.000000000               0.000473436               0.002648903              -0.000009054              -0.000153574               0.000934150               0.000780576               0.000000000               0.000000000               0.000000000               0.000000000               0.000409258               0.002624308              -0.000009379              -0.000174566               0.000932949               0.000758383               0.000000000               0.000000000               0.000000000               0.000000000               0.000349903               0.002613670              -0.000008288              -0.000195494               0.000936379               0.000740885               0.000000000               0.000000000               0.000000000               0.000000000               0.000294744               0.002612650              -0.000007166              -0.000216052               0.000942892               0.000726840               0.000000000               0.000000000               0.000000000               0.000000000               0.000240187               0.002617316              -0.000007012              -0.000237094               0.000951461               0.000714367               0.000000000               0.000000000               0.000000000               0.000000000               0.000189174               0.002628669              -0.000005796              -0.000257643               0.000962095               0.000704452               0.000000000               0.000000000               0.000000000               0.000000000               0.000141407               0.002644249              -0.000006233              -0.000277503               0.000973908               0.000696406               0.000000000               0.000000000               0.000000000               0.000000000               0.000093881               0.002666098              -0.000010201              -0.000298056               0.000988043               0.000689986               0.000000000               0.000000000               0.000000000               0.000000000               0.000045894               0.002692161              -0.000008805              -0.000319309               0.001003814               0.000684505               0.000000000               0.000000000               0.000000000               0.000000000               0.000024848               0.002712199              -0.000004191              -0.000329706               0.001013959               0.000684253               0.000000000               0.000000000               0.000000000               0.000000000               0.000538176               0.004681242               0.000733895              -0.000383338               0.001688178               0.001304839               0.000000000               0.000000000               0.000000000               0.000000000               0.000523510               0.003935759               0.000487465              -0.000295653               0.001410458               0.001114805               0.000000000               0.000000000               0.000000000               0.000000000               0.000645698               0.003363004               0.000229475              -0.000178238               0.001180403               0.001002164               0.000000000               0.000000000               0.000000000               0.000000000               0.000645402               0.003048064               0.000106333              -0.000138982               0.001062339               0.000923357               0.000000000               0.000000000               0.000000000               0.000000000               0.000602015               0.002863617               0.000045436              -0.000132196               0.000998595               0.000866399               0.000000000               0.000000000               0.000000000               0.000000000               0.000546305               0.002754642               0.000015307              -0.000139466               0.000964693               0.000825228               0.000000000               0.000000000               0.000000000               0.000000000               0.000484859               0.002687493               0.000001648              -0.000154114               0.000947193               0.000793079               0.000000000               0.000000000               0.000000000               0.000000000               0.000420935               0.002644472              -0.000004241              -0.000172708               0.000939051               0.000766343               0.000000000               0.000000000               0.000000000               0.000000000               0.000361632               0.002621273              -0.000006329              -0.000192047               0.000937764               0.000745718               0.000000000               0.000000000               0.000000000               0.000000000               0.000308589               0.002611109              -0.000005405              -0.000210667               0.000940583               0.000729916               0.000000000               0.000000000               0.000000000               0.000000000               0.000257558               0.002608863              -0.000003229              -0.000229523               0.000946120               0.000716597               0.000000000               0.000000000               0.000000000               0.000000000               0.000207765               0.002612929              -0.000003130              -0.000248704               0.000953869               0.000705165               0.000000000               0.000000000               0.000000000               0.000000000               0.000161613               0.002624256              -0.000002746              -0.000267427               0.000963886               0.000696459               0.000000000               0.000000000               0.000000000               0.000000000               0.000118253               0.002641326              -0.000004690              -0.000285820               0.000975707               0.000689886               0.000000000               0.000000000               0.000000000               0.000000000               0.000077390               0.002663476              -0.000011728              -0.000303913               0.000989121               0.000685208               0.000000000               0.000000000               0.000000000               0.000000000               0.000037685               0.002689248              -0.000011218              -0.000322023               0.001003748               0.000681725               0.000000000               0.000000000               0.000000000               0.000000000               0.000021446               0.002710817              -0.000005749              -0.000330809               0.001013866               0.000683057               0.000000000               0.000000000               0.000000000               0.000000000               0.000655216               0.004332378               0.001014561              -0.000295841               0.001542725               0.001246884               0.000000000               0.000000000               0.000000000               0.000000000               0.000565271               0.003685746               0.000674156              -0.000248741               0.001311483               0.001062742               0.000000000               0.000000000               0.000000000               0.000000000               0.000608091               0.003222867               0.000322440              -0.000174824               0.001132553               0.000957729               0.000000000               0.000000000               0.000000000               0.000000000               0.000577072               0.002966895               0.000160749              -0.000154460               0.001040442               0.000885982               0.000000000               0.000000000               0.000000000               0.000000000               0.000524475               0.002816834               0.000082434              -0.000155426               0.000990744               0.000835318               0.000000000               0.000000000               0.000000000               0.000000000               0.000466770               0.002725099               0.000043699              -0.000165598               0.000963557               0.000797958               0.000000000               0.000000000               0.000000000               0.000000000               0.000407972               0.002665586               0.000025420              -0.000180208               0.000948589               0.000768381               0.000000000               0.000000000               0.000000000               0.000000000               0.000352023               0.002630150               0.000016875              -0.000196760               0.000942295               0.000745535               0.000000000               0.000000000               0.000000000               0.000000000               0.000300055               0.002610131               0.000013155              -0.000213745               0.000941283               0.000727538               0.000000000               0.000000000               0.000000000               0.000000000               0.000252572               0.002601247               0.000014073              -0.000230441               0.000943887               0.000713446               0.000000000               0.000000000               0.000000000               0.000000000               0.000209985               0.002599787               0.000015384              -0.000246229               0.000948663               0.000702435               0.000000000               0.000000000               0.000000000               0.000000000               0.000169659               0.002605132               0.000012531              -0.000262019               0.000955708               0.000693689               0.000000000               0.000000000               0.000000000               0.000000000               0.000130035               0.002618072               0.000009225              -0.000278495               0.000965514               0.000687019               0.000000000               0.000000000               0.000000000               0.000000000               0.000091279               0.002637382               0.000005853              -0.000295442               0.000977599               0.000682157               0.000000000               0.000000000               0.000000000               0.000000000               0.000055691               0.002656450              -0.000001819              -0.000311171               0.000989198               0.000678027               0.000000000               0.000000000               0.000000000               0.000000000               0.000026012               0.002675042              -0.000004963              -0.000324625               0.000999880               0.000675255               0.000000000               0.000000000               0.000000000               0.000000000               0.000015472               0.002690845              -0.000001865              -0.000330553               0.001007124               0.000676571               0.000000000               0.000000000               0.000000000               0.000000000               0.000780758               0.003893996               0.001207299              -0.000193966               0.001362641               0.001168675               0.000000000               0.000000000               0.000000000               0.000000000               0.000604634               0.003381494               0.000807074              -0.000195949               0.001192470               0.000996521               0.000000000               0.000000000               0.000000000               0.000000000               0.000556286               0.003059394               0.000399559              -0.000173817               0.001077727               0.000903910               0.000000000               0.000000000               0.000000000               0.000000000               0.000493694               0.002871996               0.000218130              -0.000173864               0.001015277               0.000841413               0.000000000               0.000000000               0.000000000               0.000000000               0.000436018               0.002758544               0.000130162              -0.000181311               0.000979943               0.000798632               0.000000000               0.000000000               0.000000000               0.000000000               0.000381751               0.002684593               0.000087034              -0.000192417               0.000958994               0.000766577               0.000000000               0.000000000               0.000000000               0.000000000               0.000330969               0.002636168               0.000065370              -0.000205407               0.000947183               0.000741776               0.000000000               0.000000000               0.000000000               0.000000000               0.000284925               0.002607922               0.000053360              -0.000219143               0.000942346               0.000723203               0.000000000               0.000000000               0.000000000               0.000000000               0.000241867               0.002592561               0.000046850              -0.000233370               0.000941968               0.000708599               0.000000000               0.000000000               0.000000000               0.000000000               0.000203449               0.002586118               0.000043402              -0.000246971               0.000944354               0.000697384               0.000000000               0.000000000               0.000000000               0.000000000               0.000169758               0.002588547               0.000041099              -0.000259908               0.000949476               0.000689568               0.000000000               0.000000000               0.000000000               0.000000000               0.000136787               0.002596872               0.000034062              -0.000273313               0.000956720               0.000683407               0.000000000               0.000000000               0.000000000               0.000000000               0.000100898               0.002610367               0.000024737              -0.000288458               0.000966267               0.000677808               0.000000000               0.000000000               0.000000000               0.000000000               0.000065687               0.002625447               0.000018760              -0.000303548               0.000976323               0.000672775               0.000000000               0.000000000               0.000000000               0.000000000               0.000038853               0.002635302               0.000012183              -0.000314842               0.000983373               0.000668531               0.000000000               0.000000000               0.000000000               0.000000000               0.000017936               0.002637955               0.000004384              -0.000323018               0.000986982               0.000663965               0.000000000               0.000000000               0.000000000               0.000000000               0.000009916               0.002642082               0.000001893              -0.000326541               0.000989532               0.000662991               0.000000000               0.000000000               0.000000000               0.000000000               0.000888094               0.003409660               0.001306410              -0.000093173               0.001167599               0.001074426               0.000000000               0.000000000               0.000000000               0.000000000               0.000630227               0.003055430               0.000888521              -0.000145594               0.001066998               0.000921404               0.000000000               0.000000000               0.000000000               0.000000000               0.000495470               0.002887190               0.000465426              -0.000175097               0.001020753               0.000845655               0.000000000               0.000000000               0.000000000               0.000000000               0.000411914               0.002770863               0.000279250              -0.000191890               0.000987575               0.000795685               0.000000000               0.000000000               0.000000000               0.000000000               0.000353390               0.002691661               0.000187724              -0.000203936               0.000965190               0.000761254               0.000000000               0.000000000               0.000000000               0.000000000               0.000305577               0.002635855               0.000141181              -0.000214890               0.000950240               0.000735350               0.000000000               0.000000000               0.000000000               0.000000000               0.000264456               0.002600525               0.000114913              -0.000225894               0.000942131               0.000716237               0.000000000               0.000000000               0.000000000               0.000000000               0.000229977               0.002581093               0.000097408              -0.000236395               0.000939154               0.000702759               0.000000000               0.000000000               0.000000000               0.000000000               0.000199264               0.002569926               0.000084096              -0.000246516               0.000938805               0.000692289               0.000000000               0.000000000               0.000000000               0.000000000               0.000168932               0.002565832               0.000072949              -0.000257379               0.000941062               0.000683683               0.000000000               0.000000000               0.000000000               0.000000000               0.000138685               0.002570280               0.000063618              -0.000269278               0.000946511               0.000677233               0.000000000               0.000000000               0.000000000               0.000000000               0.000107210               0.002580895               0.000051424              -0.000282407               0.000954425               0.000672018               0.000000000               0.000000000               0.000000000               0.000000000               0.000077839               0.002591934               0.000036043              -0.000294801               0.000962236               0.000667435               0.000000000               0.000000000               0.000000000               0.000000000               0.000052818               0.002601624               0.000027425              -0.000305395               0.000968998               0.000663602               0.000000000               0.000000000               0.000000000               0.000000000               0.000032269               0.002602307               0.000023394              -0.000313187               0.000971823               0.000658636               0.000000000               0.000000000               0.000000000               0.000000000               0.000015959               0.002598588               0.000012952              -0.000318838               0.000972467               0.000653629               0.000000000               0.000000000               0.000000000               0.000000000               0.000010229               0.002599795               0.000006254              -0.000321138               0.000973636               0.000652498               0.000000000               0.000000000               0.000000000               0.000000000               0.000958094               0.002911851               0.001321444              -0.000004698               0.000972173               0.000967475               0.000000000               0.000000000               0.000000000               0.000000000               0.000639210               0.002727032               0.000926537              -0.000101176               0.000942727               0.000841550               0.000000000               0.000000000               0.000000000               0.000000000               0.000433497               0.002714006               0.000521825              -0.000176689               0.000963556               0.000786867               0.000000000               0.000000000               0.000000000               0.000000000               0.000340888               0.002666370               0.000342228              -0.000205463               0.000957269               0.000751806               0.000000000               0.000000000               0.000000000               0.000000000               0.000287029               0.002619668               0.000249719              -0.000219822               0.000946488               0.000726666               0.000000000               0.000000000               0.000000000               0.000000000               0.000247644               0.002584397               0.000198374              -0.000230182               0.000938184               0.000708002               0.000000000               0.000000000               0.000000000               0.000000000               0.000216692               0.002561794               0.000163465              -0.000238964               0.000933578               0.000694614               0.000000000               0.000000000               0.000000000               0.000000000               0.000192270               0.002549059               0.000136147              -0.000246530               0.000931855               0.000685324               0.000000000               0.000000000               0.000000000               0.000000000               0.000169172               0.002541768               0.000114296              -0.000254281               0.000932008               0.000677727               0.000000000               0.000000000               0.000000000               0.000000000               0.000141724               0.002541354               0.000094437              -0.000264522               0.000935284               0.000670761               0.000000000               0.000000000               0.000000000               0.000000000               0.000113135               0.002550382               0.000076035              -0.000276371               0.000942243               0.000665871               0.000000000               0.000000000               0.000000000               0.000000000               0.000084379               0.002564800               0.000057913              -0.000288957               0.000951244               0.000662287               0.000000000               0.000000000               0.000000000               0.000000000               0.000061628               0.002578936               0.000038617              -0.000299256               0.000959389               0.000660133               0.000000000               0.000000000               0.000000000               0.000000000               0.000048116               0.002587629               0.000028853              -0.000305410               0.000964338               0.000658928               0.000000000               0.000000000               0.000000000               0.000000000               0.000034971               0.002591010               0.000027086              -0.000310761               0.000967248               0.000656487               0.000000000               0.000000000               0.000000000               0.000000000               0.000017824               0.002597233               0.000016432              -0.000317969               0.000971726               0.000653756               0.000000000               0.000000000               0.000000000               0.000000000               0.000011455               0.002605919               0.000009768              -0.000321444               0.000975779               0.000654335               0.000000000               0.000000000               0.000000000               0.000000000               0.000985563               0.002430108               0.001264648               0.000065820               0.000788087               0.000853908               0.000000000               0.000000000               0.000000000               0.000000000               0.000632550               0.002417708               0.000928243              -0.000065008               0.000827564               0.000762556               0.000000000               0.000000000               0.000000000               0.000000000               0.000381218               0.002548077               0.000571782              -0.000175553               0.000907868               0.000732315               0.000000000               0.000000000               0.000000000               0.000000000               0.000288486               0.002558348               0.000402460              -0.000211611               0.000923311               0.000711700               0.000000000               0.000000000               0.000000000               0.000000000               0.000239768               0.002543186               0.000307180              -0.000227985               0.000923715               0.000695730               0.000000000               0.000000000               0.000000000               0.000000000               0.000209474               0.002527825               0.000246880              -0.000237425               0.000921741               0.000684317               0.000000000               0.000000000               0.000000000               0.000000000               0.000187234               0.002518951               0.000201541              -0.000244656               0.000921194               0.000676538               0.000000000               0.000000000               0.000000000               0.000000000               0.000167189               0.002513116               0.000164555              -0.000251443               0.000921511               0.000670068               0.000000000               0.000000000               0.000000000               0.000000000               0.000146360               0.002513794               0.000133906              -0.000259339               0.000924369               0.000665031               0.000000000               0.000000000               0.000000000               0.000000000               0.000122583               0.002524699               0.000104727              -0.000269618               0.000931431               0.000661813               0.000000000               0.000000000               0.000000000               0.000000000               0.000098265               0.002544409               0.000077235              -0.000281201               0.000941861               0.000660660               0.000000000               0.000000000               0.000000000               0.000000000               0.000076474               0.002567215               0.000053777              -0.000292223               0.000953138               0.000660914               0.000000000               0.000000000               0.000000000               0.000000000               0.000062417               0.002586982               0.000036071              -0.000299966               0.000962307               0.000662342               0.000000000               0.000000000               0.000000000               0.000000000               0.000054023               0.002600574               0.000029210              -0.000304812               0.000968453               0.000663641               0.000000000               0.000000000               0.000000000               0.000000000               0.000041607               0.002618941               0.000027462              -0.000311764               0.000976893               0.000665129               0.000000000               0.000000000               0.000000000               0.000000000               0.000021963               0.002642148               0.000017899              -0.000322032               0.000988051               0.000666019               0.000000000               0.000000000               0.000000000               0.000000000               0.000013165               0.002658251               0.000012360              -0.000327344               0.000995189               0.000667846               0.000000000               0.000000000               0.000000000               0.000000000               0.000988889               0.002003233               0.001158936               0.000120427               0.000627595               0.000748022               0.000000000               0.000000000               0.000000000               0.000000000               0.000632483               0.002140810               0.000912331              -0.000030421               0.000723736               0.000693315               0.000000000               0.000000000               0.000000000               0.000000000               0.000358187               0.002395144               0.000629456              -0.000165073               0.000853398               0.000688325               0.000000000               0.000000000               0.000000000               0.000000000               0.000265563               0.002460893               0.000466878              -0.000208025               0.000889631               0.000681606               0.000000000               0.000000000               0.000000000               0.000000000               0.000220259               0.002478047               0.000365475              -0.000227158               0.000901727               0.000674569               0.000000000               0.000000000               0.000000000               0.000000000               0.000193316               0.002484101               0.000294877              -0.000238019               0.000907365               0.000669346               0.000000000               0.000000000               0.000000000               0.000000000               0.000178362               0.002490602               0.000240405              -0.000244439               0.000911672               0.000667233               0.000000000               0.000000000               0.000000000               0.000000000               0.000162884               0.002495619               0.000195467              -0.000250870               0.000915488               0.000664618               0.000000000               0.000000000               0.000000000               0.000000000               0.000143899               0.002508589               0.000155210              -0.000259611               0.000922725               0.000663114               0.000000000               0.000000000               0.000000000               0.000000000               0.000122160               0.002533259               0.000117919              -0.000270847               0.000934693               0.000663847               0.000000000               0.000000000               0.000000000               0.000000000               0.000102455               0.002564153               0.000086121              -0.000282098               0.000948742               0.000666644               0.000000000               0.000000000               0.000000000               0.000000000               0.000085470               0.002591125               0.000061748              -0.000291839               0.000960979               0.000669141               0.000000000               0.000000000               0.000000000               0.000000000               0.000076670               0.002611721               0.000044079              -0.000297713               0.000969803               0.000672089               0.000000000               0.000000000               0.000000000               0.000000000               0.000070552               0.002635059               0.000031904              -0.000302925               0.000979319               0.000676395               0.000000000               0.000000000               0.000000000               0.000000000               0.000056910               0.002668958               0.000024301              -0.000312278               0.000993736               0.000681459               0.000000000               0.000000000               0.000000000               0.000000000               0.000037398               0.002708382               0.000016017              -0.000324523               0.001010959               0.000686437               0.000000000               0.000000000               0.000000000               0.000000000               0.000024138               0.002728731               0.000010336              -0.000332039               0.001020248               0.000688209               0.000000000               0.000000000               0.000000000               0.000000000               0.000960789               0.001583792               0.001029143               0.000162319               0.000473818               0.000636138               0.000000000               0.000000000               0.000000000               0.000000000               0.000647536               0.001812482               0.000888795               0.000016264               0.000598733               0.000614997               0.000000000               0.000000000               0.000000000               0.000000000               0.000376693               0.002157570               0.000697732              -0.000128437               0.000761995               0.000633558               0.000000000               0.000000000               0.000000000               0.000000000               0.000277613               0.002290195               0.000546896              -0.000182169               0.000824114               0.000641944               0.000000000               0.000000000               0.000000000               0.000000000               0.000230974               0.002352323               0.000438913              -0.000207425               0.000853242               0.000645816               0.000000000               0.000000000               0.000000000               0.000000000               0.000200462               0.002390418               0.000358953              -0.000223629               0.000871341               0.000647712               0.000000000               0.000000000               0.000000000               0.000000000               0.000184847               0.002418061               0.000297379              -0.000232940               0.000883659               0.000650719               0.000000000               0.000000000               0.000000000               0.000000000               0.000171765               0.002440857               0.000244430              -0.000240695               0.000893842               0.000653148               0.000000000               0.000000000               0.000000000               0.000000000               0.000155513               0.002466655               0.000196517              -0.000250014               0.000905548               0.000655534               0.000000000               0.000000000               0.000000000               0.000000000               0.000137713               0.002500706               0.000156465              -0.000260945               0.000920542               0.000659597               0.000000000               0.000000000               0.000000000               0.000000000               0.000122237               0.002541321               0.000123672              -0.000271826               0.000937707               0.000665882               0.000000000               0.000000000               0.000000000               0.000000000               0.000109349               0.002581160               0.000097490              -0.000281638               0.000954257               0.000672619               0.000000000               0.000000000               0.000000000               0.000000000               0.000099707               0.002619861               0.000073282              -0.000290092               0.000969976               0.000679884               0.000000000               0.000000000               0.000000000               0.000000000               0.000092207               0.002659472               0.000048799              -0.000297856               0.000985767               0.000687911               0.000000000               0.000000000               0.000000000               0.000000000               0.000078561               0.002698566               0.000029321              -0.000307860               0.001002133               0.000694273               0.000000000               0.000000000               0.000000000               0.000000000               0.000060241               0.002745796               0.000013980              -0.000320633               0.001022134               0.000701501               0.000000000               0.000000000               0.000000000               0.000000000               0.000043392               0.002767454               0.000003487              -0.000329659               0.001032362               0.000702703               0.000000000               0.000000000               0.000000000               0.000000000               0.000886014               0.001184239               0.000875637               0.000184223               0.000333334               0.000517557               0.000000000               0.000000000               0.000000000               0.000000000               0.000662920               0.001478544               0.000840721               0.000063775               0.000471584               0.000535359               0.000000000               0.000000000               0.000000000               0.000000000               0.000428632               0.001884798               0.000747591              -0.000074863               0.000653214               0.000578351               0.000000000               0.000000000               0.000000000               0.000000000               0.000326364               0.002081562               0.000623307              -0.000137809               0.000739783               0.000601974               0.000000000               0.000000000               0.000000000               0.000000000               0.000271657               0.002195042               0.000515617              -0.000172509               0.000789176               0.000616667               0.000000000               0.000000000               0.000000000               0.000000000               0.000235861               0.002270187               0.000431404              -0.000195325               0.000821830               0.000626504               0.000000000               0.000000000               0.000000000               0.000000000               0.000212843               0.002326293               0.000364327              -0.000210970               0.000845747               0.000634776               0.000000000               0.000000000               0.000000000               0.000000000               0.000198856               0.002372985               0.000304331              -0.000222052               0.000865004               0.000642953               0.000000000               0.000000000               0.000000000               0.000000000               0.000184409               0.002413720               0.000252467              -0.000232561               0.000882085               0.000649524               0.000000000               0.000000000               0.000000000               0.000000000               0.000170555               0.002455012               0.000211642              -0.000242918               0.000899302               0.000656384               0.000000000               0.000000000               0.000000000               0.000000000               0.000158634               0.002503474               0.000177830              -0.000253446               0.000918965               0.000665519               0.000000000               0.000000000               0.000000000               0.000000000               0.000146316               0.002556295               0.000146698              -0.000264668               0.000940312               0.000675645               0.000000000               0.000000000               0.000000000               0.000000000               0.000131951               0.002612574               0.000114347              -0.000277089               0.000963212               0.000686123               0.000000000               0.000000000               0.000000000               0.000000000               0.000119176               0.002668298               0.000080217              -0.000288845               0.000985706               0.000696860               0.000000000               0.000000000               0.000000000               0.000000000               0.000104440               0.002714831               0.000049042              -0.000300188               0.001004997               0.000704809               0.000000000               0.000000000               0.000000000               0.000000000               0.000082859               0.002758285               0.000023081              -0.000313713               0.001023990               0.000710277               0.000000000               0.000000000               0.000000000               0.000000000               0.000059809               0.002771388               0.000006674              -0.000323994               0.001031785               0.000707791               0.000000000               0.000000000               0.000000000               0.000000000               0.000767946               0.000827677               0.000700196               0.000184518               0.000214383               0.000398901               0.000000000               0.000000000               0.000000000               0.000000000               0.000658950               0.001152039               0.000754246               0.000103100               0.000349642               0.000452742               0.000000000               0.000000000               0.000000000               0.000000000               0.000495694               0.001579395               0.000749604              -0.000011540               0.000530306               0.000518766               0.000000000               0.000000000               0.000000000               0.000000000               0.000404540               0.001826838               0.000661522              -0.000076653               0.000634491               0.000557838               0.000000000               0.000000000               0.000000000               0.000000000               0.000344166               0.001987068               0.000566852              -0.000119321               0.000702123               0.000582802               0.000000000               0.000000000               0.000000000               0.000000000               0.000302857               0.002103698               0.000484592              -0.000149391               0.000751023               0.000601632               0.000000000               0.000000000               0.000000000               0.000000000               0.000269751               0.002194063               0.000416252              -0.000173101               0.000789047               0.000615946               0.000000000               0.000000000               0.000000000               0.000000000               0.000248793               0.002267019               0.000354207              -0.000190080               0.000819025               0.000628946               0.000000000               0.000000000               0.000000000               0.000000000               0.000233859               0.002329189               0.000300588              -0.000203451               0.000844206               0.000640755               0.000000000               0.000000000               0.000000000               0.000000000               0.000217758               0.002383019               0.000260187              -0.000216218               0.000866404               0.000650187               0.000000000               0.000000000               0.000000000               0.000000000               0.000204711               0.002441200               0.000226259              -0.000228383               0.000889853               0.000661470               0.000000000               0.000000000               0.000000000               0.000000000               0.000192771               0.002507923               0.000190433              -0.000241201               0.000916366               0.000675165               0.000000000               0.000000000               0.000000000               0.000000000               0.000178243               0.002583118               0.000152049              -0.000256048               0.000946380               0.000690332               0.000000000               0.000000000               0.000000000               0.000000000               0.000159355               0.002656078               0.000112452              -0.000272251               0.000976101               0.000703850               0.000000000               0.000000000               0.000000000               0.000000000               0.000137047               0.002717829               0.000073879              -0.000288335               0.001002046               0.000713710               0.000000000               0.000000000               0.000000000               0.000000000               0.000109605               0.002764428               0.000035966              -0.000304451               0.001022950               0.000718500               0.000000000               0.000000000               0.000000000               0.000000000               0.000081595               0.002774613               0.000012638              -0.000316228               0.001030271               0.000714043               0.000000000               0.000000000               0.000000000               0.000000000               0.000618563               0.000536540               0.000521066               0.000164892               0.000123880               0.000288772               0.000000000               0.000000000               0.000000000               0.000000000               0.000637383               0.000852163               0.000634664               0.000132496               0.000239886               0.000372382               0.000000000               0.000000000               0.000000000               0.000000000               0.000567308               0.001265126               0.000695723               0.000054599               0.000403505               0.000458103               0.000000000               0.000000000               0.000000000               0.000000000               0.000500624               0.001543029               0.000644874              -0.000005145               0.000516053               0.000510907               0.000000000               0.000000000               0.000000000               0.000000000               0.000442885               0.001740902               0.000572147              -0.000051531               0.000597472               0.000545940               0.000000000               0.000000000               0.000000000               0.000000000               0.000395595               0.001896983               0.000500432              -0.000088775               0.000661913               0.000573138               0.000000000               0.000000000               0.000000000               0.000000000               0.000356009               0.002022549               0.000436353              -0.000119315               0.000713948               0.000594633               0.000000000               0.000000000               0.000000000               0.000000000               0.000324001               0.002125036               0.000378519              -0.000144129               0.000756381               0.000612252               0.000000000               0.000000000               0.000000000               0.000000000               0.000303868               0.002214609               0.000327048              -0.000162875               0.000792487               0.000629612               0.000000000               0.000000000               0.000000000               0.000000000               0.000281728               0.002289647               0.000287107              -0.000180558               0.000823394               0.000642836               0.000000000               0.000000000               0.000000000               0.000000000               0.000258960               0.002361042               0.000255049              -0.000198020               0.000853013               0.000654993               0.000000000               0.000000000               0.000000000               0.000000000               0.000242213               0.002440706               0.000219373              -0.000214258               0.000884980               0.000670722               0.000000000               0.000000000               0.000000000               0.000000000               0.000228218               0.002529817               0.000177398              -0.000230645               0.000920146               0.000689501               0.000000000               0.000000000               0.000000000               0.000000000               0.000209909               0.002619862               0.000133156              -0.000248766               0.000956201               0.000707435               0.000000000               0.000000000               0.000000000               0.000000000               0.000186803               0.002698528               0.000092316              -0.000267264               0.000988589               0.000721324               0.000000000               0.000000000               0.000000000               0.000000000               0.000157863               0.002755841               0.000050334              -0.000285281               0.001013698               0.000728417               0.000000000               0.000000000               0.000000000               0.000000000               0.000130025               0.002772289               0.000023878              -0.000297776               0.001023346               0.000725570               0.000000000               0.000000000               0.000000000               0.000000000               0.000459466               0.000317307               0.000356748               0.000132635               0.000061556               0.000194191               0.000000000               0.000000000               0.000000000               0.000000000               0.000602431               0.000598497               0.000491197               0.000151098               0.000149131               0.000300229               0.000000000               0.000000000               0.000000000               0.000000000               0.000633158               0.000971861               0.000584094               0.000115950               0.000285300               0.000401250               0.000000000               0.000000000               0.000000000               0.000000000               0.000601104               0.001260853               0.000564994               0.000067806               0.000397678               0.000465484               0.000000000               0.000000000               0.000000000               0.000000000               0.000552040               0.001487892               0.000516007               0.000021028               0.000488950               0.000509977               0.000000000               0.000000000               0.000000000               0.000000000               0.000502147               0.001674672               0.000461706              -0.000021029               0.000565228               0.000544199               0.000000000               0.000000000               0.000000000               0.000000000               0.000455449               0.001831449               0.000409150              -0.000058138               0.000629856               0.000571718               0.000000000               0.000000000               0.000000000               0.000000000               0.000414725               0.001966782               0.000361807              -0.000090326               0.000685696               0.000595370               0.000000000               0.000000000               0.000000000               0.000000000               0.000382913               0.002086213               0.000317309              -0.000117184               0.000734459               0.000617275               0.000000000               0.000000000               0.000000000               0.000000000               0.000354521               0.002190995               0.000279334              -0.000140929               0.000777300               0.000636372               0.000000000               0.000000000               0.000000000               0.000000000               0.000321928               0.002279689               0.000250056              -0.000164238               0.000814635               0.000650397               0.000000000               0.000000000               0.000000000               0.000000000               0.000293680               0.002367412               0.000220514              -0.000185796               0.000851062               0.000665265               0.000000000               0.000000000               0.000000000               0.000000000               0.000278603               0.002465909               0.000182717              -0.000203762               0.000889882               0.000686120               0.000000000               0.000000000               0.000000000               0.000000000               0.000269500               0.002568177               0.000141202              -0.000219959               0.000929370               0.000709411               0.000000000               0.000000000               0.000000000               0.000000000               0.000257572               0.002661059               0.000101953              -0.000236042               0.000965692               0.000729649               0.000000000               0.000000000               0.000000000               0.000000000               0.000235877               0.002737558               0.000056691              -0.000253740               0.000997090               0.000743350               0.000000000               0.000000000               0.000000000               0.000000000               0.000212424               0.002766419               0.000028410              -0.000266143               0.001010845               0.000744702               0.000000000               0.000000000               0.000000000               0.000000000               0.000319854               0.000170854               0.000215702               0.000098588               0.000024088               0.000122676               0.000000000               0.000000000               0.000000000               0.000000000               0.000563400               0.000407151               0.000332592               0.000160380               0.000082256               0.000242635               0.000000000               0.000000000               0.000000000               0.000000000               0.000684467               0.000732973               0.000421328               0.000165052               0.000189304               0.000354356               0.000000000               0.000000000               0.000000000               0.000000000               0.000691248               0.001021397               0.000421324               0.000131542               0.000296615               0.000428157               0.000000000               0.000000000               0.000000000               0.000000000               0.000653560               0.001264525               0.000394436               0.000087019               0.000392498               0.000479516               0.000000000               0.000000000               0.000000000               0.000000000               0.000602601               0.001473320               0.000359027               0.000041810               0.000477165               0.000518975               0.000000000               0.000000000               0.000000000               0.000000000               0.000548906               0.001656195               0.000323238              -0.000001185               0.000552454               0.000551269               0.000000000               0.000000000               0.000000000               0.000000000               0.000499294               0.001817866               0.000289716              -0.000039998               0.000619282               0.000579284               0.000000000               0.000000000               0.000000000               0.000000000               0.000456853               0.001961925               0.000257176              -0.000073921               0.000678609               0.000604688               0.000000000               0.000000000               0.000000000               0.000000000               0.000422240               0.002089696               0.000226288              -0.000102872               0.000730849               0.000627977               0.000000000               0.000000000               0.000000000               0.000000000               0.000384963               0.002198355               0.000200194              -0.000130433               0.000776255               0.000645822               0.000000000               0.000000000               0.000000000               0.000000000               0.000351171               0.002299040               0.000180782              -0.000155690               0.000818236               0.000662545               0.000000000               0.000000000               0.000000000               0.000000000               0.000334790               0.002400737               0.000158012              -0.000174545               0.000858420               0.000683874               0.000000000               0.000000000               0.000000000               0.000000000               0.000333009               0.002507624               0.000124972              -0.000188574               0.000898724               0.000710150               0.000000000               0.000000000               0.000000000               0.000000000               0.000330050               0.002615727               0.000087525              -0.000203197               0.000939633               0.000736436               0.000000000               0.000000000               0.000000000               0.000000000               0.000329243               0.002715075               0.000047022              -0.000215918               0.000976988               0.000761071               0.000000000               0.000000000               0.000000000               0.000000000               0.000326801               0.002758184               0.000024083              -0.000222222               0.000993460               0.000771238               0.000000000               0.000000000               0.000000000               0.000000000               0.000223993               0.000090600               0.000100032               0.000072672               0.000005976               0.000078647               0.000000000               0.000000000               0.000000000               0.000000000               0.000532223               0.000289496               0.000167388               0.000163395               0.000042033               0.000205428               0.000000000               0.000000000               0.000000000               0.000000000               0.000714106               0.000576451               0.000220831               0.000195731               0.000126905               0.000322636               0.000000000               0.000000000               0.000000000               0.000000000               0.000750727               0.000860186               0.000225501               0.000173998               0.000228727               0.000402724               0.000000000               0.000000000               0.000000000               0.000000000               0.000725953               0.001110747               0.000214353               0.000133388               0.000325783               0.000459171               0.000000000               0.000000000               0.000000000               0.000000000               0.000677166               0.001332939               0.000196803               0.000087319               0.000415202               0.000502521               0.000000000               0.000000000               0.000000000               0.000000000               0.000621282               0.001531306               0.000178799               0.000041567               0.000496575               0.000538142               0.000000000               0.000000000               0.000000000               0.000000000               0.000564197               0.001705713               0.000162304              -0.000001640               0.000569112               0.000567472               0.000000000               0.000000000               0.000000000               0.000000000               0.000512381               0.001863741               0.000145797              -0.000040825               0.000634849               0.000594024               0.000000000               0.000000000               0.000000000               0.000000000               0.000469699               0.002008291               0.000126392              -0.000074899               0.000694390               0.000619491               0.000000000               0.000000000               0.000000000               0.000000000               0.000434739               0.002136397               0.000109355              -0.000104022               0.000746799               0.000642777               0.000000000               0.000000000               0.000000000               0.000000000               0.000404178               0.002248423               0.000102820              -0.000129486               0.000792629               0.000663143               0.000000000               0.000000000               0.000000000               0.000000000               0.000379898               0.002352556               0.000096504              -0.000151607               0.000834713               0.000683106               0.000000000               0.000000000               0.000000000               0.000000000               0.000370589               0.002460369               0.000073944              -0.000168575               0.000876307               0.000707732               0.000000000               0.000000000               0.000000000               0.000000000               0.000378517               0.002572555               0.000047317              -0.000179625               0.000917385               0.000737760               0.000000000               0.000000000               0.000000000               0.000000000               0.000404219               0.002686844               0.000026855              -0.000184273               0.000957030               0.000772757               0.000000000               0.000000000               0.000000000               0.000000000               0.000424035               0.002743817               0.000016425              -0.000183964               0.000975918               0.000791954               0.000000000               0.000000000               0.000000000               0.000000000               0.000000000               0.000000000               0.000000000               0.000000000               0.000000000               0.000000000               0.000000000               0.000000000               0.000000000               0.000000000               0.000000000               0.000000000               0.000000000               0.000000000               0.000000000               0.000000000               0.000000000               0.000000000               0.000000000               0.000000000               0.000000000               0.000000000               0.000000000               0.000000000               0.000000000               0.000000000               0.000000000               0.000000000               0.000000000               0.000000000               0.000000000               0.000000000               0.000000000               0.000000000               0.000000000               0.000000000               0.000000000               0.000000000               0.000000000               0.000000000               0.000000000               0.000000000               0.000000000               0.000000000               0.000000000               0.000000000               0.000000000               0.000000000               0.000000000               0.000000000               0.000000000               0.000000000               0.000000000               0.000000000               0.000000000               0.000000000               0.000000000               0.000000000               0.000000000               0.000000000               0.000000000               0.000000000               0.000000000               0.000000000               0.000000000               0.000000000               0.000000000               0.000000000               0.000000000               0.000000000               0.000000000               0.000000000               0.000000000               0.000000000               0.000000000               0.000000000               0.000000000               0.000000000               0.000000000               0.000000000               0.000000000               0.000000000               0.000000000               0.000000000               0.000000000               0.000000000               0.000000000               0.000000000               0.000000000               0.000000000               0.000000000               0.000000000               0.000000000               0.000000000               0.000000000               0.000000000               0.000000000               0.000000000               0.000000000               0.000000000               0.000000000               0.000000000               0.000000000               0.000000000               0.000000000               0.000000000               0.000000000               0.000000000               0.000000000               0.000000000               0.000000000               0.000000000               0.000000000               0.000000000               0.000000000               0.000000000               0.000000000               0.000000000               0.000000000               0.000000000               0.000000000               0.000000000               0.000000000               0.000000000               0.000000000               0.000000000               0.000000000               0.000000000               0.000000000               0.000000000               0.000000000               0.000000000               0.000000000               0.000000000               0.000000000               0.000000000               0.000000000               0.000000000               0.000000000               0.000000000               0.000000000               0.000000000               0.000000000               0.000000000               0.000000000               0.000000000               0.000000000               0.000000000               0.000000000               0.000000000               0.000000000               0.000000000               0.000000000               0.000000000               0.000000000               0.000000000               0.000000000               0.000000000               0.000000000               0.000000000               0.000000000               0.000000000               0.000000000               0.000000000               0.000000000               0.000000000               0.000000000               0.000000000               0.000000000               0.000000000 </DataArray>
</PointData>
</Piece>
</UnstructuredGrid> </VTKFile>
