<?xml version="1.0"?>
<VTKFile type="UnstructuredGrid" version="0.1">
<UnstructuredGrid>
<Piece NumberOfPoints="      1156" NumberOfCells="      1024">
<Points>
<DataArray type="Float64"                                    Name="coordinates"                                                      NumberOfComponents=" 3" format="ascii">
              0.133000000               0.000000000               0.000000000               0.155937500               0.000000000               0.000000000               0.178875000               0.000000000               0.000000000               0.201812500               0.000000000               0.000000000               0.224750000               0.000000000               0.000000000               0.247687500               0.000000000               0.000000000               0.270625000               0.000000000               0.000000000               0.293562500               0.000000000               0.000000000               0.316500000               0.000000000               0.000000000               0.339437500               0.000000000               0.000000000               0.362375000               0.000000000               0.000000000               0.385312500               0.000000000               0.000000000               0.408250000               0.000000000               0.000000000               0.431187500               0.000000000               0.000000000               0.454125000               0.000000000               0.000000000               0.477062500               0.000000000               0.000000000               0.500000000               0.000000000               0.000000000               0.132359569               0.013036280               0.000000000               0.155337096               0.016127762               0.000000000               0.178314623               0.019219245               0.000000000               0.201292150               0.022310727               0.000000000               0.224269676               0.025402210               0.000000000               0.247247203               0.028493692               0.000000000               0.270224730               0.031585175               0.000000000               0.293202257               0.034676657               0.000000000               0.316179784               0.037768140               0.000000000               0.339157311               0.040859622               0.000000000               0.362134838               0.043951105               0.000000000               0.385112365               0.047042587               0.000000000               0.408089892               0.050134070               0.000000000               0.431067419               0.053225552               0.000000000               0.454044946               0.056317035               0.000000000               0.477022473               0.059408517               0.000000000               0.500000000               0.062500000               0.000000000               0.130444442               0.025947013               0.000000000               0.153541665               0.032137825               0.000000000               0.176638887               0.038328636               0.000000000               0.199736109               0.044519448               0.000000000               0.222833332               0.050710260               0.000000000               0.245930554               0.056901071               0.000000000               0.269027776               0.063091883               0.000000000               0.292124999               0.069282695               0.000000000               0.315222221               0.075473506               0.000000000               0.338319444               0.081664318               0.000000000               0.361416666               0.087855130               0.000000000               0.384513888               0.094045942               0.000000000               0.407611111               0.100236753               0.000000000               0.430708333               0.106427565               0.000000000               0.453805555               0.112618377               0.000000000               0.476902778               0.118809188               0.000000000               0.500000000               0.125000000               0.000000000               0.127273065               0.038607862               0.000000000               0.150568498               0.047913621               0.000000000               0.173863932               0.057219379               0.000000000               0.197159365               0.066525138               0.000000000               0.220454798               0.075830897               0.000000000               0.243750232               0.085136655               0.000000000               0.267045665               0.094442414               0.000000000               0.290341099               0.103748172               0.000000000               0.313636532               0.113053931               0.000000000               0.336931966               0.122359690               0.000000000               0.360227399               0.131665448               0.000000000               0.383522833               0.140971207               0.000000000               0.406818266               0.150276966               0.000000000               0.430113700               0.159582724               0.000000000               0.453409133               0.168888483               0.000000000               0.476704567               0.178194241               0.000000000               0.500000000               0.187500000               0.000000000               0.122875978               0.050896897               0.000000000               0.146446229               0.063340840               0.000000000               0.170016481               0.075784784               0.000000000               0.193586732               0.088228728               0.000000000               0.217156983               0.100672672               0.000000000               0.240727235               0.113116616               0.000000000               0.264297486               0.125560560               0.000000000               0.287867738               0.138004504               0.000000000               0.311437989               0.150448448               0.000000000               0.335008240               0.162892392               0.000000000               0.358578492               0.175336336               0.000000000               0.382148743               0.187780280               0.000000000               0.405718994               0.200224224               0.000000000               0.429289246               0.212668168               0.000000000               0.452859497               0.225112112               0.000000000               0.476429749               0.237556056               0.000000000               0.500000000               0.250000000               0.000000000               0.117295528               0.062695766               0.000000000               0.141214558               0.078308531               0.000000000               0.165133587               0.093921295               0.000000000               0.189052617               0.109534060               0.000000000               0.212971646               0.125146824               0.000000000               0.236890676               0.140759589               0.000000000               0.260809705               0.156372354               0.000000000               0.284728735               0.171985118               0.000000000               0.308647764               0.187597883               0.000000000               0.332566794               0.203210648               0.000000000               0.356485823               0.218823412               0.000000000               0.380404853               0.234436177               0.000000000               0.404323882               0.250048941               0.000000000               0.428242912               0.265661706               0.000000000               0.452161941               0.281274471               0.000000000               0.476080971               0.296887235               0.000000000               0.500000000               0.312500000               0.000000000               0.110585458               0.073890841               0.000000000               0.134923867               0.092710163               0.000000000               0.159262276               0.111529486               0.000000000               0.183600685               0.130348808               0.000000000               0.207939094               0.149168131               0.000000000               0.232277503               0.167987453               0.000000000               0.256615912               0.186806776               0.000000000               0.280954320               0.205626098               0.000000000               0.305292729               0.224445420               0.000000000               0.329631138               0.243264743               0.000000000               0.353969547               0.262084065               0.000000000               0.378307956               0.280903388               0.000000000               0.402646365               0.299722710               0.000000000               0.426984773               0.318542033               0.000000000               0.451323182               0.337361355               0.000000000               0.475661591               0.356180678               0.000000000               0.500000000               0.375000000               0.000000000               0.102810390               0.084374307               0.000000000               0.127634741               0.106444663               0.000000000               0.152459092               0.128515018               0.000000000               0.177283442               0.150585374               0.000000000               0.202107793               0.172655730               0.000000000               0.226932143               0.194726086               0.000000000               0.251756494               0.216796442               0.000000000               0.276580845               0.238866798               0.000000000               0.301405195               0.260937153               0.000000000               0.326229546               0.283007509               0.000000000               0.351053896               0.305077865               0.000000000               0.375878247               0.327148221               0.000000000               0.400702598               0.349218577               0.000000000               0.425526948               0.371288933               0.000000000               0.450351299               0.393359288               0.000000000               0.475175649               0.415429644               0.000000000               0.500000000               0.437500000               0.000000000               0.094045202               0.094045202               0.000000000               0.119417377               0.119417377               0.000000000               0.144789552               0.144789552               0.000000000               0.170161727               0.170161727               0.000000000               0.195533901               0.195533901               0.000000000               0.220906076               0.220906076               0.000000000               0.246278251               0.246278251               0.000000000               0.271650426               0.271650426               0.000000000               0.297022601               0.297022601               0.000000000               0.322394776               0.322394776               0.000000000               0.347766951               0.347766951               0.000000000               0.373139126               0.373139126               0.000000000               0.398511300               0.398511300               0.000000000               0.423883475               0.423883475               0.000000000               0.449255650               0.449255650               0.000000000               0.474627825               0.474627825               0.000000000               0.500000000               0.500000000               0.000000000               0.084374307               0.102810390               0.000000000               0.106444663               0.127634741               0.000000000               0.128515018               0.152459092               0.000000000               0.150585374               0.177283442               0.000000000               0.172655730               0.202107793               0.000000000               0.194726086               0.226932143               0.000000000               0.216796442               0.251756494               0.000000000               0.238866798               0.276580845               0.000000000               0.260937153               0.301405195               0.000000000               0.283007509               0.326229546               0.000000000               0.305077865               0.351053896               0.000000000               0.327148221               0.375878247               0.000000000               0.349218577               0.400702598               0.000000000               0.371288933               0.425526948               0.000000000               0.393359288               0.450351299               0.000000000               0.415429644               0.475175649               0.000000000               0.437500000               0.500000000               0.000000000               0.073890841               0.110585458               0.000000000               0.092710163               0.134923867               0.000000000               0.111529486               0.159262276               0.000000000               0.130348808               0.183600685               0.000000000               0.149168131               0.207939094               0.000000000               0.167987453               0.232277503               0.000000000               0.186806776               0.256615912               0.000000000               0.205626098               0.280954320               0.000000000               0.224445420               0.305292729               0.000000000               0.243264743               0.329631138               0.000000000               0.262084065               0.353969547               0.000000000               0.280903388               0.378307956               0.000000000               0.299722710               0.402646365               0.000000000               0.318542033               0.426984773               0.000000000               0.337361355               0.451323182               0.000000000               0.356180678               0.475661591               0.000000000               0.375000000               0.500000000               0.000000000               0.062695766               0.117295528               0.000000000               0.078308531               0.141214558               0.000000000               0.093921295               0.165133587               0.000000000               0.109534060               0.189052617               0.000000000               0.125146824               0.212971646               0.000000000               0.140759589               0.236890676               0.000000000               0.156372354               0.260809705               0.000000000               0.171985118               0.284728735               0.000000000               0.187597883               0.308647764               0.000000000               0.203210648               0.332566794               0.000000000               0.218823412               0.356485823               0.000000000               0.234436177               0.380404853               0.000000000               0.250048941               0.404323882               0.000000000               0.265661706               0.428242912               0.000000000               0.281274471               0.452161941               0.000000000               0.296887235               0.476080971               0.000000000               0.312500000               0.500000000               0.000000000               0.050896897               0.122875978               0.000000000               0.063340840               0.146446229               0.000000000               0.075784784               0.170016481               0.000000000               0.088228728               0.193586732               0.000000000               0.100672672               0.217156983               0.000000000               0.113116616               0.240727235               0.000000000               0.125560560               0.264297486               0.000000000               0.138004504               0.287867738               0.000000000               0.150448448               0.311437989               0.000000000               0.162892392               0.335008240               0.000000000               0.175336336               0.358578492               0.000000000               0.187780280               0.382148743               0.000000000               0.200224224               0.405718994               0.000000000               0.212668168               0.429289246               0.000000000               0.225112112               0.452859497               0.000000000               0.237556056               0.476429749               0.000000000               0.250000000               0.500000000               0.000000000               0.038607862               0.127273065               0.000000000               0.047913621               0.150568498               0.000000000               0.057219379               0.173863932               0.000000000               0.066525138               0.197159365               0.000000000               0.075830897               0.220454798               0.000000000               0.085136655               0.243750232               0.000000000               0.094442414               0.267045665               0.000000000               0.103748172               0.290341099               0.000000000               0.113053931               0.313636532               0.000000000               0.122359690               0.336931966               0.000000000               0.131665448               0.360227399               0.000000000               0.140971207               0.383522833               0.000000000               0.150276966               0.406818266               0.000000000               0.159582724               0.430113700               0.000000000               0.168888483               0.453409133               0.000000000               0.178194241               0.476704567               0.000000000               0.187500000               0.500000000               0.000000000               0.025947013               0.130444442               0.000000000               0.032137825               0.153541665               0.000000000               0.038328636               0.176638887               0.000000000               0.044519448               0.199736109               0.000000000               0.050710260               0.222833332               0.000000000               0.056901071               0.245930554               0.000000000               0.063091883               0.269027776               0.000000000               0.069282695               0.292124999               0.000000000               0.075473506               0.315222221               0.000000000               0.081664318               0.338319444               0.000000000               0.087855130               0.361416666               0.000000000               0.094045942               0.384513888               0.000000000               0.100236753               0.407611111               0.000000000               0.106427565               0.430708333               0.000000000               0.112618377               0.453805555               0.000000000               0.118809188               0.476902778               0.000000000               0.125000000               0.500000000               0.000000000               0.013036280               0.132359569               0.000000000               0.016127762               0.155337096               0.000000000               0.019219245               0.178314623               0.000000000               0.022310727               0.201292150               0.000000000               0.025402210               0.224269676               0.000000000               0.028493692               0.247247203               0.000000000               0.031585175               0.270224730               0.000000000               0.034676657               0.293202257               0.000000000               0.037768140               0.316179784               0.000000000               0.040859622               0.339157311               0.000000000               0.043951105               0.362134838               0.000000000               0.047042587               0.385112365               0.000000000               0.050134070               0.408089892               0.000000000               0.053225552               0.431067419               0.000000000               0.056317035               0.454044946               0.000000000               0.059408517               0.477022473               0.000000000               0.062500000               0.500000000               0.000000000               0.000000000               0.133000000               0.000000000               0.000000000               0.155937500               0.000000000               0.000000000               0.178875000               0.000000000               0.000000000               0.201812500               0.000000000               0.000000000               0.224750000               0.000000000               0.000000000               0.247687500               0.000000000               0.000000000               0.270625000               0.000000000               0.000000000               0.293562500               0.000000000               0.000000000               0.316500000               0.000000000               0.000000000               0.339437500               0.000000000               0.000000000               0.362375000               0.000000000               0.000000000               0.385312500               0.000000000               0.000000000               0.408250000               0.000000000               0.000000000               0.431187500               0.000000000               0.000000000               0.454125000               0.000000000               0.000000000               0.477062500               0.000000000               0.000000000               0.500000000               0.000000000               0.133000000               0.000000000               0.000000000               0.155937500               0.000000000               0.000000000               0.178875000               0.000000000               0.000000000               0.201812500               0.000000000               0.000000000               0.224750000               0.000000000               0.000000000               0.247687500               0.000000000               0.000000000               0.270625000               0.000000000               0.000000000               0.293562500               0.000000000               0.000000000               0.316500000               0.000000000               0.000000000               0.339437500               0.000000000               0.000000000               0.362375000               0.000000000               0.000000000               0.385312500               0.000000000               0.000000000               0.408250000               0.000000000               0.000000000               0.431187500               0.000000000               0.000000000               0.454125000               0.000000000               0.000000000               0.477062500               0.000000000               0.000000000               0.500000000               0.000000000               0.000000000               0.132359569              -0.013036280               0.000000000               0.155337096              -0.016127762               0.000000000               0.178314623              -0.019219245               0.000000000               0.201292150              -0.022310727               0.000000000               0.224269676              -0.025402210               0.000000000               0.247247203              -0.028493692               0.000000000               0.270224730              -0.031585175               0.000000000               0.293202257              -0.034676657               0.000000000               0.316179784              -0.037768140               0.000000000               0.339157311              -0.040859622               0.000000000               0.362134838              -0.043951105               0.000000000               0.385112365              -0.047042587               0.000000000               0.408089892              -0.050134070               0.000000000               0.431067419              -0.053225552               0.000000000               0.454044946              -0.056317035               0.000000000               0.477022473              -0.059408517               0.000000000               0.500000000              -0.062500000               0.000000000               0.130444442              -0.025947013               0.000000000               0.153541665              -0.032137825               0.000000000               0.176638887              -0.038328636               0.000000000               0.199736109              -0.044519448               0.000000000               0.222833332              -0.050710260               0.000000000               0.245930554              -0.056901071               0.000000000               0.269027776              -0.063091883               0.000000000               0.292124999              -0.069282695               0.000000000               0.315222221              -0.075473506               0.000000000               0.338319444              -0.081664318               0.000000000               0.361416666              -0.087855130               0.000000000               0.384513888              -0.094045942               0.000000000               0.407611111              -0.100236753               0.000000000               0.430708333              -0.106427565               0.000000000               0.453805555              -0.112618377               0.000000000               0.476902778              -0.118809188               0.000000000               0.500000000              -0.125000000               0.000000000               0.127273065              -0.038607862               0.000000000               0.150568498              -0.047913621               0.000000000               0.173863932              -0.057219379               0.000000000               0.197159365              -0.066525138               0.000000000               0.220454798              -0.075830897               0.000000000               0.243750232              -0.085136655               0.000000000               0.267045665              -0.094442414               0.000000000               0.290341099              -0.103748172               0.000000000               0.313636532              -0.113053931               0.000000000               0.336931966              -0.122359690               0.000000000               0.360227399              -0.131665448               0.000000000               0.383522833              -0.140971207               0.000000000               0.406818266              -0.150276966               0.000000000               0.430113700              -0.159582724               0.000000000               0.453409133              -0.168888483               0.000000000               0.476704567              -0.178194241               0.000000000               0.500000000              -0.187500000               0.000000000               0.122875978              -0.050896897               0.000000000               0.146446229              -0.063340840               0.000000000               0.170016481              -0.075784784               0.000000000               0.193586732              -0.088228728               0.000000000               0.217156983              -0.100672672               0.000000000               0.240727235              -0.113116616               0.000000000               0.264297486              -0.125560560               0.000000000               0.287867738              -0.138004504               0.000000000               0.311437989              -0.150448448               0.000000000               0.335008240              -0.162892392               0.000000000               0.358578492              -0.175336336               0.000000000               0.382148743              -0.187780280               0.000000000               0.405718994              -0.200224224               0.000000000               0.429289246              -0.212668168               0.000000000               0.452859497              -0.225112112               0.000000000               0.476429749              -0.237556056               0.000000000               0.500000000              -0.250000000               0.000000000               0.117295528              -0.062695766               0.000000000               0.141214558              -0.078308531               0.000000000               0.165133587              -0.093921295               0.000000000               0.189052617              -0.109534060               0.000000000               0.212971646              -0.125146824               0.000000000               0.236890676              -0.140759589               0.000000000               0.260809705              -0.156372354               0.000000000               0.284728735              -0.171985118               0.000000000               0.308647764              -0.187597883               0.000000000               0.332566794              -0.203210648               0.000000000               0.356485823              -0.218823412               0.000000000               0.380404853              -0.234436177               0.000000000               0.404323882              -0.250048941               0.000000000               0.428242912              -0.265661706               0.000000000               0.452161941              -0.281274471               0.000000000               0.476080971              -0.296887235               0.000000000               0.500000000              -0.312500000               0.000000000               0.110585458              -0.073890841               0.000000000               0.134923867              -0.092710163               0.000000000               0.159262276              -0.111529486               0.000000000               0.183600685              -0.130348808               0.000000000               0.207939094              -0.149168131               0.000000000               0.232277503              -0.167987453               0.000000000               0.256615912              -0.186806776               0.000000000               0.280954320              -0.205626098               0.000000000               0.305292729              -0.224445420               0.000000000               0.329631138              -0.243264743               0.000000000               0.353969547              -0.262084065               0.000000000               0.378307956              -0.280903388               0.000000000               0.402646365              -0.299722710               0.000000000               0.426984773              -0.318542033               0.000000000               0.451323182              -0.337361355               0.000000000               0.475661591              -0.356180678               0.000000000               0.500000000              -0.375000000               0.000000000               0.102810390              -0.084374307               0.000000000               0.127634741              -0.106444663               0.000000000               0.152459092              -0.128515018               0.000000000               0.177283442              -0.150585374               0.000000000               0.202107793              -0.172655730               0.000000000               0.226932143              -0.194726086               0.000000000               0.251756494              -0.216796442               0.000000000               0.276580845              -0.238866798               0.000000000               0.301405195              -0.260937153               0.000000000               0.326229546              -0.283007509               0.000000000               0.351053896              -0.305077865               0.000000000               0.375878247              -0.327148221               0.000000000               0.400702598              -0.349218577               0.000000000               0.425526948              -0.371288933               0.000000000               0.450351299              -0.393359288               0.000000000               0.475175649              -0.415429644               0.000000000               0.500000000              -0.437500000               0.000000000               0.094045202              -0.094045202               0.000000000               0.119417377              -0.119417377               0.000000000               0.144789552              -0.144789552               0.000000000               0.170161727              -0.170161727               0.000000000               0.195533901              -0.195533901               0.000000000               0.220906076              -0.220906076               0.000000000               0.246278251              -0.246278251               0.000000000               0.271650426              -0.271650426               0.000000000               0.297022601              -0.297022601               0.000000000               0.322394776              -0.322394776               0.000000000               0.347766951              -0.347766951               0.000000000               0.373139126              -0.373139126               0.000000000               0.398511300              -0.398511300               0.000000000               0.423883475              -0.423883475               0.000000000               0.449255650              -0.449255650               0.000000000               0.474627825              -0.474627825               0.000000000               0.500000000              -0.500000000               0.000000000               0.084374307              -0.102810390               0.000000000               0.106444663              -0.127634741               0.000000000               0.128515018              -0.152459092               0.000000000               0.150585374              -0.177283442               0.000000000               0.172655730              -0.202107793               0.000000000               0.194726086              -0.226932143               0.000000000               0.216796442              -0.251756494               0.000000000               0.238866798              -0.276580845               0.000000000               0.260937153              -0.301405195               0.000000000               0.283007509              -0.326229546               0.000000000               0.305077865              -0.351053896               0.000000000               0.327148221              -0.375878247               0.000000000               0.349218577              -0.400702598               0.000000000               0.371288933              -0.425526948               0.000000000               0.393359288              -0.450351299               0.000000000               0.415429644              -0.475175649               0.000000000               0.437500000              -0.500000000               0.000000000               0.073890841              -0.110585458               0.000000000               0.092710163              -0.134923867               0.000000000               0.111529486              -0.159262276               0.000000000               0.130348808              -0.183600685               0.000000000               0.149168131              -0.207939094               0.000000000               0.167987453              -0.232277503               0.000000000               0.186806776              -0.256615912               0.000000000               0.205626098              -0.280954320               0.000000000               0.224445420              -0.305292729               0.000000000               0.243264743              -0.329631138               0.000000000               0.262084065              -0.353969547               0.000000000               0.280903388              -0.378307956               0.000000000               0.299722710              -0.402646365               0.000000000               0.318542033              -0.426984773               0.000000000               0.337361355              -0.451323182               0.000000000               0.356180678              -0.475661591               0.000000000               0.375000000              -0.500000000               0.000000000               0.062695766              -0.117295528               0.000000000               0.078308531              -0.141214558               0.000000000               0.093921295              -0.165133587               0.000000000               0.109534060              -0.189052617               0.000000000               0.125146824              -0.212971646               0.000000000               0.140759589              -0.236890676               0.000000000               0.156372354              -0.260809705               0.000000000               0.171985118              -0.284728735               0.000000000               0.187597883              -0.308647764               0.000000000               0.203210648              -0.332566794               0.000000000               0.218823412              -0.356485823               0.000000000               0.234436177              -0.380404853               0.000000000               0.250048941              -0.404323882               0.000000000               0.265661706              -0.428242912               0.000000000               0.281274471              -0.452161941               0.000000000               0.296887235              -0.476080971               0.000000000               0.312500000              -0.500000000               0.000000000               0.050896897              -0.122875978               0.000000000               0.063340840              -0.146446229               0.000000000               0.075784784              -0.170016481               0.000000000               0.088228728              -0.193586732               0.000000000               0.100672672              -0.217156983               0.000000000               0.113116616              -0.240727235               0.000000000               0.125560560              -0.264297486               0.000000000               0.138004504              -0.287867738               0.000000000               0.150448448              -0.311437989               0.000000000               0.162892392              -0.335008240               0.000000000               0.175336336              -0.358578492               0.000000000               0.187780280              -0.382148743               0.000000000               0.200224224              -0.405718994               0.000000000               0.212668168              -0.429289246               0.000000000               0.225112112              -0.452859497               0.000000000               0.237556056              -0.476429749               0.000000000               0.250000000              -0.500000000               0.000000000               0.038607862              -0.127273065               0.000000000               0.047913621              -0.150568498               0.000000000               0.057219379              -0.173863932               0.000000000               0.066525138              -0.197159365               0.000000000               0.075830897              -0.220454798               0.000000000               0.085136655              -0.243750232               0.000000000               0.094442414              -0.267045665               0.000000000               0.103748172              -0.290341099               0.000000000               0.113053931              -0.313636532               0.000000000               0.122359690              -0.336931966               0.000000000               0.131665448              -0.360227399               0.000000000               0.140971207              -0.383522833               0.000000000               0.150276966              -0.406818266               0.000000000               0.159582724              -0.430113700               0.000000000               0.168888483              -0.453409133               0.000000000               0.178194241              -0.476704567               0.000000000               0.187500000              -0.500000000               0.000000000               0.025947013              -0.130444442               0.000000000               0.032137825              -0.153541665               0.000000000               0.038328636              -0.176638887               0.000000000               0.044519448              -0.199736109               0.000000000               0.050710260              -0.222833332               0.000000000               0.056901071              -0.245930554               0.000000000               0.063091883              -0.269027776               0.000000000               0.069282695              -0.292124999               0.000000000               0.075473506              -0.315222221               0.000000000               0.081664318              -0.338319444               0.000000000               0.087855130              -0.361416666               0.000000000               0.094045942              -0.384513888               0.000000000               0.100236753              -0.407611111               0.000000000               0.106427565              -0.430708333               0.000000000               0.112618377              -0.453805555               0.000000000               0.118809188              -0.476902778               0.000000000               0.125000000              -0.500000000               0.000000000               0.013036280              -0.132359569               0.000000000               0.016127762              -0.155337096               0.000000000               0.019219245              -0.178314623               0.000000000               0.022310727              -0.201292150               0.000000000               0.025402210              -0.224269676               0.000000000               0.028493692              -0.247247203               0.000000000               0.031585175              -0.270224730               0.000000000               0.034676657              -0.293202257               0.000000000               0.037768140              -0.316179784               0.000000000               0.040859622              -0.339157311               0.000000000               0.043951105              -0.362134838               0.000000000               0.047042587              -0.385112365               0.000000000               0.050134070              -0.408089892               0.000000000               0.053225552              -0.431067419               0.000000000               0.056317035              -0.454044946               0.000000000               0.059408517              -0.477022473               0.000000000               0.062500000              -0.500000000               0.000000000               0.000000000              -0.133000000               0.000000000               0.000000000              -0.155937500               0.000000000               0.000000000              -0.178875000               0.000000000               0.000000000              -0.201812500               0.000000000               0.000000000              -0.224750000               0.000000000               0.000000000              -0.247687500               0.000000000               0.000000000              -0.270625000               0.000000000               0.000000000              -0.293562500               0.000000000               0.000000000              -0.316500000               0.000000000               0.000000000              -0.339437500               0.000000000               0.000000000              -0.362375000               0.000000000               0.000000000              -0.385312500               0.000000000               0.000000000              -0.408250000               0.000000000               0.000000000              -0.431187500               0.000000000               0.000000000              -0.454125000               0.000000000               0.000000000              -0.477062500               0.000000000               0.000000000              -0.500000000               0.000000000              -0.133000000               0.000000000               0.000000000              -0.155937500               0.000000000               0.000000000              -0.178875000               0.000000000               0.000000000              -0.201812500               0.000000000               0.000000000              -0.224750000               0.000000000               0.000000000              -0.247687500               0.000000000               0.000000000              -0.270625000               0.000000000               0.000000000              -0.293562500               0.000000000               0.000000000              -0.316500000               0.000000000               0.000000000              -0.339437500               0.000000000               0.000000000              -0.362375000               0.000000000               0.000000000              -0.385312500               0.000000000               0.000000000              -0.408250000               0.000000000               0.000000000              -0.431187500               0.000000000               0.000000000              -0.454125000               0.000000000               0.000000000              -0.477062500               0.000000000               0.000000000              -0.500000000               0.000000000               0.000000000              -0.132359569              -0.013036280               0.000000000              -0.155337096              -0.016127762               0.000000000              -0.178314623              -0.019219245               0.000000000              -0.201292150              -0.022310727               0.000000000              -0.224269676              -0.025402210               0.000000000              -0.247247203              -0.028493692               0.000000000              -0.270224730              -0.031585175               0.000000000              -0.293202257              -0.034676657               0.000000000              -0.316179784              -0.037768140               0.000000000              -0.339157311              -0.040859622               0.000000000              -0.362134838              -0.043951105               0.000000000              -0.385112365              -0.047042587               0.000000000              -0.408089892              -0.050134070               0.000000000              -0.431067419              -0.053225552               0.000000000              -0.454044946              -0.056317035               0.000000000              -0.477022473              -0.059408517               0.000000000              -0.500000000              -0.062500000               0.000000000              -0.130444442              -0.025947013               0.000000000              -0.153541665              -0.032137825               0.000000000              -0.176638887              -0.038328636               0.000000000              -0.199736109              -0.044519448               0.000000000              -0.222833332              -0.050710260               0.000000000              -0.245930554              -0.056901071               0.000000000              -0.269027776              -0.063091883               0.000000000              -0.292124999              -0.069282695               0.000000000              -0.315222221              -0.075473506               0.000000000              -0.338319444              -0.081664318               0.000000000              -0.361416666              -0.087855130               0.000000000              -0.384513888              -0.094045942               0.000000000              -0.407611111              -0.100236753               0.000000000              -0.430708333              -0.106427565               0.000000000              -0.453805555              -0.112618377               0.000000000              -0.476902778              -0.118809188               0.000000000              -0.500000000              -0.125000000               0.000000000              -0.127273065              -0.038607862               0.000000000              -0.150568498              -0.047913621               0.000000000              -0.173863932              -0.057219379               0.000000000              -0.197159365              -0.066525138               0.000000000              -0.220454798              -0.075830897               0.000000000              -0.243750232              -0.085136655               0.000000000              -0.267045665              -0.094442414               0.000000000              -0.290341099              -0.103748172               0.000000000              -0.313636532              -0.113053931               0.000000000              -0.336931966              -0.122359690               0.000000000              -0.360227399              -0.131665448               0.000000000              -0.383522833              -0.140971207               0.000000000              -0.406818266              -0.150276966               0.000000000              -0.430113700              -0.159582724               0.000000000              -0.453409133              -0.168888483               0.000000000              -0.476704567              -0.178194241               0.000000000              -0.500000000              -0.187500000               0.000000000              -0.122875978              -0.050896897               0.000000000              -0.146446229              -0.063340840               0.000000000              -0.170016481              -0.075784784               0.000000000              -0.193586732              -0.088228728               0.000000000              -0.217156983              -0.100672672               0.000000000              -0.240727235              -0.113116616               0.000000000              -0.264297486              -0.125560560               0.000000000              -0.287867738              -0.138004504               0.000000000              -0.311437989              -0.150448448               0.000000000              -0.335008240              -0.162892392               0.000000000              -0.358578492              -0.175336336               0.000000000              -0.382148743              -0.187780280               0.000000000              -0.405718994              -0.200224224               0.000000000              -0.429289246              -0.212668168               0.000000000              -0.452859497              -0.225112112               0.000000000              -0.476429749              -0.237556056               0.000000000              -0.500000000              -0.250000000               0.000000000              -0.117295528              -0.062695766               0.000000000              -0.141214558              -0.078308531               0.000000000              -0.165133587              -0.093921295               0.000000000              -0.189052617              -0.109534060               0.000000000              -0.212971646              -0.125146824               0.000000000              -0.236890676              -0.140759589               0.000000000              -0.260809705              -0.156372354               0.000000000              -0.284728735              -0.171985118               0.000000000              -0.308647764              -0.187597883               0.000000000              -0.332566794              -0.203210648               0.000000000              -0.356485823              -0.218823412               0.000000000              -0.380404853              -0.234436177               0.000000000              -0.404323882              -0.250048941               0.000000000              -0.428242912              -0.265661706               0.000000000              -0.452161941              -0.281274471               0.000000000              -0.476080971              -0.296887235               0.000000000              -0.500000000              -0.312500000               0.000000000              -0.110585458              -0.073890841               0.000000000              -0.134923867              -0.092710163               0.000000000              -0.159262276              -0.111529486               0.000000000              -0.183600685              -0.130348808               0.000000000              -0.207939094              -0.149168131               0.000000000              -0.232277503              -0.167987453               0.000000000              -0.256615912              -0.186806776               0.000000000              -0.280954320              -0.205626098               0.000000000              -0.305292729              -0.224445420               0.000000000              -0.329631138              -0.243264743               0.000000000              -0.353969547              -0.262084065               0.000000000              -0.378307956              -0.280903388               0.000000000              -0.402646365              -0.299722710               0.000000000              -0.426984773              -0.318542033               0.000000000              -0.451323182              -0.337361355               0.000000000              -0.475661591              -0.356180678               0.000000000              -0.500000000              -0.375000000               0.000000000              -0.102810390              -0.084374307               0.000000000              -0.127634741              -0.106444663               0.000000000              -0.152459092              -0.128515018               0.000000000              -0.177283442              -0.150585374               0.000000000              -0.202107793              -0.172655730               0.000000000              -0.226932143              -0.194726086               0.000000000              -0.251756494              -0.216796442               0.000000000              -0.276580845              -0.238866798               0.000000000              -0.301405195              -0.260937153               0.000000000              -0.326229546              -0.283007509               0.000000000              -0.351053896              -0.305077865               0.000000000              -0.375878247              -0.327148221               0.000000000              -0.400702598              -0.349218577               0.000000000              -0.425526948              -0.371288933               0.000000000              -0.450351299              -0.393359288               0.000000000              -0.475175649              -0.415429644               0.000000000              -0.500000000              -0.437500000               0.000000000              -0.094045202              -0.094045202               0.000000000              -0.119417377              -0.119417377               0.000000000              -0.144789552              -0.144789552               0.000000000              -0.170161727              -0.170161727               0.000000000              -0.195533901              -0.195533901               0.000000000              -0.220906076              -0.220906076               0.000000000              -0.246278251              -0.246278251               0.000000000              -0.271650426              -0.271650426               0.000000000              -0.297022601              -0.297022601               0.000000000              -0.322394776              -0.322394776               0.000000000              -0.347766951              -0.347766951               0.000000000              -0.373139126              -0.373139126               0.000000000              -0.398511300              -0.398511300               0.000000000              -0.423883475              -0.423883475               0.000000000              -0.449255650              -0.449255650               0.000000000              -0.474627825              -0.474627825               0.000000000              -0.500000000              -0.500000000               0.000000000              -0.084374307              -0.102810390               0.000000000              -0.106444663              -0.127634741               0.000000000              -0.128515018              -0.152459092               0.000000000              -0.150585374              -0.177283442               0.000000000              -0.172655730              -0.202107793               0.000000000              -0.194726086              -0.226932143               0.000000000              -0.216796442              -0.251756494               0.000000000              -0.238866798              -0.276580845               0.000000000              -0.260937153              -0.301405195               0.000000000              -0.283007509              -0.326229546               0.000000000              -0.305077865              -0.351053896               0.000000000              -0.327148221              -0.375878247               0.000000000              -0.349218577              -0.400702598               0.000000000              -0.371288933              -0.425526948               0.000000000              -0.393359288              -0.450351299               0.000000000              -0.415429644              -0.475175649               0.000000000              -0.437500000              -0.500000000               0.000000000              -0.073890841              -0.110585458               0.000000000              -0.092710163              -0.134923867               0.000000000              -0.111529486              -0.159262276               0.000000000              -0.130348808              -0.183600685               0.000000000              -0.149168131              -0.207939094               0.000000000              -0.167987453              -0.232277503               0.000000000              -0.186806776              -0.256615912               0.000000000              -0.205626098              -0.280954320               0.000000000              -0.224445420              -0.305292729               0.000000000              -0.243264743              -0.329631138               0.000000000              -0.262084065              -0.353969547               0.000000000              -0.280903388              -0.378307956               0.000000000              -0.299722710              -0.402646365               0.000000000              -0.318542033              -0.426984773               0.000000000              -0.337361355              -0.451323182               0.000000000              -0.356180678              -0.475661591               0.000000000              -0.375000000              -0.500000000               0.000000000              -0.062695766              -0.117295528               0.000000000              -0.078308531              -0.141214558               0.000000000              -0.093921295              -0.165133587               0.000000000              -0.109534060              -0.189052617               0.000000000              -0.125146824              -0.212971646               0.000000000              -0.140759589              -0.236890676               0.000000000              -0.156372354              -0.260809705               0.000000000              -0.171985118              -0.284728735               0.000000000              -0.187597883              -0.308647764               0.000000000              -0.203210648              -0.332566794               0.000000000              -0.218823412              -0.356485823               0.000000000              -0.234436177              -0.380404853               0.000000000              -0.250048941              -0.404323882               0.000000000              -0.265661706              -0.428242912               0.000000000              -0.281274471              -0.452161941               0.000000000              -0.296887235              -0.476080971               0.000000000              -0.312500000              -0.500000000               0.000000000              -0.050896897              -0.122875978               0.000000000              -0.063340840              -0.146446229               0.000000000              -0.075784784              -0.170016481               0.000000000              -0.088228728              -0.193586732               0.000000000              -0.100672672              -0.217156983               0.000000000              -0.113116616              -0.240727235               0.000000000              -0.125560560              -0.264297486               0.000000000              -0.138004504              -0.287867738               0.000000000              -0.150448448              -0.311437989               0.000000000              -0.162892392              -0.335008240               0.000000000              -0.175336336              -0.358578492               0.000000000              -0.187780280              -0.382148743               0.000000000              -0.200224224              -0.405718994               0.000000000              -0.212668168              -0.429289246               0.000000000              -0.225112112              -0.452859497               0.000000000              -0.237556056              -0.476429749               0.000000000              -0.250000000              -0.500000000               0.000000000              -0.038607862              -0.127273065               0.000000000              -0.047913621              -0.150568498               0.000000000              -0.057219379              -0.173863932               0.000000000              -0.066525138              -0.197159365               0.000000000              -0.075830897              -0.220454798               0.000000000              -0.085136655              -0.243750232               0.000000000              -0.094442414              -0.267045665               0.000000000              -0.103748172              -0.290341099               0.000000000              -0.113053931              -0.313636532               0.000000000              -0.122359690              -0.336931966               0.000000000              -0.131665448              -0.360227399               0.000000000              -0.140971207              -0.383522833               0.000000000              -0.150276966              -0.406818266               0.000000000              -0.159582724              -0.430113700               0.000000000              -0.168888483              -0.453409133               0.000000000              -0.178194241              -0.476704567               0.000000000              -0.187500000              -0.500000000               0.000000000              -0.025947013              -0.130444442               0.000000000              -0.032137825              -0.153541665               0.000000000              -0.038328636              -0.176638887               0.000000000              -0.044519448              -0.199736109               0.000000000              -0.050710260              -0.222833332               0.000000000              -0.056901071              -0.245930554               0.000000000              -0.063091883              -0.269027776               0.000000000              -0.069282695              -0.292124999               0.000000000              -0.075473506              -0.315222221               0.000000000              -0.081664318              -0.338319444               0.000000000              -0.087855130              -0.361416666               0.000000000              -0.094045942              -0.384513888               0.000000000              -0.100236753              -0.407611111               0.000000000              -0.106427565              -0.430708333               0.000000000              -0.112618377              -0.453805555               0.000000000              -0.118809188              -0.476902778               0.000000000              -0.125000000              -0.500000000               0.000000000              -0.013036280              -0.132359569               0.000000000              -0.016127762              -0.155337096               0.000000000              -0.019219245              -0.178314623               0.000000000              -0.022310727              -0.201292150               0.000000000              -0.025402210              -0.224269676               0.000000000              -0.028493692              -0.247247203               0.000000000              -0.031585175              -0.270224730               0.000000000              -0.034676657              -0.293202257               0.000000000              -0.037768140              -0.316179784               0.000000000              -0.040859622              -0.339157311               0.000000000              -0.043951105              -0.362134838               0.000000000              -0.047042587              -0.385112365               0.000000000              -0.050134070              -0.408089892               0.000000000              -0.053225552              -0.431067419               0.000000000              -0.056317035              -0.454044946               0.000000000              -0.059408517              -0.477022473               0.000000000              -0.062500000              -0.500000000               0.000000000               0.000000000              -0.133000000               0.000000000               0.000000000              -0.155937500               0.000000000               0.000000000              -0.178875000               0.000000000               0.000000000              -0.201812500               0.000000000               0.000000000              -0.224750000               0.000000000               0.000000000              -0.247687500               0.000000000               0.000000000              -0.270625000               0.000000000               0.000000000              -0.293562500               0.000000000               0.000000000              -0.316500000               0.000000000               0.000000000              -0.339437500               0.000000000               0.000000000              -0.362375000               0.000000000               0.000000000              -0.385312500               0.000000000               0.000000000              -0.408250000               0.000000000               0.000000000              -0.431187500               0.000000000               0.000000000              -0.454125000               0.000000000               0.000000000              -0.477062500               0.000000000               0.000000000              -0.500000000               0.000000000              -0.133000000               0.000000000               0.000000000              -0.155937500               0.000000000               0.000000000              -0.178875000               0.000000000               0.000000000              -0.201812500               0.000000000               0.000000000              -0.224750000               0.000000000               0.000000000              -0.247687500               0.000000000               0.000000000              -0.270625000               0.000000000               0.000000000              -0.293562500               0.000000000               0.000000000              -0.316500000               0.000000000               0.000000000              -0.339437500               0.000000000               0.000000000              -0.362375000               0.000000000               0.000000000              -0.385312500               0.000000000               0.000000000              -0.408250000               0.000000000               0.000000000              -0.431187500               0.000000000               0.000000000              -0.454125000               0.000000000               0.000000000              -0.477062500               0.000000000               0.000000000              -0.500000000               0.000000000               0.000000000              -0.132359569               0.013036280               0.000000000              -0.155337096               0.016127762               0.000000000              -0.178314623               0.019219245               0.000000000              -0.201292150               0.022310727               0.000000000              -0.224269676               0.025402210               0.000000000              -0.247247203               0.028493692               0.000000000              -0.270224730               0.031585175               0.000000000              -0.293202257               0.034676657               0.000000000              -0.316179784               0.037768140               0.000000000              -0.339157311               0.040859622               0.000000000              -0.362134838               0.043951105               0.000000000              -0.385112365               0.047042587               0.000000000              -0.408089892               0.050134070               0.000000000              -0.431067419               0.053225552               0.000000000              -0.454044946               0.056317035               0.000000000              -0.477022473               0.059408517               0.000000000              -0.500000000               0.062500000               0.000000000              -0.130444442               0.025947013               0.000000000              -0.153541665               0.032137825               0.000000000              -0.176638887               0.038328636               0.000000000              -0.199736109               0.044519448               0.000000000              -0.222833332               0.050710260               0.000000000              -0.245930554               0.056901071               0.000000000              -0.269027776               0.063091883               0.000000000              -0.292124999               0.069282695               0.000000000              -0.315222221               0.075473506               0.000000000              -0.338319444               0.081664318               0.000000000              -0.361416666               0.087855130               0.000000000              -0.384513888               0.094045942               0.000000000              -0.407611111               0.100236753               0.000000000              -0.430708333               0.106427565               0.000000000              -0.453805555               0.112618377               0.000000000              -0.476902778               0.118809188               0.000000000              -0.500000000               0.125000000               0.000000000              -0.127273065               0.038607862               0.000000000              -0.150568498               0.047913621               0.000000000              -0.173863932               0.057219379               0.000000000              -0.197159365               0.066525138               0.000000000              -0.220454798               0.075830897               0.000000000              -0.243750232               0.085136655               0.000000000              -0.267045665               0.094442414               0.000000000              -0.290341099               0.103748172               0.000000000              -0.313636532               0.113053931               0.000000000              -0.336931966               0.122359690               0.000000000              -0.360227399               0.131665448               0.000000000              -0.383522833               0.140971207               0.000000000              -0.406818266               0.150276966               0.000000000              -0.430113700               0.159582724               0.000000000              -0.453409133               0.168888483               0.000000000              -0.476704567               0.178194241               0.000000000              -0.500000000               0.187500000               0.000000000              -0.122875978               0.050896897               0.000000000              -0.146446229               0.063340840               0.000000000              -0.170016481               0.075784784               0.000000000              -0.193586732               0.088228728               0.000000000              -0.217156983               0.100672672               0.000000000              -0.240727235               0.113116616               0.000000000              -0.264297486               0.125560560               0.000000000              -0.287867738               0.138004504               0.000000000              -0.311437989               0.150448448               0.000000000              -0.335008240               0.162892392               0.000000000              -0.358578492               0.175336336               0.000000000              -0.382148743               0.187780280               0.000000000              -0.405718994               0.200224224               0.000000000              -0.429289246               0.212668168               0.000000000              -0.452859497               0.225112112               0.000000000              -0.476429749               0.237556056               0.000000000              -0.500000000               0.250000000               0.000000000              -0.117295528               0.062695766               0.000000000              -0.141214558               0.078308531               0.000000000              -0.165133587               0.093921295               0.000000000              -0.189052617               0.109534060               0.000000000              -0.212971646               0.125146824               0.000000000              -0.236890676               0.140759589               0.000000000              -0.260809705               0.156372354               0.000000000              -0.284728735               0.171985118               0.000000000              -0.308647764               0.187597883               0.000000000              -0.332566794               0.203210648               0.000000000              -0.356485823               0.218823412               0.000000000              -0.380404853               0.234436177               0.000000000              -0.404323882               0.250048941               0.000000000              -0.428242912               0.265661706               0.000000000              -0.452161941               0.281274471               0.000000000              -0.476080971               0.296887235               0.000000000              -0.500000000               0.312500000               0.000000000              -0.110585458               0.073890841               0.000000000              -0.134923867               0.092710163               0.000000000              -0.159262276               0.111529486               0.000000000              -0.183600685               0.130348808               0.000000000              -0.207939094               0.149168131               0.000000000              -0.232277503               0.167987453               0.000000000              -0.256615912               0.186806776               0.000000000              -0.280954320               0.205626098               0.000000000              -0.305292729               0.224445420               0.000000000              -0.329631138               0.243264743               0.000000000              -0.353969547               0.262084065               0.000000000              -0.378307956               0.280903388               0.000000000              -0.402646365               0.299722710               0.000000000              -0.426984773               0.318542033               0.000000000              -0.451323182               0.337361355               0.000000000              -0.475661591               0.356180678               0.000000000              -0.500000000               0.375000000               0.000000000              -0.102810390               0.084374307               0.000000000              -0.127634741               0.106444663               0.000000000              -0.152459092               0.128515018               0.000000000              -0.177283442               0.150585374               0.000000000              -0.202107793               0.172655730               0.000000000              -0.226932143               0.194726086               0.000000000              -0.251756494               0.216796442               0.000000000              -0.276580845               0.238866798               0.000000000              -0.301405195               0.260937153               0.000000000              -0.326229546               0.283007509               0.000000000              -0.351053896               0.305077865               0.000000000              -0.375878247               0.327148221               0.000000000              -0.400702598               0.349218577               0.000000000              -0.425526948               0.371288933               0.000000000              -0.450351299               0.393359288               0.000000000              -0.475175649               0.415429644               0.000000000              -0.500000000               0.437500000               0.000000000              -0.094045202               0.094045202               0.000000000              -0.119417377               0.119417377               0.000000000              -0.144789552               0.144789552               0.000000000              -0.170161727               0.170161727               0.000000000              -0.195533901               0.195533901               0.000000000              -0.220906076               0.220906076               0.000000000              -0.246278251               0.246278251               0.000000000              -0.271650426               0.271650426               0.000000000              -0.297022601               0.297022601               0.000000000              -0.322394776               0.322394776               0.000000000              -0.347766951               0.347766951               0.000000000              -0.373139126               0.373139126               0.000000000              -0.398511300               0.398511300               0.000000000              -0.423883475               0.423883475               0.000000000              -0.449255650               0.449255650               0.000000000              -0.474627825               0.474627825               0.000000000              -0.500000000               0.500000000               0.000000000              -0.084374307               0.102810390               0.000000000              -0.106444663               0.127634741               0.000000000              -0.128515018               0.152459092               0.000000000              -0.150585374               0.177283442               0.000000000              -0.172655730               0.202107793               0.000000000              -0.194726086               0.226932143               0.000000000              -0.216796442               0.251756494               0.000000000              -0.238866798               0.276580845               0.000000000              -0.260937153               0.301405195               0.000000000              -0.283007509               0.326229546               0.000000000              -0.305077865               0.351053896               0.000000000              -0.327148221               0.375878247               0.000000000              -0.349218577               0.400702598               0.000000000              -0.371288933               0.425526948               0.000000000              -0.393359288               0.450351299               0.000000000              -0.415429644               0.475175649               0.000000000              -0.437500000               0.500000000               0.000000000              -0.073890841               0.110585458               0.000000000              -0.092710163               0.134923867               0.000000000              -0.111529486               0.159262276               0.000000000              -0.130348808               0.183600685               0.000000000              -0.149168131               0.207939094               0.000000000              -0.167987453               0.232277503               0.000000000              -0.186806776               0.256615912               0.000000000              -0.205626098               0.280954320               0.000000000              -0.224445420               0.305292729               0.000000000              -0.243264743               0.329631138               0.000000000              -0.262084065               0.353969547               0.000000000              -0.280903388               0.378307956               0.000000000              -0.299722710               0.402646365               0.000000000              -0.318542033               0.426984773               0.000000000              -0.337361355               0.451323182               0.000000000              -0.356180678               0.475661591               0.000000000              -0.375000000               0.500000000               0.000000000              -0.062695766               0.117295528               0.000000000              -0.078308531               0.141214558               0.000000000              -0.093921295               0.165133587               0.000000000              -0.109534060               0.189052617               0.000000000              -0.125146824               0.212971646               0.000000000              -0.140759589               0.236890676               0.000000000              -0.156372354               0.260809705               0.000000000              -0.171985118               0.284728735               0.000000000              -0.187597883               0.308647764               0.000000000              -0.203210648               0.332566794               0.000000000              -0.218823412               0.356485823               0.000000000              -0.234436177               0.380404853               0.000000000              -0.250048941               0.404323882               0.000000000              -0.265661706               0.428242912               0.000000000              -0.281274471               0.452161941               0.000000000              -0.296887235               0.476080971               0.000000000              -0.312500000               0.500000000               0.000000000              -0.050896897               0.122875978               0.000000000              -0.063340840               0.146446229               0.000000000              -0.075784784               0.170016481               0.000000000              -0.088228728               0.193586732               0.000000000              -0.100672672               0.217156983               0.000000000              -0.113116616               0.240727235               0.000000000              -0.125560560               0.264297486               0.000000000              -0.138004504               0.287867738               0.000000000              -0.150448448               0.311437989               0.000000000              -0.162892392               0.335008240               0.000000000              -0.175336336               0.358578492               0.000000000              -0.187780280               0.382148743               0.000000000              -0.200224224               0.405718994               0.000000000              -0.212668168               0.429289246               0.000000000              -0.225112112               0.452859497               0.000000000              -0.237556056               0.476429749               0.000000000              -0.250000000               0.500000000               0.000000000              -0.038607862               0.127273065               0.000000000              -0.047913621               0.150568498               0.000000000              -0.057219379               0.173863932               0.000000000              -0.066525138               0.197159365               0.000000000              -0.075830897               0.220454798               0.000000000              -0.085136655               0.243750232               0.000000000              -0.094442414               0.267045665               0.000000000              -0.103748172               0.290341099               0.000000000              -0.113053931               0.313636532               0.000000000              -0.122359690               0.336931966               0.000000000              -0.131665448               0.360227399               0.000000000              -0.140971207               0.383522833               0.000000000              -0.150276966               0.406818266               0.000000000              -0.159582724               0.430113700               0.000000000              -0.168888483               0.453409133               0.000000000              -0.178194241               0.476704567               0.000000000              -0.187500000               0.500000000               0.000000000              -0.025947013               0.130444442               0.000000000              -0.032137825               0.153541665               0.000000000              -0.038328636               0.176638887               0.000000000              -0.044519448               0.199736109               0.000000000              -0.050710260               0.222833332               0.000000000              -0.056901071               0.245930554               0.000000000              -0.063091883               0.269027776               0.000000000              -0.069282695               0.292124999               0.000000000              -0.075473506               0.315222221               0.000000000              -0.081664318               0.338319444               0.000000000              -0.087855130               0.361416666               0.000000000              -0.094045942               0.384513888               0.000000000              -0.100236753               0.407611111               0.000000000              -0.106427565               0.430708333               0.000000000              -0.112618377               0.453805555               0.000000000              -0.118809188               0.476902778               0.000000000              -0.125000000               0.500000000               0.000000000              -0.013036280               0.132359569               0.000000000              -0.016127762               0.155337096               0.000000000              -0.019219245               0.178314623               0.000000000              -0.022310727               0.201292150               0.000000000              -0.025402210               0.224269676               0.000000000              -0.028493692               0.247247203               0.000000000              -0.031585175               0.270224730               0.000000000              -0.034676657               0.293202257               0.000000000              -0.037768140               0.316179784               0.000000000              -0.040859622               0.339157311               0.000000000              -0.043951105               0.362134838               0.000000000              -0.047042587               0.385112365               0.000000000              -0.050134070               0.408089892               0.000000000              -0.053225552               0.431067419               0.000000000              -0.056317035               0.454044946               0.000000000              -0.059408517               0.477022473               0.000000000              -0.062500000               0.500000000               0.000000000               0.000000000               0.133000000               0.000000000               0.000000000               0.155937500               0.000000000               0.000000000               0.178875000               0.000000000               0.000000000               0.201812500               0.000000000               0.000000000               0.224750000               0.000000000               0.000000000               0.247687500               0.000000000               0.000000000               0.270625000               0.000000000               0.000000000               0.293562500               0.000000000               0.000000000               0.316500000               0.000000000               0.000000000               0.339437500               0.000000000               0.000000000               0.362375000               0.000000000               0.000000000               0.385312500               0.000000000               0.000000000               0.408250000               0.000000000               0.000000000               0.431187500               0.000000000               0.000000000               0.454125000               0.000000000               0.000000000               0.477062500               0.000000000               0.000000000               0.500000000               0.000000000 </DataArray>
</Points>
<Cells>
<DataArray type="Int32"                                    Name="connectivity"                                                      NumberOfComponents=" 1" format="ascii">
         0          1         18         17          1          2         19         18          2          3         20         19          3          4         21         20          4          5         22         21          5          6         23         22          6          7         24         23          7          8         25         24          8          9         26         25          9         10         27         26         10         11         28         27         11         12         29         28         12         13         30         29         13         14         31         30         14         15         32         31         15         16         33         32         17         18         35         34         18         19         36         35         19         20         37         36         20         21         38         37         21         22         39         38         22         23         40         39         23         24         41         40         24         25         42         41         25         26         43         42         26         27         44         43         27         28         45         44         28         29         46         45         29         30         47         46         30         31         48         47         31         32         49         48         32         33         50         49         34         35         52         51         35         36         53         52         36         37         54         53         37         38         55         54         38         39         56         55         39         40         57         56         40         41         58         57         41         42         59         58         42         43         60         59         43         44         61         60         44         45         62         61         45         46         63         62         46         47         64         63         47         48         65         64         48         49         66         65         49         50         67         66         51         52         69         68         52         53         70         69         53         54         71         70         54         55         72         71         55         56         73         72         56         57         74         73         57         58         75         74         58         59         76         75         59         60         77         76         60         61         78         77         61         62         79         78         62         63         80         79         63         64         81         80         64         65         82         81         65         66         83         82         66         67         84         83         68         69         86         85         69         70         87         86         70         71         88         87         71         72         89         88         72         73         90         89         73         74         91         90         74         75         92         91         75         76         93         92         76         77         94         93         77         78         95         94         78         79         96         95         79         80         97         96         80         81         98         97         81         82         99         98         82         83        100         99         83         84        101        100         85         86        103        102         86         87        104        103         87         88        105        104         88         89        106        105         89         90        107        106         90         91        108        107         91         92        109        108         92         93        110        109         93         94        111        110         94         95        112        111         95         96        113        112         96         97        114        113         97         98        115        114         98         99        116        115         99        100        117        116        100        101        118        117        102        103        120        119        103        104        121        120        104        105        122        121        105        106        123        122        106        107        124        123        107        108        125        124        108        109        126        125        109        110        127        126        110        111        128        127        111        112        129        128        112        113        130        129        113        114        131        130        114        115        132        131        115        116        133        132        116        117        134        133        117        118        135        134        119        120        137        136        120        121        138        137        121        122        139        138        122        123        140        139        123        124        141        140        124        125        142        141        125        126        143        142        126        127        144        143        127        128        145        144        128        129        146        145        129        130        147        146        130        131        148        147        131        132        149        148        132        133        150        149        133        134        151        150        134        135        152        151        136        137        154        153        137        138        155        154        138        139        156        155        139        140        157        156        140        141        158        157        141        142        159        158        142        143        160        159        143        144        161        160        144        145        162        161        145        146        163        162        146        147        164        163        147        148        165        164        148        149        166        165        149        150        167        166        150        151        168        167        151        152        169        168        153        154        171        170        154        155        172        171        155        156        173        172        156        157        174        173        157        158        175        174        158        159        176        175        159        160        177        176        160        161        178        177        161        162        179        178        162        163        180        179        163        164        181        180        164        165        182        181        165        166        183        182        166        167        184        183        167        168        185        184        168        169        186        185        170        171        188        187        171        172        189        188        172        173        190        189        173        174        191        190        174        175        192        191        175        176        193        192        176        177        194        193        177        178        195        194        178        179        196        195        179        180        197        196        180        181        198        197        181        182        199        198        182        183        200        199        183        184        201        200        184        185        202        201        185        186        203        202        187        188        205        204        188        189        206        205        189        190        207        206        190        191        208        207        191        192        209        208        192        193        210        209        193        194        211        210        194        195        212        211        195        196        213        212        196        197        214        213        197        198        215        214        198        199        216        215        199        200        217        216        200        201        218        217        201        202        219        218        202        203        220        219        204        205        222        221        205        206        223        222        206        207        224        223        207        208        225        224        208        209        226        225        209        210        227        226        210        211        228        227        211        212        229        228        212        213        230        229        213        214        231        230        214        215        232        231        215        216        233        232        216        217        234        233        217        218        235        234        218        219        236        235        219        220        237        236        221        222        239        238        222        223        240        239        223        224        241        240        224        225        242        241        225        226        243        242        226        227        244        243        227        228        245        244        228        229        246        245        229        230        247        246        230        231        248        247        231        232        249        248        232        233        250        249        233        234        251        250        234        235        252        251        235        236        253        252        236        237        254        253        238        239        256        255        239        240        257        256        240        241        258        257        241        242        259        258        242        243        260        259        243        244        261        260        244        245        262        261        245        246        263        262        246        247        264        263        247        248        265        264        248        249        266        265        249        250        267        266        250        251        268        267        251        252        269        268        252        253        270        269        253        254        271        270        255        256        273        272        256        257        274        273        257        258        275        274        258        259        276        275        259        260        277        276        260        261        278        277        261        262        279        278        262        263        280        279        263        264        281        280        264        265        282        281        265        266        283        282        266        267        284        283        267        268        285        284        268        269        286        285        269        270        287        286        270        271        288        287        306        307          1          0        307        308          2          1        308        309          3          2        309        310          4          3        310        311          5          4        311        312          6          5        312        313          7          6        313        314          8          7        314        315          9          8        315        316         10          9        316        317         11         10        317        318         12         11        318        319         13         12        319        320         14         13        320        321         15         14        321        322         16         15        323        324        307        306        324        325        308        307        325        326        309        308        326        327        310        309        327        328        311        310        328        329        312        311        329        330        313        312        330        331        314        313        331        332        315        314        332        333        316        315        333        334        317        316        334        335        318        317        335        336        319        318        336        337        320        319        337        338        321        320        338        339        322        321        340        341        324        323        341        342        325        324        342        343        326        325        343        344        327        326        344        345        328        327        345        346        329        328        346        347        330        329        347        348        331        330        348        349        332        331        349        350        333        332        350        351        334        333        351        352        335        334        352        353        336        335        353        354        337        336        354        355        338        337        355        356        339        338        357        358        341        340        358        359        342        341        359        360        343        342        360        361        344        343        361        362        345        344        362        363        346        345        363        364        347        346        364        365        348        347        365        366        349        348        366        367        350        349        367        368        351        350        368        369        352        351        369        370        353        352        370        371        354        353        371        372        355        354        372        373        356        355        374        375        358        357        375        376        359        358        376        377        360        359        377        378        361        360        378        379        362        361        379        380        363        362        380        381        364        363        381        382        365        364        382        383        366        365        383        384        367        366        384        385        368        367        385        386        369        368        386        387        370        369        387        388        371        370        388        389        372        371        389        390        373        372        391        392        375        374        392        393        376        375        393        394        377        376        394        395        378        377        395        396        379        378        396        397        380        379        397        398        381        380        398        399        382        381        399        400        383        382        400        401        384        383        401        402        385        384        402        403        386        385        403        404        387        386        404        405        388        387        405        406        389        388        406        407        390        389        408        409        392        391        409        410        393        392        410        411        394        393        411        412        395        394        412        413        396        395        413        414        397        396        414        415        398        397        415        416        399        398        416        417        400        399        417        418        401        400        418        419        402        401        419        420        403        402        420        421        404        403        421        422        405        404        422        423        406        405        423        424        407        406        425        426        409        408        426        427        410        409        427        428        411        410        428        429        412        411        429        430        413        412        430        431        414        413        431        432        415        414        432        433        416        415        433        434        417        416        434        435        418        417        435        436        419        418        436        437        420        419        437        438        421        420        438        439        422        421        439        440        423        422        440        441        424        423        442        443        426        425        443        444        427        426        444        445        428        427        445        446        429        428        446        447        430        429        447        448        431        430        448        449        432        431        449        450        433        432        450        451        434        433        451        452        435        434        452        453        436        435        453        454        437        436        454        455        438        437        455        456        439        438        456        457        440        439        457        458        441        440        459        460        443        442        460        461        444        443        461        462        445        444        462        463        446        445        463        464        447        446        464        465        448        447        465        466        449        448        466        467        450        449        467        468        451        450        468        469        452        451        469        470        453        452        470        471        454        453        471        472        455        454        472        473        456        455        473        474        457        456        474        475        458        457        476        477        460        459        477        478        461        460        478        479        462        461        479        480        463        462        480        481        464        463        481        482        465        464        482        483        466        465        483        484        467        466        484        485        468        467        485        486        469        468        486        487        470        469        487        488        471        470        488        489        472        471        489        490        473        472        490        491        474        473        491        492        475        474        493        494        477        476        494        495        478        477        495        496        479        478        496        497        480        479        497        498        481        480        498        499        482        481        499        500        483        482        500        501        484        483        501        502        485        484        502        503        486        485        503        504        487        486        504        505        488        487        505        506        489        488        506        507        490        489        507        508        491        490        508        509        492        491        510        511        494        493        511        512        495        494        512        513        496        495        513        514        497        496        514        515        498        497        515        516        499        498        516        517        500        499        517        518        501        500        518        519        502        501        519        520        503        502        520        521        504        503        521        522        505        504        522        523        506        505        523        524        507        506        524        525        508        507        525        526        509        508        527        528        511        510        528        529        512        511        529        530        513        512        530        531        514        513        531        532        515        514        532        533        516        515        533        534        517        516        534        535        518        517        535        536        519        518        536        537        520        519        537        538        521        520        538        539        522        521        539        540        523        522        540        541        524        523        541        542        525        524        542        543        526        525        544        545        528        527        545        546        529        528        546        547        530        529        547        548        531        530        548        549        532        531        549        550        533        532        550        551        534        533        551        552        535        534        552        553        536        535        553        554        537        536        554        555        538        537        555        556        539        538        556        557        540        539        557        558        541        540        558        559        542        541        559        560        543        542        561        562        545        544        562        563        546        545        563        564        547        546        564        565        548        547        565        566        549        548        566        567        550        549        567        568        551        550        568        569        552        551        569        570        553        552        570        571        554        553        571        572        555        554        572        573        556        555        573        574        557        556        574        575        558        557        575        576        559        558        576        577        560        559        578        579        596        595        579        580        597        596        580        581        598        597        581        582        599        598        582        583        600        599        583        584        601        600        584        585        602        601        585        586        603        602        586        587        604        603        587        588        605        604        588        589        606        605        589        590        607        606        590        591        608        607        591        592        609        608        592        593        610        609        593        594        611        610        595        596        613        612        596        597        614        613        597        598        615        614        598        599        616        615        599        600        617        616        600        601        618        617        601        602        619        618        602        603        620        619        603        604        621        620        604        605        622        621        605        606        623        622        606        607        624        623        607        608        625        624        608        609        626        625        609        610        627        626        610        611        628        627        612        613        630        629        613        614        631        630        614        615        632        631        615        616        633        632        616        617        634        633        617        618        635        634        618        619        636        635        619        620        637        636        620        621        638        637        621        622        639        638        622        623        640        639        623        624        641        640        624        625        642        641        625        626        643        642        626        627        644        643        627        628        645        644        629        630        647        646        630        631        648        647        631        632        649        648        632        633        650        649        633        634        651        650        634        635        652        651        635        636        653        652        636        637        654        653        637        638        655        654        638        639        656        655        639        640        657        656        640        641        658        657        641        642        659        658        642        643        660        659        643        644        661        660        644        645        662        661        646        647        664        663        647        648        665        664        648        649        666        665        649        650        667        666        650        651        668        667        651        652        669        668        652        653        670        669        653        654        671        670        654        655        672        671        655        656        673        672        656        657        674        673        657        658        675        674        658        659        676        675        659        660        677        676        660        661        678        677        661        662        679        678        663        664        681        680        664        665        682        681        665        666        683        682        666        667        684        683        667        668        685        684        668        669        686        685        669        670        687        686        670        671        688        687        671        672        689        688        672        673        690        689        673        674        691        690        674        675        692        691        675        676        693        692        676        677        694        693        677        678        695        694        678        679        696        695        680        681        698        697        681        682        699        698        682        683        700        699        683        684        701        700        684        685        702        701        685        686        703        702        686        687        704        703        687        688        705        704        688        689        706        705        689        690        707        706        690        691        708        707        691        692        709        708        692        693        710        709        693        694        711        710        694        695        712        711        695        696        713        712        697        698        715        714        698        699        716        715        699        700        717        716        700        701        718        717        701        702        719        718        702        703        720        719        703        704        721        720        704        705        722        721        705        706        723        722        706        707        724        723        707        708        725        724        708        709        726        725        709        710        727        726        710        711        728        727        711        712        729        728        712        713        730        729        714        715        732        731        715        716        733        732        716        717        734        733        717        718        735        734        718        719        736        735        719        720        737        736        720        721        738        737        721        722        739        738        722        723        740        739        723        724        741        740        724        725        742        741        725        726        743        742        726        727        744        743        727        728        745        744        728        729        746        745        729        730        747        746        731        732        749        748        732        733        750        749        733        734        751        750        734        735        752        751        735        736        753        752        736        737        754        753        737        738        755        754        738        739        756        755        739        740        757        756        740        741        758        757        741        742        759        758        742        743        760        759        743        744        761        760        744        745        762        761        745        746        763        762        746        747        764        763        748        749        766        765        749        750        767        766        750        751        768        767        751        752        769        768        752        753        770        769        753        754        771        770        754        755        772        771        755        756        773        772        756        757        774        773        757        758        775        774        758        759        776        775        759        760        777        776        760        761        778        777        761        762        779        778        762        763        780        779        763        764        781        780        765        766        783        782        766        767        784        783        767        768        785        784        768        769        786        785        769        770        787        786        770        771        788        787        771        772        789        788        772        773        790        789        773        774        791        790        774        775        792        791        775        776        793        792        776        777        794        793        777        778        795        794        778        779        796        795        779        780        797        796        780        781        798        797        782        783        800        799        783        784        801        800        784        785        802        801        785        786        803        802        786        787        804        803        787        788        805        804        788        789        806        805        789        790        807        806        790        791        808        807        791        792        809        808        792        793        810        809        793        794        811        810        794        795        812        811        795        796        813        812        796        797        814        813        797        798        815        814        799        800        817        816        800        801        818        817        801        802        819        818        802        803        820        819        803        804        821        820        804        805        822        821        805        806        823        822        806        807        824        823        807        808        825        824        808        809        826        825        809        810        827        826        810        811        828        827        811        812        829        828        812        813        830        829        813        814        831        830        814        815        832        831        816        817        834        833        817        818        835        834        818        819        836        835        819        820        837        836        820        821        838        837        821        822        839        838        822        823        840        839        823        824        841        840        824        825        842        841        825        826        843        842        826        827        844        843        827        828        845        844        828        829        846        845        829        830        847        846        830        831        848        847        831        832        849        848        833        834        562        561        834        835        563        562        835        836        564        563        836        837        565        564        837        838        566        565        838        839        567        566        839        840        568        567        840        841        569        568        841        842        570        569        842        843        571        570        843        844        572        571        844        845        573        572        845        846        574        573        846        847        575        574        847        848        576        575        848        849        577        576        884        885        579        578        885        886        580        579        886        887        581        580        887        888        582        581        888        889        583        582        889        890        584        583        890        891        585        584        891        892        586        585        892        893        587        586        893        894        588        587        894        895        589        588        895        896        590        589        896        897        591        590        897        898        592        591        898        899        593        592        899        900        594        593        901        902        885        884        902        903        886        885        903        904        887        886        904        905        888        887        905        906        889        888        906        907        890        889        907        908        891        890        908        909        892        891        909        910        893        892        910        911        894        893        911        912        895        894        912        913        896        895        913        914        897        896        914        915        898        897        915        916        899        898        916        917        900        899        918        919        902        901        919        920        903        902        920        921        904        903        921        922        905        904        922        923        906        905        923        924        907        906        924        925        908        907        925        926        909        908        926        927        910        909        927        928        911        910        928        929        912        911        929        930        913        912        930        931        914        913        931        932        915        914        932        933        916        915        933        934        917        916        935        936        919        918        936        937        920        919        937        938        921        920        938        939        922        921        939        940        923        922        940        941        924        923        941        942        925        924        942        943        926        925        943        944        927        926        944        945        928        927        945        946        929        928        946        947        930        929        947        948        931        930        948        949        932        931        949        950        933        932        950        951        934        933        952        953        936        935        953        954        937        936        954        955        938        937        955        956        939        938        956        957        940        939        957        958        941        940        958        959        942        941        959        960        943        942        960        961        944        943        961        962        945        944        962        963        946        945        963        964        947        946        964        965        948        947        965        966        949        948        966        967        950        949        967        968        951        950        969        970        953        952        970        971        954        953        971        972        955        954        972        973        956        955        973        974        957        956        974        975        958        957        975        976        959        958        976        977        960        959        977        978        961        960        978        979        962        961        979        980        963        962        980        981        964        963        981        982        965        964        982        983        966        965        983        984        967        966        984        985        968        967        986        987        970        969        987        988        971        970        988        989        972        971        989        990        973        972        990        991        974        973        991        992        975        974        992        993        976        975        993        994        977        976        994        995        978        977        995        996        979        978        996        997        980        979        997        998        981        980        998        999        982        981        999       1000        983        982       1000       1001        984        983       1001       1002        985        984       1003       1004        987        986       1004       1005        988        987       1005       1006        989        988       1006       1007        990        989       1007       1008        991        990       1008       1009        992        991       1009       1010        993        992       1010       1011        994        993       1011       1012        995        994       1012       1013        996        995       1013       1014        997        996       1014       1015        998        997       1015       1016        999        998       1016       1017       1000        999       1017       1018       1001       1000       1018       1019       1002       1001       1020       1021       1004       1003       1021       1022       1005       1004       1022       1023       1006       1005       1023       1024       1007       1006       1024       1025       1008       1007       1025       1026       1009       1008       1026       1027       1010       1009       1027       1028       1011       1010       1028       1029       1012       1011       1029       1030       1013       1012       1030       1031       1014       1013       1031       1032       1015       1014       1032       1033       1016       1015       1033       1034       1017       1016       1034       1035       1018       1017       1035       1036       1019       1018       1037       1038       1021       1020       1038       1039       1022       1021       1039       1040       1023       1022       1040       1041       1024       1023       1041       1042       1025       1024       1042       1043       1026       1025       1043       1044       1027       1026       1044       1045       1028       1027       1045       1046       1029       1028       1046       1047       1030       1029       1047       1048       1031       1030       1048       1049       1032       1031       1049       1050       1033       1032       1050       1051       1034       1033       1051       1052       1035       1034       1052       1053       1036       1035       1054       1055       1038       1037       1055       1056       1039       1038       1056       1057       1040       1039       1057       1058       1041       1040       1058       1059       1042       1041       1059       1060       1043       1042       1060       1061       1044       1043       1061       1062       1045       1044       1062       1063       1046       1045       1063       1064       1047       1046       1064       1065       1048       1047       1065       1066       1049       1048       1066       1067       1050       1049       1067       1068       1051       1050       1068       1069       1052       1051       1069       1070       1053       1052       1071       1072       1055       1054       1072       1073       1056       1055       1073       1074       1057       1056       1074       1075       1058       1057       1075       1076       1059       1058       1076       1077       1060       1059       1077       1078       1061       1060       1078       1079       1062       1061       1079       1080       1063       1062       1080       1081       1064       1063       1081       1082       1065       1064       1082       1083       1066       1065       1083       1084       1067       1066       1084       1085       1068       1067       1085       1086       1069       1068       1086       1087       1070       1069       1088       1089       1072       1071       1089       1090       1073       1072       1090       1091       1074       1073       1091       1092       1075       1074       1092       1093       1076       1075       1093       1094       1077       1076       1094       1095       1078       1077       1095       1096       1079       1078       1096       1097       1080       1079       1097       1098       1081       1080       1098       1099       1082       1081       1099       1100       1083       1082       1100       1101       1084       1083       1101       1102       1085       1084       1102       1103       1086       1085       1103       1104       1087       1086       1105       1106       1089       1088       1106       1107       1090       1089       1107       1108       1091       1090       1108       1109       1092       1091       1109       1110       1093       1092       1110       1111       1094       1093       1111       1112       1095       1094       1112       1113       1096       1095       1113       1114       1097       1096       1114       1115       1098       1097       1115       1116       1099       1098       1116       1117       1100       1099       1117       1118       1101       1100       1118       1119       1102       1101       1119       1120       1103       1102       1120       1121       1104       1103       1122       1123       1106       1105       1123       1124       1107       1106       1124       1125       1108       1107       1125       1126       1109       1108       1126       1127       1110       1109       1127       1128       1111       1110       1128       1129       1112       1111       1129       1130       1113       1112       1130       1131       1114       1113       1131       1132       1115       1114       1132       1133       1116       1115       1133       1134       1117       1116       1134       1135       1118       1117       1135       1136       1119       1118       1136       1137       1120       1119       1137       1138       1121       1120        272        273       1123       1122        273        274       1124       1123        274        275       1125       1124        275        276       1126       1125        276        277       1127       1126        277        278       1128       1127        278        279       1129       1128        279        280       1130       1129        280        281       1131       1130        281        282       1132       1131        282        283       1133       1132        283        284       1134       1133        284        285       1135       1134        285        286       1136       1135        286        287       1137       1136        287        288       1138       1137 </DataArray>
<DataArray type="Int32"                                    Name="offsets"                                                      NumberOfComponents=" 1" format="ascii">
         4          8         12         16         20         24         28         32         36         40         44         48         52         56         60         64         68         72         76         80         84         88         92         96        100        104        108        112        116        120        124        128        132        136        140        144        148        152        156        160        164        168        172        176        180        184        188        192        196        200        204        208        212        216        220        224        228        232        236        240        244        248        252        256        260        264        268        272        276        280        284        288        292        296        300        304        308        312        316        320        324        328        332        336        340        344        348        352        356        360        364        368        372        376        380        384        388        392        396        400        404        408        412        416        420        424        428        432        436        440        444        448        452        456        460        464        468        472        476        480        484        488        492        496        500        504        508        512        516        520        524        528        532        536        540        544        548        552        556        560        564        568        572        576        580        584        588        592        596        600        604        608        612        616        620        624        628        632        636        640        644        648        652        656        660        664        668        672        676        680        684        688        692        696        700        704        708        712        716        720        724        728        732        736        740        744        748        752        756        760        764        768        772        776        780        784        788        792        796        800        804        808        812        816        820        824        828        832        836        840        844        848        852        856        860        864        868        872        876        880        884        888        892        896        900        904        908        912        916        920        924        928        932        936        940        944        948        952        956        960        964        968        972        976        980        984        988        992        996       1000       1004       1008       1012       1016       1020       1024       1028       1032       1036       1040       1044       1048       1052       1056       1060       1064       1068       1072       1076       1080       1084       1088       1092       1096       1100       1104       1108       1112       1116       1120       1124       1128       1132       1136       1140       1144       1148       1152       1156       1160       1164       1168       1172       1176       1180       1184       1188       1192       1196       1200       1204       1208       1212       1216       1220       1224       1228       1232       1236       1240       1244       1248       1252       1256       1260       1264       1268       1272       1276       1280       1284       1288       1292       1296       1300       1304       1308       1312       1316       1320       1324       1328       1332       1336       1340       1344       1348       1352       1356       1360       1364       1368       1372       1376       1380       1384       1388       1392       1396       1400       1404       1408       1412       1416       1420       1424       1428       1432       1436       1440       1444       1448       1452       1456       1460       1464       1468       1472       1476       1480       1484       1488       1492       1496       1500       1504       1508       1512       1516       1520       1524       1528       1532       1536       1540       1544       1548       1552       1556       1560       1564       1568       1572       1576       1580       1584       1588       1592       1596       1600       1604       1608       1612       1616       1620       1624       1628       1632       1636       1640       1644       1648       1652       1656       1660       1664       1668       1672       1676       1680       1684       1688       1692       1696       1700       1704       1708       1712       1716       1720       1724       1728       1732       1736       1740       1744       1748       1752       1756       1760       1764       1768       1772       1776       1780       1784       1788       1792       1796       1800       1804       1808       1812       1816       1820       1824       1828       1832       1836       1840       1844       1848       1852       1856       1860       1864       1868       1872       1876       1880       1884       1888       1892       1896       1900       1904       1908       1912       1916       1920       1924       1928       1932       1936       1940       1944       1948       1952       1956       1960       1964       1968       1972       1976       1980       1984       1988       1992       1996       2000       2004       2008       2012       2016       2020       2024       2028       2032       2036       2040       2044       2048       2052       2056       2060       2064       2068       2072       2076       2080       2084       2088       2092       2096       2100       2104       2108       2112       2116       2120       2124       2128       2132       2136       2140       2144       2148       2152       2156       2160       2164       2168       2172       2176       2180       2184       2188       2192       2196       2200       2204       2208       2212       2216       2220       2224       2228       2232       2236       2240       2244       2248       2252       2256       2260       2264       2268       2272       2276       2280       2284       2288       2292       2296       2300       2304       2308       2312       2316       2320       2324       2328       2332       2336       2340       2344       2348       2352       2356       2360       2364       2368       2372       2376       2380       2384       2388       2392       2396       2400       2404       2408       2412       2416       2420       2424       2428       2432       2436       2440       2444       2448       2452       2456       2460       2464       2468       2472       2476       2480       2484       2488       2492       2496       2500       2504       2508       2512       2516       2520       2524       2528       2532       2536       2540       2544       2548       2552       2556       2560       2564       2568       2572       2576       2580       2584       2588       2592       2596       2600       2604       2608       2612       2616       2620       2624       2628       2632       2636       2640       2644       2648       2652       2656       2660       2664       2668       2672       2676       2680       2684       2688       2692       2696       2700       2704       2708       2712       2716       2720       2724       2728       2732       2736       2740       2744       2748       2752       2756       2760       2764       2768       2772       2776       2780       2784       2788       2792       2796       2800       2804       2808       2812       2816       2820       2824       2828       2832       2836       2840       2844       2848       2852       2856       2860       2864       2868       2872       2876       2880       2884       2888       2892       2896       2900       2904       2908       2912       2916       2920       2924       2928       2932       2936       2940       2944       2948       2952       2956       2960       2964       2968       2972       2976       2980       2984       2988       2992       2996       3000       3004       3008       3012       3016       3020       3024       3028       3032       3036       3040       3044       3048       3052       3056       3060       3064       3068       3072       3076       3080       3084       3088       3092       3096       3100       3104       3108       3112       3116       3120       3124       3128       3132       3136       3140       3144       3148       3152       3156       3160       3164       3168       3172       3176       3180       3184       3188       3192       3196       3200       3204       3208       3212       3216       3220       3224       3228       3232       3236       3240       3244       3248       3252       3256       3260       3264       3268       3272       3276       3280       3284       3288       3292       3296       3300       3304       3308       3312       3316       3320       3324       3328       3332       3336       3340       3344       3348       3352       3356       3360       3364       3368       3372       3376       3380       3384       3388       3392       3396       3400       3404       3408       3412       3416       3420       3424       3428       3432       3436       3440       3444       3448       3452       3456       3460       3464       3468       3472       3476       3480       3484       3488       3492       3496       3500       3504       3508       3512       3516       3520       3524       3528       3532       3536       3540       3544       3548       3552       3556       3560       3564       3568       3572       3576       3580       3584       3588       3592       3596       3600       3604       3608       3612       3616       3620       3624       3628       3632       3636       3640       3644       3648       3652       3656       3660       3664       3668       3672       3676       3680       3684       3688       3692       3696       3700       3704       3708       3712       3716       3720       3724       3728       3732       3736       3740       3744       3748       3752       3756       3760       3764       3768       3772       3776       3780       3784       3788       3792       3796       3800       3804       3808       3812       3816       3820       3824       3828       3832       3836       3840       3844       3848       3852       3856       3860       3864       3868       3872       3876       3880       3884       3888       3892       3896       3900       3904       3908       3912       3916       3920       3924       3928       3932       3936       3940       3944       3948       3952       3956       3960       3964       3968       3972       3976       3980       3984       3988       3992       3996       4000       4004       4008       4012       4016       4020       4024       4028       4032       4036       4040       4044       4048       4052       4056       4060       4064       4068       4072       4076       4080       4084       4088       4092       4096 </DataArray>
<DataArray type="UInt8"                                    Name="types"                                                      NumberOfComponents=" 1" format="ascii">
         9          9          9          9          9          9          9          9          9          9          9          9          9          9          9          9          9          9          9          9          9          9          9          9          9          9          9          9          9          9          9          9          9          9          9          9          9          9          9          9          9          9          9          9          9          9          9          9          9          9          9          9          9          9          9          9          9          9          9          9          9          9          9          9          9          9          9          9          9          9          9          9          9          9          9          9          9          9          9          9          9          9          9          9          9          9          9          9          9          9          9          9          9          9          9          9          9          9          9          9          9          9          9          9          9          9          9          9          9          9          9          9          9          9          9          9          9          9          9          9          9          9          9          9          9          9          9          9          9          9          9          9          9          9          9          9          9          9          9          9          9          9          9          9          9          9          9          9          9          9          9          9          9          9          9          9          9          9          9          9          9          9          9          9          9          9          9          9          9          9          9          9          9          9          9          9          9          9          9          9          9          9          9          9          9          9          9          9          9          9          9          9          9          9          9          9          9          9          9          9          9          9          9          9          9          9          9          9          9          9          9          9          9          9          9          9          9          9          9          9          9          9          9          9          9          9          9          9          9          9          9          9          9          9          9          9          9          9          9          9          9          9          9          9          9          9          9          9          9          9          9          9          9          9          9          9          9          9          9          9          9          9          9          9          9          9          9          9          9          9          9          9          9          9          9          9          9          9          9          9          9          9          9          9          9          9          9          9          9          9          9          9          9          9          9          9          9          9          9          9          9          9          9          9          9          9          9          9          9          9          9          9          9          9          9          9          9          9          9          9          9          9          9          9          9          9          9          9          9          9          9          9          9          9          9          9          9          9          9          9          9          9          9          9          9          9          9          9          9          9          9          9          9          9          9          9          9          9          9          9          9          9          9          9          9          9          9          9          9          9          9          9          9          9          9          9          9          9          9          9          9          9          9          9          9          9          9          9          9          9          9          9          9          9          9          9          9          9          9          9          9          9          9          9          9          9          9          9          9          9          9          9          9          9          9          9          9          9          9          9          9          9          9          9          9          9          9          9          9          9          9          9          9          9          9          9          9          9          9          9          9          9          9          9          9          9          9          9          9          9          9          9          9          9          9          9          9          9          9          9          9          9          9          9          9          9          9          9          9          9          9          9          9          9          9          9          9          9          9          9          9          9          9          9          9          9          9          9          9          9          9          9          9          9          9          9          9          9          9          9          9          9          9          9          9          9          9          9          9          9          9          9          9          9          9          9          9          9          9          9          9          9          9          9          9          9          9          9          9          9          9          9          9          9          9          9          9          9          9          9          9          9          9          9          9          9          9          9          9          9          9          9          9          9          9          9          9          9          9          9          9          9          9          9          9          9          9          9          9          9          9          9          9          9          9          9          9          9          9          9          9          9          9          9          9          9          9          9          9          9          9          9          9          9          9          9          9          9          9          9          9          9          9          9          9          9          9          9          9          9          9          9          9          9          9          9          9          9          9          9          9          9          9          9          9          9          9          9          9          9          9          9          9          9          9          9          9          9          9          9          9          9          9          9          9          9          9          9          9          9          9          9          9          9          9          9          9          9          9          9          9          9          9          9          9          9          9          9          9          9          9          9          9          9          9          9          9          9          9          9          9          9          9          9          9          9          9          9          9          9          9          9          9          9          9          9          9          9          9          9          9          9          9          9          9          9          9          9          9          9          9          9          9          9          9          9          9          9          9          9          9          9          9          9          9          9          9          9          9          9          9          9          9          9          9          9          9          9          9          9          9          9          9          9          9          9          9          9          9          9          9          9          9          9          9          9          9          9          9          9          9          9          9          9          9          9          9          9          9          9          9          9          9          9          9          9          9          9          9          9          9          9          9          9          9          9          9          9          9          9          9          9          9          9          9          9          9          9          9          9          9          9          9          9          9          9          9          9          9          9          9          9          9          9          9          9          9          9          9          9          9          9          9          9          9          9          9          9          9          9          9          9          9          9          9          9          9          9          9          9          9          9          9          9          9          9          9          9          9          9          9          9          9          9          9          9          9          9          9          9          9          9          9          9          9          9          9          9          9          9          9          9          9          9          9          9          9          9          9          9          9          9          9          9          9          9          9          9          9          9          9          9          9          9          9          9          9          9          9          9          9          9          9          9          9          9          9          9          9          9          9          9          9          9          9          9          9          9          9          9          9          9          9          9          9          9          9          9          9          9          9          9          9          9          9          9          9          9          9          9          9          9          9          9          9          9          9          9          9          9          9          9          9          9          9          9          9          9          9          9          9          9          9          9          9          9          9          9          9          9          9          9          9          9          9          9          9          9          9          9          9          9          9          9          9          9          9          9          9          9          9          9          9          9          9          9          9          9          9          9          9          9          9          9          9          9          9          9          9          9          9          9          9          9          9          9          9          9          9          9          9          9          9          9 </DataArray>
</Cells>
<CellData>
<DataArray type="Int32"                                    Name="material"                                                      NumberOfComponents=" 1" format="ascii">
         1          1          1          1          1          1          1          1          1          1          1          1          1          1          1          1          1          1          1          1          1          1          1          1          1          1          1          1          1          1          1          1          1          1          1          1          1          1          1          1          1          1          1          1          1          1          1          1          1          1          1          1          1          1          1          1          1          1          1          1          1          1          1          1          1          1          1          1          1          1          1          1          1          1          1          1          1          1          1          1          1          1          1          1          1          1          1          1          1          1          1          1          1          1          1          1          1          1          1          1          1          1          1          1          1          1          1          1          1          1          1          1          1          1          1          1          1          1          1          1          1          1          1          1          1          1          1          1          1          1          1          1          1          1          1          1          1          1          1          1          1          1          1          1          1          1          1          1          1          1          1          1          1          1          1          1          1          1          1          1          1          1          1          1          1          1          1          1          1          1          1          1          1          1          1          1          1          1          1          1          1          1          1          1          1          1          1          1          1          1          1          1          1          1          1          1          1          1          1          1          1          1          1          1          1          1          1          1          1          1          1          1          1          1          1          1          1          1          1          1          1          1          1          1          1          1          1          1          1          1          1          1          1          1          1          1          1          1          1          1          1          1          1          1          1          1          1          1          1          1          1          1          1          1          1          1          1          1          1          1          1          1          1          1          1          1          1          1          1          1          1          1          1          1          1          1          1          1          1          1          1          1          1          1          1          1          1          1          1          1          1          1          1          1          1          1          1          1          1          1          1          1          1          1          1          1          1          1          1          1          1          1          1          1          1          1          1          1          1          1          1          1          1          1          1          1          1          1          1          1          1          1          1          1          1          1          1          1          1          1          1          1          1          1          1          1          1          1          1          1          1          1          1          1          1          1          1          1          1          1          1          1          1          1          1          1          1          1          1          1          1          1          1          1          1          1          1          1          1          1          1          1          1          1          1          1          1          1          1          1          1          1          1          1          1          1          1          1          1          1          1          1          1          1          1          1          1          1          1          1          1          1          1          1          1          1          1          1          1          1          1          1          1          1          1          1          1          1          1          1          1          1          1          1          1          1          1          1          1          1          1          1          1          1          1          1          1          1          1          1          1          1          1          1          1          1          1          1          1          1          1          1          1          1          1          1          1          1          1          1          1          1          1          1          1          1          1          1          1          1          1          1          1          1          1          1          1          1          1          1          1          1          1          1          1          1          1          1          1          1          1          1          1          1          1          1          1          1          1          1          1          1          1          1          1          1          1          1          1          1          1          1          1          1          1          1          1          1          1          1          1          1          1          1          1          1          1          1          1          1          1          1          1          1          1          1          1          1          1          1          1          1          1          1          1          1          1          1          1          1          1          1          1          1          1          1          1          1          1          1          1          1          1          1          1          1          1          1          1          1          1          1          1          1          1          1          1          1          1          1          1          1          1          1          1          1          1          1          1          1          1          1          1          1          1          1          1          1          1          1          1          1          1          1          1          1          1          1          1          1          1          1          1          1          1          1          1          1          1          1          1          1          1          1          1          1          1          1          1          1          1          1          1          1          1          1          1          1          1          1          1          1          1          1          1          1          1          1          1          1          1          1          1          1          1          1          1          1          1          1          1          1          1          1          1          1          1          1          1          1          1          1          1          1          1          1          1          1          1          1          1          1          1          1          1          1          1          1          1          1          1          1          1          1          1          1          1          1          1          1          1          1          1          1          1          1          1          1          1          1          1          1          1          1          1          1          1          1          1          1          1          1          1          1          1          1          1          1          1          1          1          1          1          1          1          1          1          1          1          1          1          1          1          1          1          1          1          1          1          1          1          1          1          1          1          1          1          1          1          1          1          1          1          1          1          1          1          1          1          1          1          1          1          1          1          1          1          1          1          1          1          1          1          1          1          1          1          1          1          1          1          1          1          1          1          1          1          1          1          1          1          1          1          1          1          1          1          1          1          1          1          1          1          1          1          1          1          1          1          1          1          1          1          1          1          1          1          1          1          1          1          1          1          1          1          1          1          1          1          1          1          1          1          1          1          1          1          1          1          1          1          1          1          1          1          1          1          1          1          1          1          1          1          1          1          1          1          1          1          1          1          1          1          1          1          1          1          1          1          1          1          1          1          1          1          1          1          1          1          1          1          1          1          1          1          1          1          1          1          1          1          1          1          1          1          1          1          1          1          1          1          1          1          1          1          1          1          1          1          1          1          1          1          1          1          1          1          1          1          1          1          1          1          1          1          1          1          1          1          1          1          1          1          1          1          1          1          1          1          1          1          1          1          1          1          1          1          1          1          1          1          1          1          1          1          1          1          1          1          1          1          1          1          1          1          1          1          1          1          1          1          1          1          1          1          1          1          1          1          1          1          1          1          1          1          1          1          1          1          1          1          1          1          1          1          1          1          1          1          1          1          1          1          1 </DataArray>
</CellData>
<PointData>
<DataArray type="Float64"                                    Name="u"                                                      NumberOfComponents=" 3" format="ascii">
              0.000003381              -0.000000000               0.999999998              -0.000007597              -0.000000000               0.999999998              -0.000013121              -0.000000000               0.999999998              -0.000016418               0.000000000               0.999999998              -0.000019021               0.000000000               0.999999998              -0.000021555               0.000000000               0.999999998              -0.000024321               0.000000000               0.999999998              -0.000027510              -0.000000000               0.999999998              -0.000031122              -0.000000000               0.999999998              -0.000035221              -0.000000000               0.999999998              -0.000039812               0.000000000               0.999999998              -0.000044927              -0.000000000               0.999999998              -0.000050512              -0.000000000               0.999999998              -0.000056565               0.000000000               0.999999998              -0.000063113               0.000000000               0.999999998              -0.000070192              -0.000000000               0.999999998              -0.000077815               0.000000000               0.999999998               0.000003283               0.000026892               0.999999998              -0.000007296               0.000024260               0.999999998              -0.000012563               0.000023693               0.999999998              -0.000015815               0.000024379               0.999999998              -0.000018389               0.000025849               0.999999998              -0.000020942               0.000027778               0.999999998              -0.000023783               0.000030132               0.999999998              -0.000027041               0.000032811               0.999999998              -0.000030801               0.000035651               0.999999998              -0.000035091               0.000038732               0.999999998              -0.000039861               0.000041920               0.999999998              -0.000045115               0.000045333               0.999999998              -0.000050895               0.000048846               0.999999998              -0.000057131               0.000052484               0.999999998              -0.000063838               0.000056325               0.999999998              -0.000071068               0.000060402               0.999999998              -0.000078801               0.000064385               0.999999998               0.000003059               0.000053593               0.999999998              -0.000006440               0.000048238               0.999999998              -0.000011072               0.000047247               0.999999998              -0.000014043               0.000048712               0.999999998              -0.000016604               0.000051686               0.999999998              -0.000019312               0.000055715               0.999999998              -0.000022403               0.000060445               0.999999998              -0.000026030               0.000065725               0.999999998              -0.000030228               0.000071494               0.999999998              -0.000034919               0.000077618               0.999999998              -0.000040136               0.000084056               0.999999998              -0.000045889               0.000090757               0.999999998              -0.000052138               0.000097792               0.999999998              -0.000058874               0.000104995               0.999999998              -0.000066062               0.000112687               0.999999998              -0.000073724               0.000120820               0.999999998              -0.000081882               0.000128966               0.999999998               0.000002714               0.000079797               0.999999998              -0.000004981               0.000071685               0.999999998              -0.000008722               0.000070369               0.999999998              -0.000011388               0.000072750               0.999999998              -0.000014026               0.000077389               0.999999998              -0.000017094               0.000083520               0.999999998              -0.000020710               0.000090726               0.999999998              -0.000024953               0.000098689               0.999999998              -0.000029813               0.000107326               0.999999998              -0.000035274               0.000116512               0.999999998              -0.000041305               0.000126088               0.999999998              -0.000047834               0.000136165               0.999999998              -0.000054851               0.000146666               0.999999998              -0.000062381               0.000157589               0.999999998              -0.000070444               0.000169102               0.999999998              -0.000078959               0.000181234               0.999999998              -0.000087847               0.000193529               0.999999998               0.000002230               0.000105185               0.999999998              -0.000002970               0.000094361               0.999999998              -0.000005697               0.000092944               0.999999998              -0.000008236               0.000096425               0.999999998              -0.000011216               0.000102868               0.999999998              -0.000014874               0.000111234               0.999999998              -0.000019272               0.000120871               0.999999998              -0.000024397               0.000131583               0.999999998              -0.000030255               0.000143145               0.999999998              -0.000036762               0.000155401               0.999999998              -0.000043795               0.000168193               0.999999998              -0.000051325               0.000181496               0.999999998              -0.000059387               0.000195569               0.999999998              -0.000068056               0.000210238               0.999999998              -0.000077194               0.000225453               0.999999998              -0.000086628               0.000241214               0.999999998              -0.000096292               0.000257204               0.999999998               0.000001803               0.000129576               0.999999998              -0.000000465               0.000116197               0.999999998              -0.000002340               0.000114919               0.999999998              -0.000004977               0.000119682               0.999999998              -0.000008566               0.000128006               0.999999998              -0.000013112               0.000138581               0.999999998              -0.000018600               0.000150766               0.999999998              -0.000024933               0.000164195               0.999999998              -0.000031961               0.000178676               0.999999998              -0.000039579               0.000193941               0.999999998              -0.000047735               0.000209957               0.999999998              -0.000056480               0.000226635               0.999999998              -0.000065760               0.000244210               0.999999998              -0.000075519               0.000262485               0.999999998              -0.000085632               0.000281127               0.999999998              -0.000095910               0.000299981               0.999999998              -0.000106313               0.000319245               0.999999998               0.000001421               0.000152710               0.999999998               0.000002318               0.000137132               0.999999998               0.000001052               0.000136222               0.999999998              -0.000002007               0.000142397               0.999999998              -0.000006513               0.000152612               0.999999998              -0.000012232               0.000165458               0.999999998              -0.000019008               0.000180154               0.999999998              -0.000026593               0.000196361               0.999999998              -0.000034805               0.000213670               0.999999998              -0.000043606               0.000231982               0.999999998              -0.000053006               0.000251200               0.999999998              -0.000062933               0.000271292               0.999999998              -0.000073382               0.000292256               0.999999998              -0.000084100               0.000314060               0.999999998              -0.000094972               0.000335978               0.999999998              -0.000105995               0.000358089               0.999999998              -0.000117289               0.000380810               0.999999998               0.000001081               0.000174322               0.999999998               0.000005178               0.000157118               0.999999998               0.000004206               0.000156783               0.999999998               0.000000387               0.000164408               0.999999998              -0.000005263               0.000176508               0.999999998              -0.000012284               0.000191648               0.999999998              -0.000020335               0.000208893               0.999999998              -0.000029153               0.000227798               0.999999998              -0.000038547               0.000247956               0.999999998              -0.000048541               0.000269335               0.999999998              -0.000059006               0.000291902               0.999999998              -0.000069962               0.000315572               0.999999998              -0.000081286               0.000340251               0.999999998              -0.000092830               0.000365470               0.999999998              -0.000104535               0.000390834               0.999999998              -0.000116536               0.000416633               0.999999998              -0.000128938               0.000443196               0.999999998               0.000000708               0.000194054               0.999999998               0.000008004               0.000176189               0.999999998               0.000006828               0.000176481               0.999999998               0.000002025               0.000185457               0.999999998              -0.000004811               0.000199521               0.999999998              -0.000013155               0.000216937               0.999999998              -0.000022402               0.000236767               0.999999998              -0.000032349               0.000258408               0.999999998              -0.000042846               0.000281556               0.999999998              -0.000053827               0.000306241               0.999999998              -0.000065261               0.000332404               0.999999998              -0.000077204               0.000359829               0.999999998              -0.000089512               0.000388133               0.999999998              -0.000101923               0.000417004               0.999999998              -0.000114521               0.000446394               0.999999998              -0.000127522               0.000476431               0.999999998              -0.000140811               0.000506999               0.999999998               0.000000055               0.000212526               0.999999998               0.000009764               0.000196009               0.999999998               0.000009768               0.000194387               0.999999998               0.000005838               0.000201054               0.999999998              -0.000000209               0.000212764               0.999999998              -0.000007586               0.000227966               0.999999998              -0.000015946               0.000245657               0.999999998              -0.000024878               0.000265179               0.999999998              -0.000034152               0.000286231               0.999999998              -0.000043741               0.000308665               0.999999998              -0.000053784               0.000332540               0.999999998              -0.000064252               0.000357671               0.999999998              -0.000075189               0.000383980               0.999999998              -0.000086199               0.000411171               0.999999998              -0.000097136               0.000439075               0.999999998              -0.000108181               0.000467564               0.999999998              -0.000119376               0.000496860               0.999999998              -0.000000378               0.000229262               0.999999998               0.000010638               0.000214962               0.999999998               0.000011846               0.000212501               0.999999998               0.000008967               0.000217299               0.999999998               0.000003910               0.000226966               0.999999998              -0.000002397               0.000240081               0.999999998              -0.000009772               0.000255769               0.999999998              -0.000017606               0.000273393               0.999999998              -0.000025720               0.000292543               0.999999998              -0.000034067               0.000312977               0.999999998              -0.000042788               0.000334667               0.999999998              -0.000051855               0.000357655               0.999999998              -0.000061198               0.000381814               0.999999998              -0.000070671               0.000407145               0.999999998              -0.000080012               0.000433351               0.999999998              -0.000089272               0.000460232               0.999999998              -0.000098579               0.000487795               0.999999998              -0.000000646               0.000243875               0.999999998               0.000010611               0.000232540               0.999999998               0.000012763               0.000230052               0.999999998               0.000010981               0.000233628               0.999999998               0.000007075               0.000241647               0.999999998               0.000001857               0.000252985               0.999999998              -0.000004289               0.000266915               0.999999998              -0.000011022               0.000282827               0.999999998              -0.000017916               0.000300311               0.999999998              -0.000025099               0.000319067               0.999999998              -0.000032578               0.000338937               0.999999998              -0.000040223               0.000360005               0.999999998              -0.000047926               0.000382301               0.999999998              -0.000055671               0.000405791               0.999999998              -0.000063289               0.000430317               0.999999998              -0.000070639               0.000455629               0.999999998              -0.000077637               0.000481574               0.999999998              -0.000000734               0.000256103               0.999999998               0.000009705               0.000248098               0.999999998               0.000012379               0.000246197               0.999999998               0.000011580               0.000249213               0.999999998               0.000008778               0.000256062               0.999999998               0.000004756               0.000265955               0.999999998              -0.000000121               0.000278386               0.999999998              -0.000005592               0.000292817               0.999999998              -0.000011350               0.000308899               0.999999998              -0.000017277               0.000326243               0.999999998              -0.000023458               0.000344711               0.999999998              -0.000029741               0.000364268               0.999999998              -0.000035862               0.000384986               0.999999998              -0.000041769               0.000406894               0.999999998              -0.000047387               0.000429956               0.999999998              -0.000052743               0.000453874               0.999999998              -0.000057605               0.000478468               0.999999998              -0.000000663               0.000265792               0.999999998               0.000008020               0.000260979               0.999999998               0.000010690               0.000260047               0.999999998               0.000010580               0.000262937               0.999999998               0.000008766               0.000269130               0.999999998               0.000005904               0.000278045               0.999999998               0.000002272               0.000289276               0.999999998              -0.000001858               0.000302513               0.999999998              -0.000006369               0.000317443               0.999999998              -0.000010915               0.000333796               0.999999998              -0.000015629               0.000351308               0.999999998              -0.000020397               0.000369871               0.999999998              -0.000025009               0.000389479               0.999999998              -0.000029137               0.000410262               0.999999998              -0.000032962               0.000432123               0.999999998              -0.000036395               0.000454858               0.999999998              -0.000039038               0.000478376               0.999999998              -0.000000501               0.000272808               0.999999998               0.000005693               0.000270591               0.999999998               0.000007839               0.000270715               0.999999998               0.000008066               0.000273810               0.999999998               0.000007055               0.000279647               0.999999998               0.000005216               0.000287981               0.999999998               0.000002861               0.000298474               0.999999998               0.000000070               0.000310911               0.999999998              -0.000002983               0.000325093               0.999999998              -0.000006136               0.000340731               0.999999998              -0.000009235               0.000357598               0.999999998              -0.000012327               0.000375627               0.999999998              -0.000015431               0.000394677               0.999999998              -0.000018231               0.000414694               0.999999998              -0.000020530               0.000435732               0.999999998              -0.000022284               0.000457773               0.999999998              -0.000023180               0.000480604               0.999999998              -0.000000273               0.000277040               0.999999998               0.000002940               0.000276545               0.999999998               0.000004133               0.000277432               0.999999998               0.000004345               0.000280780               0.999999998               0.000003919               0.000286571               0.999999998               0.000003075               0.000294625               0.999999998               0.000001928               0.000304753               0.999999998               0.000000536               0.000316715               0.999999998              -0.000001066               0.000330382               0.999999998              -0.000002711               0.000345615               0.999999998              -0.000004165               0.000362164               0.999999998              -0.000005595               0.000379879               0.999999998              -0.000007345               0.000398617               0.999999998              -0.000008913               0.000418311               0.999999998              -0.000009772               0.000438989               0.999999998              -0.000010371               0.000460612               0.999999998              -0.000010629               0.000483063               0.999999998              -0.000000000               0.000278422               0.999999998               0.000000000               0.000278543               0.999999998               0.000000000               0.000279743               0.999999998              -0.000000000               0.000283201               0.999999998               0.000000000               0.000288982               0.999999998               0.000000000               0.000296908               0.999999998               0.000000000               0.000306938               0.999999998               0.000000000               0.000318810               0.999999998               0.000000000               0.000332288               0.999999998              -0.000000000               0.000347313               0.999999998              -0.000000000               0.000363828               0.999999998               0.000000000               0.000381487               0.999999998              -0.000000000               0.000400075               0.999999998              -0.000000000               0.000419767               0.999999998              -0.000000000               0.000440318               0.999999998               0.000000000               0.000461738               0.999999998               0.000000000               0.000484128               0.999999998               0.000003381              -0.000000000               0.999999998              -0.000007597              -0.000000000               0.999999998              -0.000013121              -0.000000000               0.999999998              -0.000016418               0.000000000               0.999999998              -0.000019021               0.000000000               0.999999998              -0.000021555               0.000000000               0.999999998              -0.000024321               0.000000000               0.999999998              -0.000027510              -0.000000000               0.999999998              -0.000031122              -0.000000000               0.999999998              -0.000035221              -0.000000000               0.999999998              -0.000039812               0.000000000               0.999999998              -0.000044927              -0.000000000               0.999999998              -0.000050512              -0.000000000               0.999999998              -0.000056565               0.000000000               0.999999998              -0.000063113               0.000000000               0.999999998              -0.000070192              -0.000000000               0.999999998              -0.000077815               0.000000000               0.999999998               0.000003283              -0.000026892               0.999999998              -0.000007296              -0.000024260               0.999999998              -0.000012563              -0.000023693               0.999999998              -0.000015815              -0.000024379               0.999999998              -0.000018389              -0.000025849               0.999999998              -0.000020942              -0.000027778               0.999999998              -0.000023783              -0.000030132               0.999999998              -0.000027041              -0.000032811               0.999999998              -0.000030801              -0.000035651               0.999999998              -0.000035091              -0.000038732               0.999999998              -0.000039861              -0.000041920               0.999999998              -0.000045115              -0.000045333               0.999999998              -0.000050895              -0.000048846               0.999999998              -0.000057131              -0.000052484               0.999999998              -0.000063838              -0.000056325               0.999999998              -0.000071068              -0.000060402               0.999999998              -0.000078801              -0.000064385               0.999999998               0.000003059              -0.000053593               0.999999998              -0.000006440              -0.000048238               0.999999998              -0.000011072              -0.000047247               0.999999998              -0.000014043              -0.000048712               0.999999998              -0.000016604              -0.000051686               0.999999998              -0.000019312              -0.000055715               0.999999998              -0.000022403              -0.000060445               0.999999998              -0.000026030              -0.000065725               0.999999998              -0.000030228              -0.000071494               0.999999998              -0.000034919              -0.000077618               0.999999998              -0.000040136              -0.000084056               0.999999998              -0.000045889              -0.000090757               0.999999998              -0.000052138              -0.000097792               0.999999998              -0.000058874              -0.000104995               0.999999998              -0.000066062              -0.000112687               0.999999998              -0.000073724              -0.000120820               0.999999998              -0.000081882              -0.000128966               0.999999998               0.000002714              -0.000079797               0.999999998              -0.000004981              -0.000071685               0.999999998              -0.000008722              -0.000070369               0.999999998              -0.000011388              -0.000072750               0.999999998              -0.000014026              -0.000077389               0.999999998              -0.000017094              -0.000083520               0.999999998              -0.000020710              -0.000090726               0.999999998              -0.000024953              -0.000098689               0.999999998              -0.000029813              -0.000107326               0.999999998              -0.000035274              -0.000116512               0.999999998              -0.000041305              -0.000126088               0.999999998              -0.000047834              -0.000136165               0.999999998              -0.000054851              -0.000146666               0.999999998              -0.000062381              -0.000157589               0.999999998              -0.000070444              -0.000169102               0.999999998              -0.000078959              -0.000181234               0.999999998              -0.000087847              -0.000193529               0.999999998               0.000002230              -0.000105185               0.999999998              -0.000002970              -0.000094361               0.999999998              -0.000005697              -0.000092944               0.999999998              -0.000008236              -0.000096425               0.999999998              -0.000011216              -0.000102868               0.999999998              -0.000014874              -0.000111234               0.999999998              -0.000019272              -0.000120871               0.999999998              -0.000024397              -0.000131583               0.999999998              -0.000030255              -0.000143145               0.999999998              -0.000036762              -0.000155401               0.999999998              -0.000043795              -0.000168193               0.999999998              -0.000051325              -0.000181496               0.999999998              -0.000059387              -0.000195569               0.999999998              -0.000068056              -0.000210238               0.999999998              -0.000077194              -0.000225453               0.999999998              -0.000086628              -0.000241214               0.999999998              -0.000096292              -0.000257204               0.999999998               0.000001803              -0.000129576               0.999999998              -0.000000465              -0.000116197               0.999999998              -0.000002340              -0.000114919               0.999999998              -0.000004977              -0.000119682               0.999999998              -0.000008566              -0.000128006               0.999999998              -0.000013112              -0.000138581               0.999999998              -0.000018600              -0.000150766               0.999999998              -0.000024933              -0.000164195               0.999999998              -0.000031961              -0.000178676               0.999999998              -0.000039579              -0.000193941               0.999999998              -0.000047735              -0.000209957               0.999999998              -0.000056480              -0.000226635               0.999999998              -0.000065760              -0.000244210               0.999999998              -0.000075519              -0.000262485               0.999999998              -0.000085632              -0.000281127               0.999999998              -0.000095910              -0.000299981               0.999999998              -0.000106313              -0.000319245               0.999999998               0.000001421              -0.000152710               0.999999998               0.000002318              -0.000137132               0.999999998               0.000001052              -0.000136222               0.999999998              -0.000002007              -0.000142397               0.999999998              -0.000006513              -0.000152612               0.999999998              -0.000012232              -0.000165458               0.999999998              -0.000019008              -0.000180154               0.999999998              -0.000026593              -0.000196361               0.999999998              -0.000034805              -0.000213670               0.999999998              -0.000043606              -0.000231982               0.999999998              -0.000053006              -0.000251200               0.999999998              -0.000062933              -0.000271292               0.999999998              -0.000073382              -0.000292256               0.999999998              -0.000084100              -0.000314060               0.999999998              -0.000094972              -0.000335978               0.999999998              -0.000105995              -0.000358089               0.999999998              -0.000117289              -0.000380810               0.999999998               0.000001081              -0.000174322               0.999999998               0.000005178              -0.000157118               0.999999998               0.000004206              -0.000156783               0.999999998               0.000000387              -0.000164408               0.999999998              -0.000005263              -0.000176508               0.999999998              -0.000012284              -0.000191648               0.999999998              -0.000020335              -0.000208893               0.999999998              -0.000029153              -0.000227798               0.999999998              -0.000038547              -0.000247956               0.999999998              -0.000048541              -0.000269335               0.999999998              -0.000059006              -0.000291902               0.999999998              -0.000069962              -0.000315572               0.999999998              -0.000081286              -0.000340251               0.999999998              -0.000092830              -0.000365470               0.999999998              -0.000104535              -0.000390834               0.999999998              -0.000116536              -0.000416633               0.999999998              -0.000128938              -0.000443196               0.999999998               0.000000708              -0.000194054               0.999999998               0.000008004              -0.000176189               0.999999998               0.000006828              -0.000176481               0.999999998               0.000002025              -0.000185457               0.999999998              -0.000004811              -0.000199521               0.999999998              -0.000013155              -0.000216937               0.999999998              -0.000022402              -0.000236767               0.999999998              -0.000032349              -0.000258408               0.999999998              -0.000042846              -0.000281556               0.999999998              -0.000053827              -0.000306241               0.999999998              -0.000065261              -0.000332404               0.999999998              -0.000077204              -0.000359829               0.999999998              -0.000089512              -0.000388133               0.999999998              -0.000101923              -0.000417004               0.999999998              -0.000114521              -0.000446394               0.999999998              -0.000127522              -0.000476431               0.999999998              -0.000140811              -0.000506999               0.999999998               0.000000055              -0.000212526               0.999999998               0.000009764              -0.000196009               0.999999998               0.000009768              -0.000194387               0.999999998               0.000005838              -0.000201054               0.999999998              -0.000000209              -0.000212764               0.999999998              -0.000007586              -0.000227966               0.999999998              -0.000015946              -0.000245657               0.999999998              -0.000024878              -0.000265179               0.999999998              -0.000034152              -0.000286231               0.999999998              -0.000043741              -0.000308665               0.999999998              -0.000053784              -0.000332540               0.999999998              -0.000064252              -0.000357671               0.999999998              -0.000075189              -0.000383980               0.999999998              -0.000086199              -0.000411171               0.999999998              -0.000097136              -0.000439075               0.999999998              -0.000108181              -0.000467564               0.999999998              -0.000119376              -0.000496860               0.999999998              -0.000000378              -0.000229262               0.999999998               0.000010638              -0.000214962               0.999999998               0.000011846              -0.000212501               0.999999998               0.000008967              -0.000217299               0.999999998               0.000003910              -0.000226966               0.999999998              -0.000002397              -0.000240081               0.999999998              -0.000009772              -0.000255769               0.999999998              -0.000017606              -0.000273393               0.999999998              -0.000025720              -0.000292543               0.999999998              -0.000034067              -0.000312977               0.999999998              -0.000042788              -0.000334667               0.999999998              -0.000051855              -0.000357655               0.999999998              -0.000061198              -0.000381814               0.999999998              -0.000070671              -0.000407145               0.999999998              -0.000080012              -0.000433351               0.999999998              -0.000089272              -0.000460232               0.999999998              -0.000098579              -0.000487795               0.999999998              -0.000000646              -0.000243875               0.999999998               0.000010611              -0.000232540               0.999999998               0.000012763              -0.000230052               0.999999998               0.000010981              -0.000233628               0.999999998               0.000007075              -0.000241647               0.999999998               0.000001857              -0.000252985               0.999999998              -0.000004289              -0.000266915               0.999999998              -0.000011022              -0.000282827               0.999999998              -0.000017916              -0.000300311               0.999999998              -0.000025099              -0.000319067               0.999999998              -0.000032578              -0.000338937               0.999999998              -0.000040223              -0.000360005               0.999999998              -0.000047926              -0.000382301               0.999999998              -0.000055671              -0.000405791               0.999999998              -0.000063289              -0.000430317               0.999999998              -0.000070639              -0.000455629               0.999999998              -0.000077637              -0.000481574               0.999999998              -0.000000734              -0.000256103               0.999999998               0.000009705              -0.000248098               0.999999998               0.000012379              -0.000246197               0.999999998               0.000011580              -0.000249213               0.999999998               0.000008778              -0.000256062               0.999999998               0.000004756              -0.000265955               0.999999998              -0.000000121              -0.000278386               0.999999998              -0.000005592              -0.000292817               0.999999998              -0.000011350              -0.000308899               0.999999998              -0.000017277              -0.000326243               0.999999998              -0.000023458              -0.000344711               0.999999998              -0.000029741              -0.000364268               0.999999998              -0.000035862              -0.000384986               0.999999998              -0.000041769              -0.000406894               0.999999998              -0.000047387              -0.000429956               0.999999998              -0.000052743              -0.000453874               0.999999998              -0.000057605              -0.000478468               0.999999998              -0.000000663              -0.000265792               0.999999998               0.000008020              -0.000260979               0.999999998               0.000010690              -0.000260047               0.999999998               0.000010580              -0.000262937               0.999999998               0.000008766              -0.000269130               0.999999998               0.000005904              -0.000278045               0.999999998               0.000002272              -0.000289276               0.999999998              -0.000001858              -0.000302513               0.999999998              -0.000006369              -0.000317443               0.999999998              -0.000010915              -0.000333796               0.999999998              -0.000015629              -0.000351308               0.999999998              -0.000020397              -0.000369871               0.999999998              -0.000025009              -0.000389479               0.999999998              -0.000029137              -0.000410262               0.999999998              -0.000032962              -0.000432123               0.999999998              -0.000036395              -0.000454858               0.999999998              -0.000039038              -0.000478376               0.999999998              -0.000000501              -0.000272808               0.999999998               0.000005693              -0.000270591               0.999999998               0.000007839              -0.000270715               0.999999998               0.000008066              -0.000273810               0.999999998               0.000007055              -0.000279647               0.999999998               0.000005216              -0.000287981               0.999999998               0.000002861              -0.000298474               0.999999998               0.000000070              -0.000310911               0.999999998              -0.000002983              -0.000325093               0.999999998              -0.000006136              -0.000340731               0.999999998              -0.000009235              -0.000357598               0.999999998              -0.000012327              -0.000375627               0.999999998              -0.000015431              -0.000394677               0.999999998              -0.000018231              -0.000414694               0.999999998              -0.000020530              -0.000435732               0.999999998              -0.000022284              -0.000457773               0.999999998              -0.000023180              -0.000480604               0.999999998              -0.000000273              -0.000277040               0.999999998               0.000002940              -0.000276545               0.999999998               0.000004133              -0.000277432               0.999999998               0.000004345              -0.000280780               0.999999998               0.000003919              -0.000286571               0.999999998               0.000003075              -0.000294625               0.999999998               0.000001928              -0.000304753               0.999999998               0.000000536              -0.000316715               0.999999998              -0.000001066              -0.000330382               0.999999998              -0.000002711              -0.000345615               0.999999998              -0.000004165              -0.000362164               0.999999998              -0.000005595              -0.000379879               0.999999998              -0.000007345              -0.000398617               0.999999998              -0.000008913              -0.000418311               0.999999998              -0.000009772              -0.000438989               0.999999998              -0.000010371              -0.000460612               0.999999998              -0.000010629              -0.000483063               0.999999998              -0.000000000              -0.000278422               0.999999998               0.000000000              -0.000278543               0.999999998               0.000000000              -0.000279743               0.999999998               0.000000000              -0.000283201               0.999999998              -0.000000000              -0.000288982               0.999999998              -0.000000000              -0.000296908               0.999999998              -0.000000000              -0.000306938               0.999999998              -0.000000000              -0.000318810               0.999999998              -0.000000000              -0.000332288               0.999999998              -0.000000000              -0.000347313               0.999999998              -0.000000000              -0.000363828               0.999999998              -0.000000000              -0.000381487               0.999999998              -0.000000000              -0.000400075               0.999999998               0.000000000              -0.000419767               0.999999998               0.000000000              -0.000440318               0.999999998               0.000000000              -0.000461738               0.999999998              -0.000000000              -0.000484128               0.999999998              -0.000003381              -0.000000000               0.999999998               0.000007597              -0.000000000               0.999999998               0.000013121               0.000000000               0.999999998               0.000016418               0.000000000               0.999999998               0.000019021               0.000000000               0.999999998               0.000021555               0.000000000               0.999999998               0.000024321               0.000000000               0.999999998               0.000027510               0.000000000               0.999999998               0.000031122               0.000000000               0.999999998               0.000035221               0.000000000               0.999999998               0.000039812               0.000000000               0.999999998               0.000044927              -0.000000000               0.999999998               0.000050512               0.000000000               0.999999998               0.000056565              -0.000000000               0.999999998               0.000063113               0.000000000               0.999999998               0.000070192               0.000000000               0.999999998               0.000077815               0.000000000               0.999999998              -0.000003283              -0.000026892               0.999999998               0.000007296              -0.000024260               0.999999998               0.000012563              -0.000023693               0.999999998               0.000015815              -0.000024379               0.999999998               0.000018389              -0.000025849               0.999999998               0.000020942              -0.000027778               0.999999998               0.000023783              -0.000030132               0.999999998               0.000027041              -0.000032811               0.999999998               0.000030801              -0.000035651               0.999999998               0.000035091              -0.000038732               0.999999998               0.000039861              -0.000041920               0.999999998               0.000045115              -0.000045333               0.999999998               0.000050895              -0.000048846               0.999999998               0.000057131              -0.000052484               0.999999998               0.000063838              -0.000056325               0.999999998               0.000071068              -0.000060402               0.999999998               0.000078801              -0.000064385               0.999999998              -0.000003059              -0.000053593               0.999999998               0.000006440              -0.000048238               0.999999998               0.000011072              -0.000047247               0.999999998               0.000014043              -0.000048712               0.999999998               0.000016604              -0.000051686               0.999999998               0.000019312              -0.000055715               0.999999998               0.000022403              -0.000060445               0.999999998               0.000026030              -0.000065725               0.999999998               0.000030228              -0.000071494               0.999999998               0.000034919              -0.000077618               0.999999998               0.000040136              -0.000084056               0.999999998               0.000045889              -0.000090757               0.999999998               0.000052138              -0.000097792               0.999999998               0.000058874              -0.000104995               0.999999998               0.000066062              -0.000112687               0.999999998               0.000073724              -0.000120820               0.999999998               0.000081882              -0.000128966               0.999999998              -0.000002714              -0.000079797               0.999999998               0.000004981              -0.000071685               0.999999998               0.000008722              -0.000070369               0.999999998               0.000011388              -0.000072750               0.999999998               0.000014026              -0.000077389               0.999999998               0.000017094              -0.000083520               0.999999998               0.000020710              -0.000090726               0.999999998               0.000024953              -0.000098689               0.999999998               0.000029813              -0.000107326               0.999999998               0.000035274              -0.000116512               0.999999998               0.000041305              -0.000126088               0.999999998               0.000047834              -0.000136165               0.999999998               0.000054851              -0.000146666               0.999999998               0.000062381              -0.000157589               0.999999998               0.000070444              -0.000169102               0.999999998               0.000078959              -0.000181234               0.999999998               0.000087847              -0.000193529               0.999999998              -0.000002230              -0.000105185               0.999999998               0.000002970              -0.000094361               0.999999998               0.000005697              -0.000092944               0.999999998               0.000008236              -0.000096425               0.999999998               0.000011216              -0.000102868               0.999999998               0.000014874              -0.000111234               0.999999998               0.000019272              -0.000120871               0.999999998               0.000024397              -0.000131583               0.999999998               0.000030255              -0.000143145               0.999999998               0.000036762              -0.000155401               0.999999998               0.000043795              -0.000168193               0.999999998               0.000051325              -0.000181496               0.999999998               0.000059387              -0.000195569               0.999999998               0.000068056              -0.000210238               0.999999998               0.000077194              -0.000225453               0.999999998               0.000086628              -0.000241214               0.999999998               0.000096292              -0.000257204               0.999999998              -0.000001803              -0.000129576               0.999999998               0.000000465              -0.000116197               0.999999998               0.000002340              -0.000114919               0.999999998               0.000004977              -0.000119682               0.999999998               0.000008566              -0.000128006               0.999999998               0.000013112              -0.000138581               0.999999998               0.000018600              -0.000150766               0.999999998               0.000024933              -0.000164195               0.999999998               0.000031961              -0.000178676               0.999999998               0.000039579              -0.000193941               0.999999998               0.000047735              -0.000209957               0.999999998               0.000056480              -0.000226635               0.999999998               0.000065760              -0.000244210               0.999999998               0.000075519              -0.000262485               0.999999998               0.000085632              -0.000281127               0.999999998               0.000095910              -0.000299981               0.999999998               0.000106313              -0.000319245               0.999999998              -0.000001421              -0.000152710               0.999999998              -0.000002318              -0.000137132               0.999999998              -0.000001052              -0.000136222               0.999999998               0.000002007              -0.000142397               0.999999998               0.000006513              -0.000152612               0.999999998               0.000012232              -0.000165458               0.999999998               0.000019008              -0.000180154               0.999999998               0.000026593              -0.000196361               0.999999998               0.000034805              -0.000213670               0.999999998               0.000043606              -0.000231982               0.999999998               0.000053006              -0.000251200               0.999999998               0.000062933              -0.000271292               0.999999998               0.000073382              -0.000292256               0.999999998               0.000084100              -0.000314060               0.999999998               0.000094972              -0.000335978               0.999999998               0.000105995              -0.000358089               0.999999998               0.000117289              -0.000380810               0.999999998              -0.000001081              -0.000174322               0.999999998              -0.000005178              -0.000157118               0.999999998              -0.000004206              -0.000156783               0.999999998              -0.000000387              -0.000164408               0.999999998               0.000005263              -0.000176508               0.999999998               0.000012284              -0.000191648               0.999999998               0.000020335              -0.000208893               0.999999998               0.000029153              -0.000227798               0.999999998               0.000038547              -0.000247956               0.999999998               0.000048541              -0.000269335               0.999999998               0.000059006              -0.000291902               0.999999998               0.000069962              -0.000315572               0.999999998               0.000081286              -0.000340251               0.999999998               0.000092830              -0.000365470               0.999999998               0.000104535              -0.000390834               0.999999998               0.000116536              -0.000416633               0.999999998               0.000128938              -0.000443196               0.999999998              -0.000000708              -0.000194054               0.999999998              -0.000008004              -0.000176189               0.999999998              -0.000006828              -0.000176481               0.999999998              -0.000002025              -0.000185457               0.999999998               0.000004811              -0.000199521               0.999999998               0.000013155              -0.000216937               0.999999998               0.000022402              -0.000236767               0.999999998               0.000032349              -0.000258408               0.999999998               0.000042846              -0.000281556               0.999999998               0.000053827              -0.000306241               0.999999998               0.000065261              -0.000332404               0.999999998               0.000077204              -0.000359829               0.999999998               0.000089512              -0.000388133               0.999999998               0.000101923              -0.000417004               0.999999998               0.000114521              -0.000446394               0.999999998               0.000127522              -0.000476431               0.999999998               0.000140811              -0.000506999               0.999999998              -0.000000055              -0.000212526               0.999999998              -0.000009764              -0.000196009               0.999999998              -0.000009768              -0.000194387               0.999999998              -0.000005838              -0.000201054               0.999999998               0.000000209              -0.000212764               0.999999998               0.000007586              -0.000227966               0.999999998               0.000015946              -0.000245657               0.999999998               0.000024878              -0.000265179               0.999999998               0.000034152              -0.000286231               0.999999998               0.000043741              -0.000308665               0.999999998               0.000053784              -0.000332540               0.999999998               0.000064252              -0.000357671               0.999999998               0.000075189              -0.000383980               0.999999998               0.000086199              -0.000411171               0.999999998               0.000097136              -0.000439075               0.999999998               0.000108181              -0.000467564               0.999999998               0.000119376              -0.000496860               0.999999998               0.000000378              -0.000229262               0.999999998              -0.000010638              -0.000214962               0.999999998              -0.000011846              -0.000212501               0.999999998              -0.000008967              -0.000217299               0.999999998              -0.000003910              -0.000226966               0.999999998               0.000002397              -0.000240081               0.999999998               0.000009772              -0.000255769               0.999999998               0.000017606              -0.000273393               0.999999998               0.000025720              -0.000292543               0.999999998               0.000034067              -0.000312977               0.999999998               0.000042788              -0.000334667               0.999999998               0.000051855              -0.000357655               0.999999998               0.000061198              -0.000381814               0.999999998               0.000070671              -0.000407145               0.999999998               0.000080012              -0.000433351               0.999999998               0.000089272              -0.000460232               0.999999998               0.000098579              -0.000487795               0.999999998               0.000000646              -0.000243875               0.999999998              -0.000010611              -0.000232540               0.999999998              -0.000012763              -0.000230052               0.999999998              -0.000010981              -0.000233628               0.999999998              -0.000007075              -0.000241647               0.999999998              -0.000001857              -0.000252985               0.999999998               0.000004289              -0.000266915               0.999999998               0.000011022              -0.000282827               0.999999998               0.000017916              -0.000300311               0.999999998               0.000025099              -0.000319067               0.999999998               0.000032578              -0.000338937               0.999999998               0.000040223              -0.000360005               0.999999998               0.000047926              -0.000382301               0.999999998               0.000055671              -0.000405791               0.999999998               0.000063289              -0.000430317               0.999999998               0.000070639              -0.000455629               0.999999998               0.000077637              -0.000481574               0.999999998               0.000000734              -0.000256103               0.999999998              -0.000009705              -0.000248098               0.999999998              -0.000012379              -0.000246197               0.999999998              -0.000011580              -0.000249213               0.999999998              -0.000008778              -0.000256062               0.999999998              -0.000004756              -0.000265955               0.999999998               0.000000121              -0.000278386               0.999999998               0.000005592              -0.000292817               0.999999998               0.000011350              -0.000308899               0.999999998               0.000017277              -0.000326243               0.999999998               0.000023458              -0.000344711               0.999999998               0.000029741              -0.000364268               0.999999998               0.000035862              -0.000384986               0.999999998               0.000041769              -0.000406894               0.999999998               0.000047387              -0.000429956               0.999999998               0.000052743              -0.000453874               0.999999998               0.000057605              -0.000478468               0.999999998               0.000000663              -0.000265792               0.999999998              -0.000008020              -0.000260979               0.999999998              -0.000010690              -0.000260047               0.999999998              -0.000010580              -0.000262937               0.999999998              -0.000008766              -0.000269130               0.999999998              -0.000005904              -0.000278045               0.999999998              -0.000002272              -0.000289276               0.999999998               0.000001858              -0.000302513               0.999999998               0.000006369              -0.000317443               0.999999998               0.000010915              -0.000333796               0.999999998               0.000015629              -0.000351308               0.999999998               0.000020397              -0.000369871               0.999999998               0.000025009              -0.000389479               0.999999998               0.000029137              -0.000410262               0.999999998               0.000032962              -0.000432123               0.999999998               0.000036395              -0.000454858               0.999999998               0.000039038              -0.000478376               0.999999998               0.000000501              -0.000272808               0.999999998              -0.000005693              -0.000270591               0.999999998              -0.000007839              -0.000270715               0.999999998              -0.000008066              -0.000273810               0.999999998              -0.000007055              -0.000279647               0.999999998              -0.000005216              -0.000287981               0.999999998              -0.000002861              -0.000298474               0.999999998              -0.000000070              -0.000310911               0.999999998               0.000002983              -0.000325093               0.999999998               0.000006136              -0.000340731               0.999999998               0.000009235              -0.000357598               0.999999998               0.000012327              -0.000375627               0.999999998               0.000015431              -0.000394677               0.999999998               0.000018231              -0.000414694               0.999999998               0.000020530              -0.000435732               0.999999998               0.000022284              -0.000457773               0.999999998               0.000023180              -0.000480604               0.999999998               0.000000273              -0.000277040               0.999999998              -0.000002940              -0.000276545               0.999999998              -0.000004133              -0.000277432               0.999999998              -0.000004345              -0.000280780               0.999999998              -0.000003919              -0.000286571               0.999999998              -0.000003075              -0.000294625               0.999999998              -0.000001928              -0.000304753               0.999999998              -0.000000536              -0.000316715               0.999999998               0.000001066              -0.000330382               0.999999998               0.000002711              -0.000345615               0.999999998               0.000004165              -0.000362164               0.999999998               0.000005595              -0.000379879               0.999999998               0.000007345              -0.000398617               0.999999998               0.000008913              -0.000418311               0.999999998               0.000009772              -0.000438989               0.999999998               0.000010371              -0.000460612               0.999999998               0.000010629              -0.000483063               0.999999998              -0.000000000              -0.000278422               0.999999998               0.000000000              -0.000278543               0.999999998               0.000000000              -0.000279743               0.999999998               0.000000000              -0.000283201               0.999999998              -0.000000000              -0.000288982               0.999999998              -0.000000000              -0.000296908               0.999999998              -0.000000000              -0.000306938               0.999999998              -0.000000000              -0.000318810               0.999999998              -0.000000000              -0.000332288               0.999999998              -0.000000000              -0.000347313               0.999999998              -0.000000000              -0.000363828               0.999999998              -0.000000000              -0.000381487               0.999999998              -0.000000000              -0.000400075               0.999999998               0.000000000              -0.000419767               0.999999998               0.000000000              -0.000440318               0.999999998               0.000000000              -0.000461738               0.999999998              -0.000000000              -0.000484128               0.999999998              -0.000003381              -0.000000000               0.999999998               0.000007597              -0.000000000               0.999999998               0.000013121               0.000000000               0.999999998               0.000016418               0.000000000               0.999999998               0.000019021               0.000000000               0.999999998               0.000021555               0.000000000               0.999999998               0.000024321               0.000000000               0.999999998               0.000027510               0.000000000               0.999999998               0.000031122               0.000000000               0.999999998               0.000035221               0.000000000               0.999999998               0.000039812               0.000000000               0.999999998               0.000044927              -0.000000000               0.999999998               0.000050512               0.000000000               0.999999998               0.000056565              -0.000000000               0.999999998               0.000063113               0.000000000               0.999999998               0.000070192               0.000000000               0.999999998               0.000077815               0.000000000               0.999999998              -0.000003283               0.000026892               0.999999998               0.000007296               0.000024260               0.999999998               0.000012563               0.000023693               0.999999998               0.000015815               0.000024379               0.999999998               0.000018389               0.000025849               0.999999998               0.000020942               0.000027778               0.999999998               0.000023783               0.000030132               0.999999998               0.000027041               0.000032811               0.999999998               0.000030801               0.000035651               0.999999998               0.000035091               0.000038732               0.999999998               0.000039861               0.000041920               0.999999998               0.000045115               0.000045333               0.999999998               0.000050895               0.000048846               0.999999998               0.000057131               0.000052484               0.999999998               0.000063838               0.000056325               0.999999998               0.000071068               0.000060402               0.999999998               0.000078801               0.000064385               0.999999998              -0.000003059               0.000053593               0.999999998               0.000006440               0.000048238               0.999999998               0.000011072               0.000047247               0.999999998               0.000014043               0.000048712               0.999999998               0.000016604               0.000051686               0.999999998               0.000019312               0.000055715               0.999999998               0.000022403               0.000060445               0.999999998               0.000026030               0.000065725               0.999999998               0.000030228               0.000071494               0.999999998               0.000034919               0.000077618               0.999999998               0.000040136               0.000084056               0.999999998               0.000045889               0.000090757               0.999999998               0.000052138               0.000097792               0.999999998               0.000058874               0.000104995               0.999999998               0.000066062               0.000112687               0.999999998               0.000073724               0.000120820               0.999999998               0.000081882               0.000128966               0.999999998              -0.000002714               0.000079797               0.999999998               0.000004981               0.000071685               0.999999998               0.000008722               0.000070369               0.999999998               0.000011388               0.000072750               0.999999998               0.000014026               0.000077389               0.999999998               0.000017094               0.000083520               0.999999998               0.000020710               0.000090726               0.999999998               0.000024953               0.000098689               0.999999998               0.000029813               0.000107326               0.999999998               0.000035274               0.000116512               0.999999998               0.000041305               0.000126088               0.999999998               0.000047834               0.000136165               0.999999998               0.000054851               0.000146666               0.999999998               0.000062381               0.000157589               0.999999998               0.000070444               0.000169102               0.999999998               0.000078959               0.000181234               0.999999998               0.000087847               0.000193529               0.999999998              -0.000002230               0.000105185               0.999999998               0.000002970               0.000094361               0.999999998               0.000005697               0.000092944               0.999999998               0.000008236               0.000096425               0.999999998               0.000011216               0.000102868               0.999999998               0.000014874               0.000111234               0.999999998               0.000019272               0.000120871               0.999999998               0.000024397               0.000131583               0.999999998               0.000030255               0.000143145               0.999999998               0.000036762               0.000155401               0.999999998               0.000043795               0.000168193               0.999999998               0.000051325               0.000181496               0.999999998               0.000059387               0.000195569               0.999999998               0.000068056               0.000210238               0.999999998               0.000077194               0.000225453               0.999999998               0.000086628               0.000241214               0.999999998               0.000096292               0.000257204               0.999999998              -0.000001803               0.000129576               0.999999998               0.000000465               0.000116197               0.999999998               0.000002340               0.000114919               0.999999998               0.000004977               0.000119682               0.999999998               0.000008566               0.000128006               0.999999998               0.000013112               0.000138581               0.999999998               0.000018600               0.000150766               0.999999998               0.000024933               0.000164195               0.999999998               0.000031961               0.000178676               0.999999998               0.000039579               0.000193941               0.999999998               0.000047735               0.000209957               0.999999998               0.000056480               0.000226635               0.999999998               0.000065760               0.000244210               0.999999998               0.000075519               0.000262485               0.999999998               0.000085632               0.000281127               0.999999998               0.000095910               0.000299981               0.999999998               0.000106313               0.000319245               0.999999998              -0.000001421               0.000152710               0.999999998              -0.000002318               0.000137132               0.999999998              -0.000001052               0.000136222               0.999999998               0.000002007               0.000142397               0.999999998               0.000006513               0.000152612               0.999999998               0.000012232               0.000165458               0.999999998               0.000019008               0.000180154               0.999999998               0.000026593               0.000196361               0.999999998               0.000034805               0.000213670               0.999999998               0.000043606               0.000231982               0.999999998               0.000053006               0.000251200               0.999999998               0.000062933               0.000271292               0.999999998               0.000073382               0.000292256               0.999999998               0.000084100               0.000314060               0.999999998               0.000094972               0.000335978               0.999999998               0.000105995               0.000358089               0.999999998               0.000117289               0.000380810               0.999999998              -0.000001081               0.000174322               0.999999998              -0.000005178               0.000157118               0.999999998              -0.000004206               0.000156783               0.999999998              -0.000000387               0.000164408               0.999999998               0.000005263               0.000176508               0.999999998               0.000012284               0.000191648               0.999999998               0.000020335               0.000208893               0.999999998               0.000029153               0.000227798               0.999999998               0.000038547               0.000247956               0.999999998               0.000048541               0.000269335               0.999999998               0.000059006               0.000291902               0.999999998               0.000069962               0.000315572               0.999999998               0.000081286               0.000340251               0.999999998               0.000092830               0.000365470               0.999999998               0.000104535               0.000390834               0.999999998               0.000116536               0.000416633               0.999999998               0.000128938               0.000443196               0.999999998              -0.000000708               0.000194054               0.999999998              -0.000008004               0.000176189               0.999999998              -0.000006828               0.000176481               0.999999998              -0.000002025               0.000185457               0.999999998               0.000004811               0.000199521               0.999999998               0.000013155               0.000216937               0.999999998               0.000022402               0.000236767               0.999999998               0.000032349               0.000258408               0.999999998               0.000042846               0.000281556               0.999999998               0.000053827               0.000306241               0.999999998               0.000065261               0.000332404               0.999999998               0.000077204               0.000359829               0.999999998               0.000089512               0.000388133               0.999999998               0.000101923               0.000417004               0.999999998               0.000114521               0.000446394               0.999999998               0.000127522               0.000476431               0.999999998               0.000140811               0.000506999               0.999999998              -0.000000055               0.000212526               0.999999998              -0.000009764               0.000196009               0.999999998              -0.000009768               0.000194387               0.999999998              -0.000005838               0.000201054               0.999999998               0.000000209               0.000212764               0.999999998               0.000007586               0.000227966               0.999999998               0.000015946               0.000245657               0.999999998               0.000024878               0.000265179               0.999999998               0.000034152               0.000286231               0.999999998               0.000043741               0.000308665               0.999999998               0.000053784               0.000332540               0.999999998               0.000064252               0.000357671               0.999999998               0.000075189               0.000383980               0.999999998               0.000086199               0.000411171               0.999999998               0.000097136               0.000439075               0.999999998               0.000108181               0.000467564               0.999999998               0.000119376               0.000496860               0.999999998               0.000000378               0.000229262               0.999999998              -0.000010638               0.000214962               0.999999998              -0.000011846               0.000212501               0.999999998              -0.000008967               0.000217299               0.999999998              -0.000003910               0.000226966               0.999999998               0.000002397               0.000240081               0.999999998               0.000009772               0.000255769               0.999999998               0.000017606               0.000273393               0.999999998               0.000025720               0.000292543               0.999999998               0.000034067               0.000312977               0.999999998               0.000042788               0.000334667               0.999999998               0.000051855               0.000357655               0.999999998               0.000061198               0.000381814               0.999999998               0.000070671               0.000407145               0.999999998               0.000080012               0.000433351               0.999999998               0.000089272               0.000460232               0.999999998               0.000098579               0.000487795               0.999999998               0.000000646               0.000243875               0.999999998              -0.000010611               0.000232540               0.999999998              -0.000012763               0.000230052               0.999999998              -0.000010981               0.000233628               0.999999998              -0.000007075               0.000241647               0.999999998              -0.000001857               0.000252985               0.999999998               0.000004289               0.000266915               0.999999998               0.000011022               0.000282827               0.999999998               0.000017916               0.000300311               0.999999998               0.000025099               0.000319067               0.999999998               0.000032578               0.000338937               0.999999998               0.000040223               0.000360005               0.999999998               0.000047926               0.000382301               0.999999998               0.000055671               0.000405791               0.999999998               0.000063289               0.000430317               0.999999998               0.000070639               0.000455629               0.999999998               0.000077637               0.000481574               0.999999998               0.000000734               0.000256103               0.999999998              -0.000009705               0.000248098               0.999999998              -0.000012379               0.000246197               0.999999998              -0.000011580               0.000249213               0.999999998              -0.000008778               0.000256062               0.999999998              -0.000004756               0.000265955               0.999999998               0.000000121               0.000278386               0.999999998               0.000005592               0.000292817               0.999999998               0.000011350               0.000308899               0.999999998               0.000017277               0.000326243               0.999999998               0.000023458               0.000344711               0.999999998               0.000029741               0.000364268               0.999999998               0.000035862               0.000384986               0.999999998               0.000041769               0.000406894               0.999999998               0.000047387               0.000429956               0.999999998               0.000052743               0.000453874               0.999999998               0.000057605               0.000478468               0.999999998               0.000000663               0.000265792               0.999999998              -0.000008020               0.000260979               0.999999998              -0.000010690               0.000260047               0.999999998              -0.000010580               0.000262937               0.999999998              -0.000008766               0.000269130               0.999999998              -0.000005904               0.000278045               0.999999998              -0.000002272               0.000289276               0.999999998               0.000001858               0.000302513               0.999999998               0.000006369               0.000317443               0.999999998               0.000010915               0.000333796               0.999999998               0.000015629               0.000351308               0.999999998               0.000020397               0.000369871               0.999999998               0.000025009               0.000389479               0.999999998               0.000029137               0.000410262               0.999999998               0.000032962               0.000432123               0.999999998               0.000036395               0.000454858               0.999999998               0.000039038               0.000478376               0.999999998               0.000000501               0.000272808               0.999999998              -0.000005693               0.000270591               0.999999998              -0.000007839               0.000270715               0.999999998              -0.000008066               0.000273810               0.999999998              -0.000007055               0.000279647               0.999999998              -0.000005216               0.000287981               0.999999998              -0.000002861               0.000298474               0.999999998              -0.000000070               0.000310911               0.999999998               0.000002983               0.000325093               0.999999998               0.000006136               0.000340731               0.999999998               0.000009235               0.000357598               0.999999998               0.000012327               0.000375627               0.999999998               0.000015431               0.000394677               0.999999998               0.000018231               0.000414694               0.999999998               0.000020530               0.000435732               0.999999998               0.000022284               0.000457773               0.999999998               0.000023180               0.000480604               0.999999998               0.000000273               0.000277040               0.999999998              -0.000002940               0.000276545               0.999999998              -0.000004133               0.000277432               0.999999998              -0.000004345               0.000280780               0.999999998              -0.000003919               0.000286571               0.999999998              -0.000003075               0.000294625               0.999999998              -0.000001928               0.000304753               0.999999998              -0.000000536               0.000316715               0.999999998               0.000001066               0.000330382               0.999999998               0.000002711               0.000345615               0.999999998               0.000004165               0.000362164               0.999999998               0.000005595               0.000379879               0.999999998               0.000007345               0.000398617               0.999999998               0.000008913               0.000418311               0.999999998               0.000009772               0.000438989               0.999999998               0.000010371               0.000460612               0.999999998               0.000010629               0.000483063               0.999999998              -0.000000000               0.000278422               0.999999998               0.000000000               0.000278543               0.999999998               0.000000000               0.000279743               0.999999998              -0.000000000               0.000283201               0.999999998               0.000000000               0.000288982               0.999999998               0.000000000               0.000296908               0.999999998               0.000000000               0.000306938               0.999999998               0.000000000               0.000318810               0.999999998               0.000000000               0.000332288               0.999999998              -0.000000000               0.000347313               0.999999998              -0.000000000               0.000363828               0.999999998               0.000000000               0.000381487               0.999999998              -0.000000000               0.000400075               0.999999998              -0.000000000               0.000419767               0.999999998              -0.000000000               0.000440318               0.999999998               0.000000000               0.000461738               0.999999998               0.000000000               0.000484128               0.999999998 </DataArray>
<DataArray type="Float64"                                    Name="defo"                                                      NumberOfComponents=" 3" format="ascii">
              0.000003381              -0.000000000               0.999999998              -0.000007597              -0.000000000               0.999999998              -0.000013121              -0.000000000               0.999999998              -0.000016418               0.000000000               0.999999998              -0.000019021               0.000000000               0.999999998              -0.000021555               0.000000000               0.999999998              -0.000024321               0.000000000               0.999999998              -0.000027510              -0.000000000               0.999999998              -0.000031122              -0.000000000               0.999999998              -0.000035221              -0.000000000               0.999999998              -0.000039812               0.000000000               0.999999998              -0.000044927              -0.000000000               0.999999998              -0.000050512              -0.000000000               0.999999998              -0.000056565               0.000000000               0.999999998              -0.000063113               0.000000000               0.999999998              -0.000070192              -0.000000000               0.999999998              -0.000077815               0.000000000               0.999999998               0.000003283               0.000026892               0.999999998              -0.000007296               0.000024260               0.999999998              -0.000012563               0.000023693               0.999999998              -0.000015815               0.000024379               0.999999998              -0.000018389               0.000025849               0.999999998              -0.000020942               0.000027778               0.999999998              -0.000023783               0.000030132               0.999999998              -0.000027041               0.000032811               0.999999998              -0.000030801               0.000035651               0.999999998              -0.000035091               0.000038732               0.999999998              -0.000039861               0.000041920               0.999999998              -0.000045115               0.000045333               0.999999998              -0.000050895               0.000048846               0.999999998              -0.000057131               0.000052484               0.999999998              -0.000063838               0.000056325               0.999999998              -0.000071068               0.000060402               0.999999998              -0.000078801               0.000064385               0.999999998               0.000003059               0.000053593               0.999999998              -0.000006440               0.000048238               0.999999998              -0.000011072               0.000047247               0.999999998              -0.000014043               0.000048712               0.999999998              -0.000016604               0.000051686               0.999999998              -0.000019312               0.000055715               0.999999998              -0.000022403               0.000060445               0.999999998              -0.000026030               0.000065725               0.999999998              -0.000030228               0.000071494               0.999999998              -0.000034919               0.000077618               0.999999998              -0.000040136               0.000084056               0.999999998              -0.000045889               0.000090757               0.999999998              -0.000052138               0.000097792               0.999999998              -0.000058874               0.000104995               0.999999998              -0.000066062               0.000112687               0.999999998              -0.000073724               0.000120820               0.999999998              -0.000081882               0.000128966               0.999999998               0.000002714               0.000079797               0.999999998              -0.000004981               0.000071685               0.999999998              -0.000008722               0.000070369               0.999999998              -0.000011388               0.000072750               0.999999998              -0.000014026               0.000077389               0.999999998              -0.000017094               0.000083520               0.999999998              -0.000020710               0.000090726               0.999999998              -0.000024953               0.000098689               0.999999998              -0.000029813               0.000107326               0.999999998              -0.000035274               0.000116512               0.999999998              -0.000041305               0.000126088               0.999999998              -0.000047834               0.000136165               0.999999998              -0.000054851               0.000146666               0.999999998              -0.000062381               0.000157589               0.999999998              -0.000070444               0.000169102               0.999999998              -0.000078959               0.000181234               0.999999998              -0.000087847               0.000193529               0.999999998               0.000002230               0.000105185               0.999999998              -0.000002970               0.000094361               0.999999998              -0.000005697               0.000092944               0.999999998              -0.000008236               0.000096425               0.999999998              -0.000011216               0.000102868               0.999999998              -0.000014874               0.000111234               0.999999998              -0.000019272               0.000120871               0.999999998              -0.000024397               0.000131583               0.999999998              -0.000030255               0.000143145               0.999999998              -0.000036762               0.000155401               0.999999998              -0.000043795               0.000168193               0.999999998              -0.000051325               0.000181496               0.999999998              -0.000059387               0.000195569               0.999999998              -0.000068056               0.000210238               0.999999998              -0.000077194               0.000225453               0.999999998              -0.000086628               0.000241214               0.999999998              -0.000096292               0.000257204               0.999999998               0.000001803               0.000129576               0.999999998              -0.000000465               0.000116197               0.999999998              -0.000002340               0.000114919               0.999999998              -0.000004977               0.000119682               0.999999998              -0.000008566               0.000128006               0.999999998              -0.000013112               0.000138581               0.999999998              -0.000018600               0.000150766               0.999999998              -0.000024933               0.000164195               0.999999998              -0.000031961               0.000178676               0.999999998              -0.000039579               0.000193941               0.999999998              -0.000047735               0.000209957               0.999999998              -0.000056480               0.000226635               0.999999998              -0.000065760               0.000244210               0.999999998              -0.000075519               0.000262485               0.999999998              -0.000085632               0.000281127               0.999999998              -0.000095910               0.000299981               0.999999998              -0.000106313               0.000319245               0.999999998               0.000001421               0.000152710               0.999999998               0.000002318               0.000137132               0.999999998               0.000001052               0.000136222               0.999999998              -0.000002007               0.000142397               0.999999998              -0.000006513               0.000152612               0.999999998              -0.000012232               0.000165458               0.999999998              -0.000019008               0.000180154               0.999999998              -0.000026593               0.000196361               0.999999998              -0.000034805               0.000213670               0.999999998              -0.000043606               0.000231982               0.999999998              -0.000053006               0.000251200               0.999999998              -0.000062933               0.000271292               0.999999998              -0.000073382               0.000292256               0.999999998              -0.000084100               0.000314060               0.999999998              -0.000094972               0.000335978               0.999999998              -0.000105995               0.000358089               0.999999998              -0.000117289               0.000380810               0.999999998               0.000001081               0.000174322               0.999999998               0.000005178               0.000157118               0.999999998               0.000004206               0.000156783               0.999999998               0.000000387               0.000164408               0.999999998              -0.000005263               0.000176508               0.999999998              -0.000012284               0.000191648               0.999999998              -0.000020335               0.000208893               0.999999998              -0.000029153               0.000227798               0.999999998              -0.000038547               0.000247956               0.999999998              -0.000048541               0.000269335               0.999999998              -0.000059006               0.000291902               0.999999998              -0.000069962               0.000315572               0.999999998              -0.000081286               0.000340251               0.999999998              -0.000092830               0.000365470               0.999999998              -0.000104535               0.000390834               0.999999998              -0.000116536               0.000416633               0.999999998              -0.000128938               0.000443196               0.999999998               0.000000708               0.000194054               0.999999998               0.000008004               0.000176189               0.999999998               0.000006828               0.000176481               0.999999998               0.000002025               0.000185457               0.999999998              -0.000004811               0.000199521               0.999999998              -0.000013155               0.000216937               0.999999998              -0.000022402               0.000236767               0.999999998              -0.000032349               0.000258408               0.999999998              -0.000042846               0.000281556               0.999999998              -0.000053827               0.000306241               0.999999998              -0.000065261               0.000332404               0.999999998              -0.000077204               0.000359829               0.999999998              -0.000089512               0.000388133               0.999999998              -0.000101923               0.000417004               0.999999998              -0.000114521               0.000446394               0.999999998              -0.000127522               0.000476431               0.999999998              -0.000140811               0.000506999               0.999999998               0.000000055               0.000212526               0.999999998               0.000009764               0.000196009               0.999999998               0.000009768               0.000194387               0.999999998               0.000005838               0.000201054               0.999999998              -0.000000209               0.000212764               0.999999998              -0.000007586               0.000227966               0.999999998              -0.000015946               0.000245657               0.999999998              -0.000024878               0.000265179               0.999999998              -0.000034152               0.000286231               0.999999998              -0.000043741               0.000308665               0.999999998              -0.000053784               0.000332540               0.999999998              -0.000064252               0.000357671               0.999999998              -0.000075189               0.000383980               0.999999998              -0.000086199               0.000411171               0.999999998              -0.000097136               0.000439075               0.999999998              -0.000108181               0.000467564               0.999999998              -0.000119376               0.000496860               0.999999998              -0.000000378               0.000229262               0.999999998               0.000010638               0.000214962               0.999999998               0.000011846               0.000212501               0.999999998               0.000008967               0.000217299               0.999999998               0.000003910               0.000226966               0.999999998              -0.000002397               0.000240081               0.999999998              -0.000009772               0.000255769               0.999999998              -0.000017606               0.000273393               0.999999998              -0.000025720               0.000292543               0.999999998              -0.000034067               0.000312977               0.999999998              -0.000042788               0.000334667               0.999999998              -0.000051855               0.000357655               0.999999998              -0.000061198               0.000381814               0.999999998              -0.000070671               0.000407145               0.999999998              -0.000080012               0.000433351               0.999999998              -0.000089272               0.000460232               0.999999998              -0.000098579               0.000487795               0.999999998              -0.000000646               0.000243875               0.999999998               0.000010611               0.000232540               0.999999998               0.000012763               0.000230052               0.999999998               0.000010981               0.000233628               0.999999998               0.000007075               0.000241647               0.999999998               0.000001857               0.000252985               0.999999998              -0.000004289               0.000266915               0.999999998              -0.000011022               0.000282827               0.999999998              -0.000017916               0.000300311               0.999999998              -0.000025099               0.000319067               0.999999998              -0.000032578               0.000338937               0.999999998              -0.000040223               0.000360005               0.999999998              -0.000047926               0.000382301               0.999999998              -0.000055671               0.000405791               0.999999998              -0.000063289               0.000430317               0.999999998              -0.000070639               0.000455629               0.999999998              -0.000077637               0.000481574               0.999999998              -0.000000734               0.000256103               0.999999998               0.000009705               0.000248098               0.999999998               0.000012379               0.000246197               0.999999998               0.000011580               0.000249213               0.999999998               0.000008778               0.000256062               0.999999998               0.000004756               0.000265955               0.999999998              -0.000000121               0.000278386               0.999999998              -0.000005592               0.000292817               0.999999998              -0.000011350               0.000308899               0.999999998              -0.000017277               0.000326243               0.999999998              -0.000023458               0.000344711               0.999999998              -0.000029741               0.000364268               0.999999998              -0.000035862               0.000384986               0.999999998              -0.000041769               0.000406894               0.999999998              -0.000047387               0.000429956               0.999999998              -0.000052743               0.000453874               0.999999998              -0.000057605               0.000478468               0.999999998              -0.000000663               0.000265792               0.999999998               0.000008020               0.000260979               0.999999998               0.000010690               0.000260047               0.999999998               0.000010580               0.000262937               0.999999998               0.000008766               0.000269130               0.999999998               0.000005904               0.000278045               0.999999998               0.000002272               0.000289276               0.999999998              -0.000001858               0.000302513               0.999999998              -0.000006369               0.000317443               0.999999998              -0.000010915               0.000333796               0.999999998              -0.000015629               0.000351308               0.999999998              -0.000020397               0.000369871               0.999999998              -0.000025009               0.000389479               0.999999998              -0.000029137               0.000410262               0.999999998              -0.000032962               0.000432123               0.999999998              -0.000036395               0.000454858               0.999999998              -0.000039038               0.000478376               0.999999998              -0.000000501               0.000272808               0.999999998               0.000005693               0.000270591               0.999999998               0.000007839               0.000270715               0.999999998               0.000008066               0.000273810               0.999999998               0.000007055               0.000279647               0.999999998               0.000005216               0.000287981               0.999999998               0.000002861               0.000298474               0.999999998               0.000000070               0.000310911               0.999999998              -0.000002983               0.000325093               0.999999998              -0.000006136               0.000340731               0.999999998              -0.000009235               0.000357598               0.999999998              -0.000012327               0.000375627               0.999999998              -0.000015431               0.000394677               0.999999998              -0.000018231               0.000414694               0.999999998              -0.000020530               0.000435732               0.999999998              -0.000022284               0.000457773               0.999999998              -0.000023180               0.000480604               0.999999998              -0.000000273               0.000277040               0.999999998               0.000002940               0.000276545               0.999999998               0.000004133               0.000277432               0.999999998               0.000004345               0.000280780               0.999999998               0.000003919               0.000286571               0.999999998               0.000003075               0.000294625               0.999999998               0.000001928               0.000304753               0.999999998               0.000000536               0.000316715               0.999999998              -0.000001066               0.000330382               0.999999998              -0.000002711               0.000345615               0.999999998              -0.000004165               0.000362164               0.999999998              -0.000005595               0.000379879               0.999999998              -0.000007345               0.000398617               0.999999998              -0.000008913               0.000418311               0.999999998              -0.000009772               0.000438989               0.999999998              -0.000010371               0.000460612               0.999999998              -0.000010629               0.000483063               0.999999998              -0.000000000               0.000278422               0.999999998               0.000000000               0.000278543               0.999999998               0.000000000               0.000279743               0.999999998              -0.000000000               0.000283201               0.999999998               0.000000000               0.000288982               0.999999998               0.000000000               0.000296908               0.999999998               0.000000000               0.000306938               0.999999998               0.000000000               0.000318810               0.999999998               0.000000000               0.000332288               0.999999998              -0.000000000               0.000347313               0.999999998              -0.000000000               0.000363828               0.999999998               0.000000000               0.000381487               0.999999998              -0.000000000               0.000400075               0.999999998              -0.000000000               0.000419767               0.999999998              -0.000000000               0.000440318               0.999999998               0.000000000               0.000461738               0.999999998               0.000000000               0.000484128               0.999999998               0.000003381              -0.000000000               0.999999998              -0.000007597              -0.000000000               0.999999998              -0.000013121              -0.000000000               0.999999998              -0.000016418               0.000000000               0.999999998              -0.000019021               0.000000000               0.999999998              -0.000021555               0.000000000               0.999999998              -0.000024321               0.000000000               0.999999998              -0.000027510              -0.000000000               0.999999998              -0.000031122              -0.000000000               0.999999998              -0.000035221              -0.000000000               0.999999998              -0.000039812               0.000000000               0.999999998              -0.000044927              -0.000000000               0.999999998              -0.000050512              -0.000000000               0.999999998              -0.000056565               0.000000000               0.999999998              -0.000063113               0.000000000               0.999999998              -0.000070192              -0.000000000               0.999999998              -0.000077815               0.000000000               0.999999998               0.000003283              -0.000026892               0.999999998              -0.000007296              -0.000024260               0.999999998              -0.000012563              -0.000023693               0.999999998              -0.000015815              -0.000024379               0.999999998              -0.000018389              -0.000025849               0.999999998              -0.000020942              -0.000027778               0.999999998              -0.000023783              -0.000030132               0.999999998              -0.000027041              -0.000032811               0.999999998              -0.000030801              -0.000035651               0.999999998              -0.000035091              -0.000038732               0.999999998              -0.000039861              -0.000041920               0.999999998              -0.000045115              -0.000045333               0.999999998              -0.000050895              -0.000048846               0.999999998              -0.000057131              -0.000052484               0.999999998              -0.000063838              -0.000056325               0.999999998              -0.000071068              -0.000060402               0.999999998              -0.000078801              -0.000064385               0.999999998               0.000003059              -0.000053593               0.999999998              -0.000006440              -0.000048238               0.999999998              -0.000011072              -0.000047247               0.999999998              -0.000014043              -0.000048712               0.999999998              -0.000016604              -0.000051686               0.999999998              -0.000019312              -0.000055715               0.999999998              -0.000022403              -0.000060445               0.999999998              -0.000026030              -0.000065725               0.999999998              -0.000030228              -0.000071494               0.999999998              -0.000034919              -0.000077618               0.999999998              -0.000040136              -0.000084056               0.999999998              -0.000045889              -0.000090757               0.999999998              -0.000052138              -0.000097792               0.999999998              -0.000058874              -0.000104995               0.999999998              -0.000066062              -0.000112687               0.999999998              -0.000073724              -0.000120820               0.999999998              -0.000081882              -0.000128966               0.999999998               0.000002714              -0.000079797               0.999999998              -0.000004981              -0.000071685               0.999999998              -0.000008722              -0.000070369               0.999999998              -0.000011388              -0.000072750               0.999999998              -0.000014026              -0.000077389               0.999999998              -0.000017094              -0.000083520               0.999999998              -0.000020710              -0.000090726               0.999999998              -0.000024953              -0.000098689               0.999999998              -0.000029813              -0.000107326               0.999999998              -0.000035274              -0.000116512               0.999999998              -0.000041305              -0.000126088               0.999999998              -0.000047834              -0.000136165               0.999999998              -0.000054851              -0.000146666               0.999999998              -0.000062381              -0.000157589               0.999999998              -0.000070444              -0.000169102               0.999999998              -0.000078959              -0.000181234               0.999999998              -0.000087847              -0.000193529               0.999999998               0.000002230              -0.000105185               0.999999998              -0.000002970              -0.000094361               0.999999998              -0.000005697              -0.000092944               0.999999998              -0.000008236              -0.000096425               0.999999998              -0.000011216              -0.000102868               0.999999998              -0.000014874              -0.000111234               0.999999998              -0.000019272              -0.000120871               0.999999998              -0.000024397              -0.000131583               0.999999998              -0.000030255              -0.000143145               0.999999998              -0.000036762              -0.000155401               0.999999998              -0.000043795              -0.000168193               0.999999998              -0.000051325              -0.000181496               0.999999998              -0.000059387              -0.000195569               0.999999998              -0.000068056              -0.000210238               0.999999998              -0.000077194              -0.000225453               0.999999998              -0.000086628              -0.000241214               0.999999998              -0.000096292              -0.000257204               0.999999998               0.000001803              -0.000129576               0.999999998              -0.000000465              -0.000116197               0.999999998              -0.000002340              -0.000114919               0.999999998              -0.000004977              -0.000119682               0.999999998              -0.000008566              -0.000128006               0.999999998              -0.000013112              -0.000138581               0.999999998              -0.000018600              -0.000150766               0.999999998              -0.000024933              -0.000164195               0.999999998              -0.000031961              -0.000178676               0.999999998              -0.000039579              -0.000193941               0.999999998              -0.000047735              -0.000209957               0.999999998              -0.000056480              -0.000226635               0.999999998              -0.000065760              -0.000244210               0.999999998              -0.000075519              -0.000262485               0.999999998              -0.000085632              -0.000281127               0.999999998              -0.000095910              -0.000299981               0.999999998              -0.000106313              -0.000319245               0.999999998               0.000001421              -0.000152710               0.999999998               0.000002318              -0.000137132               0.999999998               0.000001052              -0.000136222               0.999999998              -0.000002007              -0.000142397               0.999999998              -0.000006513              -0.000152612               0.999999998              -0.000012232              -0.000165458               0.999999998              -0.000019008              -0.000180154               0.999999998              -0.000026593              -0.000196361               0.999999998              -0.000034805              -0.000213670               0.999999998              -0.000043606              -0.000231982               0.999999998              -0.000053006              -0.000251200               0.999999998              -0.000062933              -0.000271292               0.999999998              -0.000073382              -0.000292256               0.999999998              -0.000084100              -0.000314060               0.999999998              -0.000094972              -0.000335978               0.999999998              -0.000105995              -0.000358089               0.999999998              -0.000117289              -0.000380810               0.999999998               0.000001081              -0.000174322               0.999999998               0.000005178              -0.000157118               0.999999998               0.000004206              -0.000156783               0.999999998               0.000000387              -0.000164408               0.999999998              -0.000005263              -0.000176508               0.999999998              -0.000012284              -0.000191648               0.999999998              -0.000020335              -0.000208893               0.999999998              -0.000029153              -0.000227798               0.999999998              -0.000038547              -0.000247956               0.999999998              -0.000048541              -0.000269335               0.999999998              -0.000059006              -0.000291902               0.999999998              -0.000069962              -0.000315572               0.999999998              -0.000081286              -0.000340251               0.999999998              -0.000092830              -0.000365470               0.999999998              -0.000104535              -0.000390834               0.999999998              -0.000116536              -0.000416633               0.999999998              -0.000128938              -0.000443196               0.999999998               0.000000708              -0.000194054               0.999999998               0.000008004              -0.000176189               0.999999998               0.000006828              -0.000176481               0.999999998               0.000002025              -0.000185457               0.999999998              -0.000004811              -0.000199521               0.999999998              -0.000013155              -0.000216937               0.999999998              -0.000022402              -0.000236767               0.999999998              -0.000032349              -0.000258408               0.999999998              -0.000042846              -0.000281556               0.999999998              -0.000053827              -0.000306241               0.999999998              -0.000065261              -0.000332404               0.999999998              -0.000077204              -0.000359829               0.999999998              -0.000089512              -0.000388133               0.999999998              -0.000101923              -0.000417004               0.999999998              -0.000114521              -0.000446394               0.999999998              -0.000127522              -0.000476431               0.999999998              -0.000140811              -0.000506999               0.999999998               0.000000055              -0.000212526               0.999999998               0.000009764              -0.000196009               0.999999998               0.000009768              -0.000194387               0.999999998               0.000005838              -0.000201054               0.999999998              -0.000000209              -0.000212764               0.999999998              -0.000007586              -0.000227966               0.999999998              -0.000015946              -0.000245657               0.999999998              -0.000024878              -0.000265179               0.999999998              -0.000034152              -0.000286231               0.999999998              -0.000043741              -0.000308665               0.999999998              -0.000053784              -0.000332540               0.999999998              -0.000064252              -0.000357671               0.999999998              -0.000075189              -0.000383980               0.999999998              -0.000086199              -0.000411171               0.999999998              -0.000097136              -0.000439075               0.999999998              -0.000108181              -0.000467564               0.999999998              -0.000119376              -0.000496860               0.999999998              -0.000000378              -0.000229262               0.999999998               0.000010638              -0.000214962               0.999999998               0.000011846              -0.000212501               0.999999998               0.000008967              -0.000217299               0.999999998               0.000003910              -0.000226966               0.999999998              -0.000002397              -0.000240081               0.999999998              -0.000009772              -0.000255769               0.999999998              -0.000017606              -0.000273393               0.999999998              -0.000025720              -0.000292543               0.999999998              -0.000034067              -0.000312977               0.999999998              -0.000042788              -0.000334667               0.999999998              -0.000051855              -0.000357655               0.999999998              -0.000061198              -0.000381814               0.999999998              -0.000070671              -0.000407145               0.999999998              -0.000080012              -0.000433351               0.999999998              -0.000089272              -0.000460232               0.999999998              -0.000098579              -0.000487795               0.999999998              -0.000000646              -0.000243875               0.999999998               0.000010611              -0.000232540               0.999999998               0.000012763              -0.000230052               0.999999998               0.000010981              -0.000233628               0.999999998               0.000007075              -0.000241647               0.999999998               0.000001857              -0.000252985               0.999999998              -0.000004289              -0.000266915               0.999999998              -0.000011022              -0.000282827               0.999999998              -0.000017916              -0.000300311               0.999999998              -0.000025099              -0.000319067               0.999999998              -0.000032578              -0.000338937               0.999999998              -0.000040223              -0.000360005               0.999999998              -0.000047926              -0.000382301               0.999999998              -0.000055671              -0.000405791               0.999999998              -0.000063289              -0.000430317               0.999999998              -0.000070639              -0.000455629               0.999999998              -0.000077637              -0.000481574               0.999999998              -0.000000734              -0.000256103               0.999999998               0.000009705              -0.000248098               0.999999998               0.000012379              -0.000246197               0.999999998               0.000011580              -0.000249213               0.999999998               0.000008778              -0.000256062               0.999999998               0.000004756              -0.000265955               0.999999998              -0.000000121              -0.000278386               0.999999998              -0.000005592              -0.000292817               0.999999998              -0.000011350              -0.000308899               0.999999998              -0.000017277              -0.000326243               0.999999998              -0.000023458              -0.000344711               0.999999998              -0.000029741              -0.000364268               0.999999998              -0.000035862              -0.000384986               0.999999998              -0.000041769              -0.000406894               0.999999998              -0.000047387              -0.000429956               0.999999998              -0.000052743              -0.000453874               0.999999998              -0.000057605              -0.000478468               0.999999998              -0.000000663              -0.000265792               0.999999998               0.000008020              -0.000260979               0.999999998               0.000010690              -0.000260047               0.999999998               0.000010580              -0.000262937               0.999999998               0.000008766              -0.000269130               0.999999998               0.000005904              -0.000278045               0.999999998               0.000002272              -0.000289276               0.999999998              -0.000001858              -0.000302513               0.999999998              -0.000006369              -0.000317443               0.999999998              -0.000010915              -0.000333796               0.999999998              -0.000015629              -0.000351308               0.999999998              -0.000020397              -0.000369871               0.999999998              -0.000025009              -0.000389479               0.999999998              -0.000029137              -0.000410262               0.999999998              -0.000032962              -0.000432123               0.999999998              -0.000036395              -0.000454858               0.999999998              -0.000039038              -0.000478376               0.999999998              -0.000000501              -0.000272808               0.999999998               0.000005693              -0.000270591               0.999999998               0.000007839              -0.000270715               0.999999998               0.000008066              -0.000273810               0.999999998               0.000007055              -0.000279647               0.999999998               0.000005216              -0.000287981               0.999999998               0.000002861              -0.000298474               0.999999998               0.000000070              -0.000310911               0.999999998              -0.000002983              -0.000325093               0.999999998              -0.000006136              -0.000340731               0.999999998              -0.000009235              -0.000357598               0.999999998              -0.000012327              -0.000375627               0.999999998              -0.000015431              -0.000394677               0.999999998              -0.000018231              -0.000414694               0.999999998              -0.000020530              -0.000435732               0.999999998              -0.000022284              -0.000457773               0.999999998              -0.000023180              -0.000480604               0.999999998              -0.000000273              -0.000277040               0.999999998               0.000002940              -0.000276545               0.999999998               0.000004133              -0.000277432               0.999999998               0.000004345              -0.000280780               0.999999998               0.000003919              -0.000286571               0.999999998               0.000003075              -0.000294625               0.999999998               0.000001928              -0.000304753               0.999999998               0.000000536              -0.000316715               0.999999998              -0.000001066              -0.000330382               0.999999998              -0.000002711              -0.000345615               0.999999998              -0.000004165              -0.000362164               0.999999998              -0.000005595              -0.000379879               0.999999998              -0.000007345              -0.000398617               0.999999998              -0.000008913              -0.000418311               0.999999998              -0.000009772              -0.000438989               0.999999998              -0.000010371              -0.000460612               0.999999998              -0.000010629              -0.000483063               0.999999998              -0.000000000              -0.000278422               0.999999998               0.000000000              -0.000278543               0.999999998               0.000000000              -0.000279743               0.999999998               0.000000000              -0.000283201               0.999999998              -0.000000000              -0.000288982               0.999999998              -0.000000000              -0.000296908               0.999999998              -0.000000000              -0.000306938               0.999999998              -0.000000000              -0.000318810               0.999999998              -0.000000000              -0.000332288               0.999999998              -0.000000000              -0.000347313               0.999999998              -0.000000000              -0.000363828               0.999999998              -0.000000000              -0.000381487               0.999999998              -0.000000000              -0.000400075               0.999999998               0.000000000              -0.000419767               0.999999998               0.000000000              -0.000440318               0.999999998               0.000000000              -0.000461738               0.999999998              -0.000000000              -0.000484128               0.999999998              -0.000003381              -0.000000000               0.999999998               0.000007597              -0.000000000               0.999999998               0.000013121               0.000000000               0.999999998               0.000016418               0.000000000               0.999999998               0.000019021               0.000000000               0.999999998               0.000021555               0.000000000               0.999999998               0.000024321               0.000000000               0.999999998               0.000027510               0.000000000               0.999999998               0.000031122               0.000000000               0.999999998               0.000035221               0.000000000               0.999999998               0.000039812               0.000000000               0.999999998               0.000044927              -0.000000000               0.999999998               0.000050512               0.000000000               0.999999998               0.000056565              -0.000000000               0.999999998               0.000063113               0.000000000               0.999999998               0.000070192               0.000000000               0.999999998               0.000077815               0.000000000               0.999999998              -0.000003283              -0.000026892               0.999999998               0.000007296              -0.000024260               0.999999998               0.000012563              -0.000023693               0.999999998               0.000015815              -0.000024379               0.999999998               0.000018389              -0.000025849               0.999999998               0.000020942              -0.000027778               0.999999998               0.000023783              -0.000030132               0.999999998               0.000027041              -0.000032811               0.999999998               0.000030801              -0.000035651               0.999999998               0.000035091              -0.000038732               0.999999998               0.000039861              -0.000041920               0.999999998               0.000045115              -0.000045333               0.999999998               0.000050895              -0.000048846               0.999999998               0.000057131              -0.000052484               0.999999998               0.000063838              -0.000056325               0.999999998               0.000071068              -0.000060402               0.999999998               0.000078801              -0.000064385               0.999999998              -0.000003059              -0.000053593               0.999999998               0.000006440              -0.000048238               0.999999998               0.000011072              -0.000047247               0.999999998               0.000014043              -0.000048712               0.999999998               0.000016604              -0.000051686               0.999999998               0.000019312              -0.000055715               0.999999998               0.000022403              -0.000060445               0.999999998               0.000026030              -0.000065725               0.999999998               0.000030228              -0.000071494               0.999999998               0.000034919              -0.000077618               0.999999998               0.000040136              -0.000084056               0.999999998               0.000045889              -0.000090757               0.999999998               0.000052138              -0.000097792               0.999999998               0.000058874              -0.000104995               0.999999998               0.000066062              -0.000112687               0.999999998               0.000073724              -0.000120820               0.999999998               0.000081882              -0.000128966               0.999999998              -0.000002714              -0.000079797               0.999999998               0.000004981              -0.000071685               0.999999998               0.000008722              -0.000070369               0.999999998               0.000011388              -0.000072750               0.999999998               0.000014026              -0.000077389               0.999999998               0.000017094              -0.000083520               0.999999998               0.000020710              -0.000090726               0.999999998               0.000024953              -0.000098689               0.999999998               0.000029813              -0.000107326               0.999999998               0.000035274              -0.000116512               0.999999998               0.000041305              -0.000126088               0.999999998               0.000047834              -0.000136165               0.999999998               0.000054851              -0.000146666               0.999999998               0.000062381              -0.000157589               0.999999998               0.000070444              -0.000169102               0.999999998               0.000078959              -0.000181234               0.999999998               0.000087847              -0.000193529               0.999999998              -0.000002230              -0.000105185               0.999999998               0.000002970              -0.000094361               0.999999998               0.000005697              -0.000092944               0.999999998               0.000008236              -0.000096425               0.999999998               0.000011216              -0.000102868               0.999999998               0.000014874              -0.000111234               0.999999998               0.000019272              -0.000120871               0.999999998               0.000024397              -0.000131583               0.999999998               0.000030255              -0.000143145               0.999999998               0.000036762              -0.000155401               0.999999998               0.000043795              -0.000168193               0.999999998               0.000051325              -0.000181496               0.999999998               0.000059387              -0.000195569               0.999999998               0.000068056              -0.000210238               0.999999998               0.000077194              -0.000225453               0.999999998               0.000086628              -0.000241214               0.999999998               0.000096292              -0.000257204               0.999999998              -0.000001803              -0.000129576               0.999999998               0.000000465              -0.000116197               0.999999998               0.000002340              -0.000114919               0.999999998               0.000004977              -0.000119682               0.999999998               0.000008566              -0.000128006               0.999999998               0.000013112              -0.000138581               0.999999998               0.000018600              -0.000150766               0.999999998               0.000024933              -0.000164195               0.999999998               0.000031961              -0.000178676               0.999999998               0.000039579              -0.000193941               0.999999998               0.000047735              -0.000209957               0.999999998               0.000056480              -0.000226635               0.999999998               0.000065760              -0.000244210               0.999999998               0.000075519              -0.000262485               0.999999998               0.000085632              -0.000281127               0.999999998               0.000095910              -0.000299981               0.999999998               0.000106313              -0.000319245               0.999999998              -0.000001421              -0.000152710               0.999999998              -0.000002318              -0.000137132               0.999999998              -0.000001052              -0.000136222               0.999999998               0.000002007              -0.000142397               0.999999998               0.000006513              -0.000152612               0.999999998               0.000012232              -0.000165458               0.999999998               0.000019008              -0.000180154               0.999999998               0.000026593              -0.000196361               0.999999998               0.000034805              -0.000213670               0.999999998               0.000043606              -0.000231982               0.999999998               0.000053006              -0.000251200               0.999999998               0.000062933              -0.000271292               0.999999998               0.000073382              -0.000292256               0.999999998               0.000084100              -0.000314060               0.999999998               0.000094972              -0.000335978               0.999999998               0.000105995              -0.000358089               0.999999998               0.000117289              -0.000380810               0.999999998              -0.000001081              -0.000174322               0.999999998              -0.000005178              -0.000157118               0.999999998              -0.000004206              -0.000156783               0.999999998              -0.000000387              -0.000164408               0.999999998               0.000005263              -0.000176508               0.999999998               0.000012284              -0.000191648               0.999999998               0.000020335              -0.000208893               0.999999998               0.000029153              -0.000227798               0.999999998               0.000038547              -0.000247956               0.999999998               0.000048541              -0.000269335               0.999999998               0.000059006              -0.000291902               0.999999998               0.000069962              -0.000315572               0.999999998               0.000081286              -0.000340251               0.999999998               0.000092830              -0.000365470               0.999999998               0.000104535              -0.000390834               0.999999998               0.000116536              -0.000416633               0.999999998               0.000128938              -0.000443196               0.999999998              -0.000000708              -0.000194054               0.999999998              -0.000008004              -0.000176189               0.999999998              -0.000006828              -0.000176481               0.999999998              -0.000002025              -0.000185457               0.999999998               0.000004811              -0.000199521               0.999999998               0.000013155              -0.000216937               0.999999998               0.000022402              -0.000236767               0.999999998               0.000032349              -0.000258408               0.999999998               0.000042846              -0.000281556               0.999999998               0.000053827              -0.000306241               0.999999998               0.000065261              -0.000332404               0.999999998               0.000077204              -0.000359829               0.999999998               0.000089512              -0.000388133               0.999999998               0.000101923              -0.000417004               0.999999998               0.000114521              -0.000446394               0.999999998               0.000127522              -0.000476431               0.999999998               0.000140811              -0.000506999               0.999999998              -0.000000055              -0.000212526               0.999999998              -0.000009764              -0.000196009               0.999999998              -0.000009768              -0.000194387               0.999999998              -0.000005838              -0.000201054               0.999999998               0.000000209              -0.000212764               0.999999998               0.000007586              -0.000227966               0.999999998               0.000015946              -0.000245657               0.999999998               0.000024878              -0.000265179               0.999999998               0.000034152              -0.000286231               0.999999998               0.000043741              -0.000308665               0.999999998               0.000053784              -0.000332540               0.999999998               0.000064252              -0.000357671               0.999999998               0.000075189              -0.000383980               0.999999998               0.000086199              -0.000411171               0.999999998               0.000097136              -0.000439075               0.999999998               0.000108181              -0.000467564               0.999999998               0.000119376              -0.000496860               0.999999998               0.000000378              -0.000229262               0.999999998              -0.000010638              -0.000214962               0.999999998              -0.000011846              -0.000212501               0.999999998              -0.000008967              -0.000217299               0.999999998              -0.000003910              -0.000226966               0.999999998               0.000002397              -0.000240081               0.999999998               0.000009772              -0.000255769               0.999999998               0.000017606              -0.000273393               0.999999998               0.000025720              -0.000292543               0.999999998               0.000034067              -0.000312977               0.999999998               0.000042788              -0.000334667               0.999999998               0.000051855              -0.000357655               0.999999998               0.000061198              -0.000381814               0.999999998               0.000070671              -0.000407145               0.999999998               0.000080012              -0.000433351               0.999999998               0.000089272              -0.000460232               0.999999998               0.000098579              -0.000487795               0.999999998               0.000000646              -0.000243875               0.999999998              -0.000010611              -0.000232540               0.999999998              -0.000012763              -0.000230052               0.999999998              -0.000010981              -0.000233628               0.999999998              -0.000007075              -0.000241647               0.999999998              -0.000001857              -0.000252985               0.999999998               0.000004289              -0.000266915               0.999999998               0.000011022              -0.000282827               0.999999998               0.000017916              -0.000300311               0.999999998               0.000025099              -0.000319067               0.999999998               0.000032578              -0.000338937               0.999999998               0.000040223              -0.000360005               0.999999998               0.000047926              -0.000382301               0.999999998               0.000055671              -0.000405791               0.999999998               0.000063289              -0.000430317               0.999999998               0.000070639              -0.000455629               0.999999998               0.000077637              -0.000481574               0.999999998               0.000000734              -0.000256103               0.999999998              -0.000009705              -0.000248098               0.999999998              -0.000012379              -0.000246197               0.999999998              -0.000011580              -0.000249213               0.999999998              -0.000008778              -0.000256062               0.999999998              -0.000004756              -0.000265955               0.999999998               0.000000121              -0.000278386               0.999999998               0.000005592              -0.000292817               0.999999998               0.000011350              -0.000308899               0.999999998               0.000017277              -0.000326243               0.999999998               0.000023458              -0.000344711               0.999999998               0.000029741              -0.000364268               0.999999998               0.000035862              -0.000384986               0.999999998               0.000041769              -0.000406894               0.999999998               0.000047387              -0.000429956               0.999999998               0.000052743              -0.000453874               0.999999998               0.000057605              -0.000478468               0.999999998               0.000000663              -0.000265792               0.999999998              -0.000008020              -0.000260979               0.999999998              -0.000010690              -0.000260047               0.999999998              -0.000010580              -0.000262937               0.999999998              -0.000008766              -0.000269130               0.999999998              -0.000005904              -0.000278045               0.999999998              -0.000002272              -0.000289276               0.999999998               0.000001858              -0.000302513               0.999999998               0.000006369              -0.000317443               0.999999998               0.000010915              -0.000333796               0.999999998               0.000015629              -0.000351308               0.999999998               0.000020397              -0.000369871               0.999999998               0.000025009              -0.000389479               0.999999998               0.000029137              -0.000410262               0.999999998               0.000032962              -0.000432123               0.999999998               0.000036395              -0.000454858               0.999999998               0.000039038              -0.000478376               0.999999998               0.000000501              -0.000272808               0.999999998              -0.000005693              -0.000270591               0.999999998              -0.000007839              -0.000270715               0.999999998              -0.000008066              -0.000273810               0.999999998              -0.000007055              -0.000279647               0.999999998              -0.000005216              -0.000287981               0.999999998              -0.000002861              -0.000298474               0.999999998              -0.000000070              -0.000310911               0.999999998               0.000002983              -0.000325093               0.999999998               0.000006136              -0.000340731               0.999999998               0.000009235              -0.000357598               0.999999998               0.000012327              -0.000375627               0.999999998               0.000015431              -0.000394677               0.999999998               0.000018231              -0.000414694               0.999999998               0.000020530              -0.000435732               0.999999998               0.000022284              -0.000457773               0.999999998               0.000023180              -0.000480604               0.999999998               0.000000273              -0.000277040               0.999999998              -0.000002940              -0.000276545               0.999999998              -0.000004133              -0.000277432               0.999999998              -0.000004345              -0.000280780               0.999999998              -0.000003919              -0.000286571               0.999999998              -0.000003075              -0.000294625               0.999999998              -0.000001928              -0.000304753               0.999999998              -0.000000536              -0.000316715               0.999999998               0.000001066              -0.000330382               0.999999998               0.000002711              -0.000345615               0.999999998               0.000004165              -0.000362164               0.999999998               0.000005595              -0.000379879               0.999999998               0.000007345              -0.000398617               0.999999998               0.000008913              -0.000418311               0.999999998               0.000009772              -0.000438989               0.999999998               0.000010371              -0.000460612               0.999999998               0.000010629              -0.000483063               0.999999998              -0.000000000              -0.000278422               0.999999998               0.000000000              -0.000278543               0.999999998               0.000000000              -0.000279743               0.999999998               0.000000000              -0.000283201               0.999999998              -0.000000000              -0.000288982               0.999999998              -0.000000000              -0.000296908               0.999999998              -0.000000000              -0.000306938               0.999999998              -0.000000000              -0.000318810               0.999999998              -0.000000000              -0.000332288               0.999999998              -0.000000000              -0.000347313               0.999999998              -0.000000000              -0.000363828               0.999999998              -0.000000000              -0.000381487               0.999999998              -0.000000000              -0.000400075               0.999999998               0.000000000              -0.000419767               0.999999998               0.000000000              -0.000440318               0.999999998               0.000000000              -0.000461738               0.999999998              -0.000000000              -0.000484128               0.999999998              -0.000003381              -0.000000000               0.999999998               0.000007597              -0.000000000               0.999999998               0.000013121               0.000000000               0.999999998               0.000016418               0.000000000               0.999999998               0.000019021               0.000000000               0.999999998               0.000021555               0.000000000               0.999999998               0.000024321               0.000000000               0.999999998               0.000027510               0.000000000               0.999999998               0.000031122               0.000000000               0.999999998               0.000035221               0.000000000               0.999999998               0.000039812               0.000000000               0.999999998               0.000044927              -0.000000000               0.999999998               0.000050512               0.000000000               0.999999998               0.000056565              -0.000000000               0.999999998               0.000063113               0.000000000               0.999999998               0.000070192               0.000000000               0.999999998               0.000077815               0.000000000               0.999999998              -0.000003283               0.000026892               0.999999998               0.000007296               0.000024260               0.999999998               0.000012563               0.000023693               0.999999998               0.000015815               0.000024379               0.999999998               0.000018389               0.000025849               0.999999998               0.000020942               0.000027778               0.999999998               0.000023783               0.000030132               0.999999998               0.000027041               0.000032811               0.999999998               0.000030801               0.000035651               0.999999998               0.000035091               0.000038732               0.999999998               0.000039861               0.000041920               0.999999998               0.000045115               0.000045333               0.999999998               0.000050895               0.000048846               0.999999998               0.000057131               0.000052484               0.999999998               0.000063838               0.000056325               0.999999998               0.000071068               0.000060402               0.999999998               0.000078801               0.000064385               0.999999998              -0.000003059               0.000053593               0.999999998               0.000006440               0.000048238               0.999999998               0.000011072               0.000047247               0.999999998               0.000014043               0.000048712               0.999999998               0.000016604               0.000051686               0.999999998               0.000019312               0.000055715               0.999999998               0.000022403               0.000060445               0.999999998               0.000026030               0.000065725               0.999999998               0.000030228               0.000071494               0.999999998               0.000034919               0.000077618               0.999999998               0.000040136               0.000084056               0.999999998               0.000045889               0.000090757               0.999999998               0.000052138               0.000097792               0.999999998               0.000058874               0.000104995               0.999999998               0.000066062               0.000112687               0.999999998               0.000073724               0.000120820               0.999999998               0.000081882               0.000128966               0.999999998              -0.000002714               0.000079797               0.999999998               0.000004981               0.000071685               0.999999998               0.000008722               0.000070369               0.999999998               0.000011388               0.000072750               0.999999998               0.000014026               0.000077389               0.999999998               0.000017094               0.000083520               0.999999998               0.000020710               0.000090726               0.999999998               0.000024953               0.000098689               0.999999998               0.000029813               0.000107326               0.999999998               0.000035274               0.000116512               0.999999998               0.000041305               0.000126088               0.999999998               0.000047834               0.000136165               0.999999998               0.000054851               0.000146666               0.999999998               0.000062381               0.000157589               0.999999998               0.000070444               0.000169102               0.999999998               0.000078959               0.000181234               0.999999998               0.000087847               0.000193529               0.999999998              -0.000002230               0.000105185               0.999999998               0.000002970               0.000094361               0.999999998               0.000005697               0.000092944               0.999999998               0.000008236               0.000096425               0.999999998               0.000011216               0.000102868               0.999999998               0.000014874               0.000111234               0.999999998               0.000019272               0.000120871               0.999999998               0.000024397               0.000131583               0.999999998               0.000030255               0.000143145               0.999999998               0.000036762               0.000155401               0.999999998               0.000043795               0.000168193               0.999999998               0.000051325               0.000181496               0.999999998               0.000059387               0.000195569               0.999999998               0.000068056               0.000210238               0.999999998               0.000077194               0.000225453               0.999999998               0.000086628               0.000241214               0.999999998               0.000096292               0.000257204               0.999999998              -0.000001803               0.000129576               0.999999998               0.000000465               0.000116197               0.999999998               0.000002340               0.000114919               0.999999998               0.000004977               0.000119682               0.999999998               0.000008566               0.000128006               0.999999998               0.000013112               0.000138581               0.999999998               0.000018600               0.000150766               0.999999998               0.000024933               0.000164195               0.999999998               0.000031961               0.000178676               0.999999998               0.000039579               0.000193941               0.999999998               0.000047735               0.000209957               0.999999998               0.000056480               0.000226635               0.999999998               0.000065760               0.000244210               0.999999998               0.000075519               0.000262485               0.999999998               0.000085632               0.000281127               0.999999998               0.000095910               0.000299981               0.999999998               0.000106313               0.000319245               0.999999998              -0.000001421               0.000152710               0.999999998              -0.000002318               0.000137132               0.999999998              -0.000001052               0.000136222               0.999999998               0.000002007               0.000142397               0.999999998               0.000006513               0.000152612               0.999999998               0.000012232               0.000165458               0.999999998               0.000019008               0.000180154               0.999999998               0.000026593               0.000196361               0.999999998               0.000034805               0.000213670               0.999999998               0.000043606               0.000231982               0.999999998               0.000053006               0.000251200               0.999999998               0.000062933               0.000271292               0.999999998               0.000073382               0.000292256               0.999999998               0.000084100               0.000314060               0.999999998               0.000094972               0.000335978               0.999999998               0.000105995               0.000358089               0.999999998               0.000117289               0.000380810               0.999999998              -0.000001081               0.000174322               0.999999998              -0.000005178               0.000157118               0.999999998              -0.000004206               0.000156783               0.999999998              -0.000000387               0.000164408               0.999999998               0.000005263               0.000176508               0.999999998               0.000012284               0.000191648               0.999999998               0.000020335               0.000208893               0.999999998               0.000029153               0.000227798               0.999999998               0.000038547               0.000247956               0.999999998               0.000048541               0.000269335               0.999999998               0.000059006               0.000291902               0.999999998               0.000069962               0.000315572               0.999999998               0.000081286               0.000340251               0.999999998               0.000092830               0.000365470               0.999999998               0.000104535               0.000390834               0.999999998               0.000116536               0.000416633               0.999999998               0.000128938               0.000443196               0.999999998              -0.000000708               0.000194054               0.999999998              -0.000008004               0.000176189               0.999999998              -0.000006828               0.000176481               0.999999998              -0.000002025               0.000185457               0.999999998               0.000004811               0.000199521               0.999999998               0.000013155               0.000216937               0.999999998               0.000022402               0.000236767               0.999999998               0.000032349               0.000258408               0.999999998               0.000042846               0.000281556               0.999999998               0.000053827               0.000306241               0.999999998               0.000065261               0.000332404               0.999999998               0.000077204               0.000359829               0.999999998               0.000089512               0.000388133               0.999999998               0.000101923               0.000417004               0.999999998               0.000114521               0.000446394               0.999999998               0.000127522               0.000476431               0.999999998               0.000140811               0.000506999               0.999999998              -0.000000055               0.000212526               0.999999998              -0.000009764               0.000196009               0.999999998              -0.000009768               0.000194387               0.999999998              -0.000005838               0.000201054               0.999999998               0.000000209               0.000212764               0.999999998               0.000007586               0.000227966               0.999999998               0.000015946               0.000245657               0.999999998               0.000024878               0.000265179               0.999999998               0.000034152               0.000286231               0.999999998               0.000043741               0.000308665               0.999999998               0.000053784               0.000332540               0.999999998               0.000064252               0.000357671               0.999999998               0.000075189               0.000383980               0.999999998               0.000086199               0.000411171               0.999999998               0.000097136               0.000439075               0.999999998               0.000108181               0.000467564               0.999999998               0.000119376               0.000496860               0.999999998               0.000000378               0.000229262               0.999999998              -0.000010638               0.000214962               0.999999998              -0.000011846               0.000212501               0.999999998              -0.000008967               0.000217299               0.999999998              -0.000003910               0.000226966               0.999999998               0.000002397               0.000240081               0.999999998               0.000009772               0.000255769               0.999999998               0.000017606               0.000273393               0.999999998               0.000025720               0.000292543               0.999999998               0.000034067               0.000312977               0.999999998               0.000042788               0.000334667               0.999999998               0.000051855               0.000357655               0.999999998               0.000061198               0.000381814               0.999999998               0.000070671               0.000407145               0.999999998               0.000080012               0.000433351               0.999999998               0.000089272               0.000460232               0.999999998               0.000098579               0.000487795               0.999999998               0.000000646               0.000243875               0.999999998              -0.000010611               0.000232540               0.999999998              -0.000012763               0.000230052               0.999999998              -0.000010981               0.000233628               0.999999998              -0.000007075               0.000241647               0.999999998              -0.000001857               0.000252985               0.999999998               0.000004289               0.000266915               0.999999998               0.000011022               0.000282827               0.999999998               0.000017916               0.000300311               0.999999998               0.000025099               0.000319067               0.999999998               0.000032578               0.000338937               0.999999998               0.000040223               0.000360005               0.999999998               0.000047926               0.000382301               0.999999998               0.000055671               0.000405791               0.999999998               0.000063289               0.000430317               0.999999998               0.000070639               0.000455629               0.999999998               0.000077637               0.000481574               0.999999998               0.000000734               0.000256103               0.999999998              -0.000009705               0.000248098               0.999999998              -0.000012379               0.000246197               0.999999998              -0.000011580               0.000249213               0.999999998              -0.000008778               0.000256062               0.999999998              -0.000004756               0.000265955               0.999999998               0.000000121               0.000278386               0.999999998               0.000005592               0.000292817               0.999999998               0.000011350               0.000308899               0.999999998               0.000017277               0.000326243               0.999999998               0.000023458               0.000344711               0.999999998               0.000029741               0.000364268               0.999999998               0.000035862               0.000384986               0.999999998               0.000041769               0.000406894               0.999999998               0.000047387               0.000429956               0.999999998               0.000052743               0.000453874               0.999999998               0.000057605               0.000478468               0.999999998               0.000000663               0.000265792               0.999999998              -0.000008020               0.000260979               0.999999998              -0.000010690               0.000260047               0.999999998              -0.000010580               0.000262937               0.999999998              -0.000008766               0.000269130               0.999999998              -0.000005904               0.000278045               0.999999998              -0.000002272               0.000289276               0.999999998               0.000001858               0.000302513               0.999999998               0.000006369               0.000317443               0.999999998               0.000010915               0.000333796               0.999999998               0.000015629               0.000351308               0.999999998               0.000020397               0.000369871               0.999999998               0.000025009               0.000389479               0.999999998               0.000029137               0.000410262               0.999999998               0.000032962               0.000432123               0.999999998               0.000036395               0.000454858               0.999999998               0.000039038               0.000478376               0.999999998               0.000000501               0.000272808               0.999999998              -0.000005693               0.000270591               0.999999998              -0.000007839               0.000270715               0.999999998              -0.000008066               0.000273810               0.999999998              -0.000007055               0.000279647               0.999999998              -0.000005216               0.000287981               0.999999998              -0.000002861               0.000298474               0.999999998              -0.000000070               0.000310911               0.999999998               0.000002983               0.000325093               0.999999998               0.000006136               0.000340731               0.999999998               0.000009235               0.000357598               0.999999998               0.000012327               0.000375627               0.999999998               0.000015431               0.000394677               0.999999998               0.000018231               0.000414694               0.999999998               0.000020530               0.000435732               0.999999998               0.000022284               0.000457773               0.999999998               0.000023180               0.000480604               0.999999998               0.000000273               0.000277040               0.999999998              -0.000002940               0.000276545               0.999999998              -0.000004133               0.000277432               0.999999998              -0.000004345               0.000280780               0.999999998              -0.000003919               0.000286571               0.999999998              -0.000003075               0.000294625               0.999999998              -0.000001928               0.000304753               0.999999998              -0.000000536               0.000316715               0.999999998               0.000001066               0.000330382               0.999999998               0.000002711               0.000345615               0.999999998               0.000004165               0.000362164               0.999999998               0.000005595               0.000379879               0.999999998               0.000007345               0.000398617               0.999999998               0.000008913               0.000418311               0.999999998               0.000009772               0.000438989               0.999999998               0.000010371               0.000460612               0.999999998               0.000010629               0.000483063               0.999999998              -0.000000000               0.000278422               0.999999998               0.000000000               0.000278543               0.999999998               0.000000000               0.000279743               0.999999998              -0.000000000               0.000283201               0.999999998               0.000000000               0.000288982               0.999999998               0.000000000               0.000296908               0.999999998               0.000000000               0.000306938               0.999999998               0.000000000               0.000318810               0.999999998               0.000000000               0.000332288               0.999999998              -0.000000000               0.000347313               0.999999998              -0.000000000               0.000363828               0.999999998               0.000000000               0.000381487               0.999999998              -0.000000000               0.000400075               0.999999998              -0.000000000               0.000419767               0.999999998              -0.000000000               0.000440318               0.999999998               0.000000000               0.000461738               0.999999998               0.000000000               0.000484128               0.999999998 </DataArray>
<DataArray type="Float64"                                    Name="stress"                                                      NumberOfComponents="10" format="ascii">
              0.000428902               0.005060257              -0.000000000              -0.000471693               0.001843966               0.001372274               0.000000000               0.000000000               0.000000000               0.000000000               0.000479932               0.004219077              -0.000000000              -0.000347409               0.001522148               0.001174739               0.000000000               0.000000000               0.000000000               0.000000000               0.000676757               0.003537725               0.000000000              -0.000188432               0.001242040               0.001053609               0.000000000               0.000000000               0.000000000               0.000000000               0.000712684               0.003164970               0.000000000              -0.000128365               0.001097768               0.000969403               0.000000000               0.000000000               0.000000000               0.000000000               0.000681819               0.002947847              -0.000000000              -0.000112799               0.001020205               0.000907407               0.000000000               0.000000000               0.000000000               0.000000000               0.000625512               0.002814308              -0.000000000              -0.000117221               0.000977167               0.000859946               0.000000000               0.000000000               0.000000000               0.000000000               0.000560318               0.002735136               0.000000000              -0.000131773               0.000955627               0.000823855               0.000000000               0.000000000               0.000000000               0.000000000               0.000495263               0.002690293              -0.000000000              -0.000150563               0.000946943               0.000796380               0.000000000               0.000000000               0.000000000               0.000000000               0.000431864               0.002663996              -0.000000000              -0.000171050               0.000945006               0.000773956               0.000000000               0.000000000               0.000000000               0.000000000               0.000371330               0.002652844              -0.000000000              -0.000192356               0.000948391               0.000756035               0.000000000               0.000000000               0.000000000               0.000000000               0.000312875               0.002650113              -0.000000000              -0.000213936               0.000954674               0.000740738               0.000000000               0.000000000               0.000000000               0.000000000               0.000257474               0.002656645              -0.000000000              -0.000235527               0.000964048               0.000728521               0.000000000               0.000000000               0.000000000               0.000000000               0.000206429               0.002668152              -0.000000000              -0.000256107               0.000974744               0.000718637               0.000000000               0.000000000               0.000000000               0.000000000               0.000156599               0.002683486              -0.000000000              -0.000276710               0.000986723               0.000710013               0.000000000               0.000000000               0.000000000               0.000000000               0.000104607               0.002703842              -0.000000000              -0.000298752               0.001000855               0.000702104               0.000000000               0.000000000               0.000000000               0.000000000               0.000051310               0.002727702              -0.000000000              -0.000321721               0.001016465               0.000694744               0.000000000               0.000000000               0.000000000               0.000000000               0.000026726               0.002744479               0.000000000              -0.000333037               0.001025829               0.000692793               0.000000000               0.000000000               0.000000000               0.000000000               0.000462427               0.004986610              -0.000392011              -0.000449915               0.001812159               0.001362243               0.000000000               0.000000000               0.000000000               0.000000000               0.000495906               0.004165188              -0.000260217              -0.000334683               0.001499943               0.001165260               0.000000000               0.000000000               0.000000000               0.000000000               0.000671455               0.003509949              -0.000120661              -0.000186948               0.001232287               0.001045339               0.000000000               0.000000000               0.000000000               0.000000000               0.000696992               0.003150677              -0.000052959              -0.000132462               0.001094369               0.000961907               0.000000000               0.000000000               0.000000000               0.000000000               0.000663960               0.002941193              -0.000019703              -0.000118664               0.001019943               0.000901279               0.000000000               0.000000000               0.000000000               0.000000000               0.000607508               0.002815424              -0.000002667              -0.000124112               0.000979836               0.000855724               0.000000000               0.000000000               0.000000000               0.000000000               0.000542656               0.002737997               0.000006901              -0.000138753               0.000958907               0.000820154               0.000000000               0.000000000               0.000000000               0.000000000               0.000476385               0.002691189               0.000010022              -0.000157754               0.000949639               0.000791885               0.000000000               0.000000000               0.000000000               0.000000000               0.000412718               0.002665826               0.000010208              -0.000178459               0.000948086               0.000769627               0.000000000               0.000000000               0.000000000               0.000000000               0.000353909               0.002654615               0.000009292              -0.000199110               0.000951233               0.000752122               0.000000000               0.000000000               0.000000000               0.000000000               0.000298839               0.002652816               0.000008387              -0.000219537               0.000957442               0.000737905               0.000000000               0.000000000               0.000000000               0.000000000               0.000244254               0.002656960               0.000007919              -0.000240524               0.000965819               0.000725295               0.000000000               0.000000000               0.000000000               0.000000000               0.000193611               0.002667407               0.000006040              -0.000260821               0.000976067               0.000715246               0.000000000               0.000000000               0.000000000               0.000000000               0.000146271               0.002682003               0.000006750              -0.000280398               0.000987458               0.000707060               0.000000000               0.000000000               0.000000000               0.000000000               0.000097594               0.002702917               0.000010548              -0.000301266               0.001001385               0.000700119               0.000000000               0.000000000               0.000000000               0.000000000               0.000047945               0.002728017               0.000008894              -0.000323022               0.001017004               0.000693982               0.000000000               0.000000000               0.000000000               0.000000000               0.000026166               0.002747357               0.000004550              -0.000333607               0.001026979               0.000693372               0.000000000               0.000000000               0.000000000               0.000000000               0.000546824               0.004763310              -0.000746448              -0.000390354               0.001717872               0.001327518               0.000000000               0.000000000               0.000000000               0.000000000               0.000531161               0.004003802              -0.000495116              -0.000301289               0.001435017               0.001133728               0.000000000               0.000000000               0.000000000               0.000000000               0.000653214               0.003420463              -0.000232006              -0.000182602               0.001201010               0.001018408               0.000000000               0.000000000               0.000000000               0.000000000               0.000652161               0.003099477              -0.000106510              -0.000142874               0.001080773               0.000937899               0.000000000               0.000000000               0.000000000               0.000000000               0.000608513               0.002912067              -0.000044493              -0.000135816               0.001015951               0.000880136               0.000000000               0.000000000               0.000000000               0.000000000               0.000550884               0.002800433              -0.000014279              -0.000143472               0.000981292               0.000837820               0.000000000               0.000000000               0.000000000               0.000000000               0.000487387               0.002730421              -0.000000252              -0.000158532               0.000962975               0.000804443               0.000000000               0.000000000               0.000000000               0.000000000               0.000422147               0.002685470               0.000006145              -0.000177378               0.000954274               0.000776895               0.000000000               0.000000000               0.000000000               0.000000000               0.000363968               0.002662081               0.000008257              -0.000196272               0.000952775               0.000756504               0.000000000               0.000000000               0.000000000               0.000000000               0.000311230               0.002651396               0.000007182              -0.000214713               0.000955361               0.000740648               0.000000000               0.000000000               0.000000000               0.000000000               0.000259807               0.002648466               0.000005227              -0.000233630               0.000960690               0.000727060               0.000000000               0.000000000               0.000000000               0.000000000               0.000210821               0.002652338               0.000004724              -0.000252484               0.000968265               0.000715781               0.000000000               0.000000000               0.000000000               0.000000000               0.000164779               0.002662707               0.000003306              -0.000271046               0.000977909               0.000706863               0.000000000               0.000000000               0.000000000               0.000000000               0.000121767               0.002678913               0.000005614              -0.000289201               0.000989362               0.000700161               0.000000000               0.000000000               0.000000000               0.000000000               0.000080674               0.002701097               0.000013089              -0.000307384               0.001002818               0.000695434               0.000000000               0.000000000               0.000000000               0.000000000               0.000039505               0.002727359               0.000012006              -0.000326105               0.001017812               0.000691708               0.000000000               0.000000000               0.000000000               0.000000000               0.000022468               0.002749103               0.000006073              -0.000335212               0.001028096               0.000692884               0.000000000               0.000000000               0.000000000               0.000000000               0.000665580               0.004405826              -0.001031633              -0.000301136               0.001568972               0.001267837               0.000000000               0.000000000               0.000000000               0.000000000               0.000573423               0.003749467              -0.000684344              -0.000253650               0.001334360               0.001080710               0.000000000               0.000000000               0.000000000               0.000000000               0.000614966               0.003277410              -0.000326065              -0.000179064               0.001152147               0.000973083               0.000000000               0.000000000               0.000000000               0.000000000               0.000582593               0.003016146              -0.000161299              -0.000158546               0.001058221               0.000899675               0.000000000               0.000000000               0.000000000               0.000000000               0.000528356               0.002862908              -0.000081269              -0.000159730               0.001007536               0.000847807               0.000000000               0.000000000               0.000000000               0.000000000               0.000468708               0.002767973              -0.000041997              -0.000170231               0.000979392               0.000809161               0.000000000               0.000000000               0.000000000               0.000000000               0.000409664               0.002707451              -0.000023610              -0.000184807               0.000964077               0.000779270               0.000000000               0.000000000               0.000000000               0.000000000               0.000352427               0.002670943              -0.000014815              -0.000201707               0.000957541               0.000755834               0.000000000               0.000000000               0.000000000               0.000000000               0.000300488               0.002650666              -0.000011082              -0.000218650               0.000956430               0.000737780               0.000000000               0.000000000               0.000000000               0.000000000               0.000254195               0.002641695              -0.000012444              -0.000234888               0.000958852               0.000723964               0.000000000               0.000000000               0.000000000               0.000000000               0.000211999               0.002639843              -0.000013320              -0.000250480               0.000963432               0.000712952               0.000000000               0.000000000               0.000000000               0.000000000               0.000172352               0.002644632              -0.000010925              -0.000265946               0.000970184               0.000704238               0.000000000               0.000000000               0.000000000               0.000000000               0.000132503               0.002657312              -0.000009363              -0.000282475               0.000979920               0.000697445               0.000000000               0.000000000               0.000000000               0.000000000               0.000093058               0.002675939              -0.000005555              -0.000299595               0.000991836               0.000692241               0.000000000               0.000000000               0.000000000               0.000000000               0.000057513               0.002695051               0.000003513              -0.000315313               0.001003446               0.000688133               0.000000000               0.000000000               0.000000000               0.000000000               0.000027161               0.002714747               0.000006338              -0.000329157               0.001014626               0.000685468               0.000000000               0.000000000               0.000000000               0.000000000               0.000015982               0.002731111               0.000002591              -0.000335395               0.001022159               0.000686765               0.000000000               0.000000000               0.000000000               0.000000000               0.000793614               0.003959373              -0.001225087              -0.000197317               0.001385550               0.001188233               0.000000000               0.000000000               0.000000000               0.000000000               0.000613219               0.003439021              -0.000818686              -0.000199921               0.001212969               0.001013048               0.000000000               0.000000000               0.000000000               0.000000000               0.000561622               0.003109575              -0.000404409              -0.000178089               0.001095878               0.000917789               0.000000000               0.000000000               0.000000000               0.000000000               0.000498245               0.002919461              -0.000219193              -0.000178090               0.001032507               0.000854417               0.000000000               0.000000000               0.000000000               0.000000000               0.000439439               0.002803466              -0.000129541              -0.000185643               0.000996360               0.000810717               0.000000000               0.000000000               0.000000000               0.000000000               0.000383021               0.002727420              -0.000085708              -0.000197294               0.000974895               0.000777601               0.000000000               0.000000000               0.000000000               0.000000000               0.000331664               0.002678418              -0.000063778              -0.000210428               0.000962940               0.000752512               0.000000000               0.000000000               0.000000000               0.000000000               0.000284437               0.002649663              -0.000051654              -0.000224544               0.000958060               0.000733516               0.000000000               0.000000000               0.000000000               0.000000000               0.000240976               0.002633913              -0.000045284              -0.000238873               0.000957586               0.000718714               0.000000000               0.000000000               0.000000000               0.000000000               0.000203921               0.002627196              -0.000042333              -0.000251928               0.000959699               0.000707771               0.000000000               0.000000000               0.000000000               0.000000000               0.000171481               0.002629090              -0.000040431              -0.000264330               0.000964465               0.000700135               0.000000000               0.000000000               0.000000000               0.000000000               0.000138343               0.002635601              -0.000033510              -0.000277571               0.000971048               0.000693478               0.000000000               0.000000000               0.000000000               0.000000000               0.000101347               0.002648199              -0.000025306              -0.000293019               0.000980397               0.000687378               0.000000000               0.000000000               0.000000000               0.000000000               0.000065435               0.002662921              -0.000019458              -0.000308326               0.000990407               0.000682081               0.000000000               0.000000000               0.000000000               0.000000000               0.000038844               0.002673125              -0.000010614              -0.000319573               0.000997557               0.000677984               0.000000000               0.000000000               0.000000000               0.000000000               0.000017890               0.002676624              -0.000002619              -0.000327868               0.001001488               0.000673620               0.000000000               0.000000000               0.000000000               0.000000000               0.000009688               0.002681170              -0.000001308              -0.000331513               0.001004219               0.000672706               0.000000000               0.000000000               0.000000000               0.000000000               0.000899327               0.003465565              -0.001324864              -0.000095949               0.001187160               0.001091210               0.000000000               0.000000000               0.000000000               0.000000000               0.000637857               0.003104844              -0.000901406              -0.000148910               0.001084574               0.000935665               0.000000000               0.000000000               0.000000000               0.000000000               0.000500274               0.002933686              -0.000470805              -0.000179108               0.001037588               0.000858480               0.000000000               0.000000000               0.000000000               0.000000000               0.000415491               0.002816659              -0.000280939              -0.000196273               0.001004301               0.000808028               0.000000000               0.000000000               0.000000000               0.000000000               0.000355994               0.002734845              -0.000187958              -0.000208357               0.000981058               0.000772701               0.000000000               0.000000000               0.000000000               0.000000000               0.000306358               0.002677719              -0.000140441              -0.000219830               0.000965841               0.000746011               0.000000000               0.000000000               0.000000000               0.000000000               0.000264169               0.002641914              -0.000114057              -0.000231175               0.000957688               0.000726512               0.000000000               0.000000000               0.000000000               0.000000000               0.000229113               0.002621399              -0.000096323              -0.000241757               0.000954377               0.000712620               0.000000000               0.000000000               0.000000000               0.000000000               0.000197223               0.002608705              -0.000083004              -0.000252129               0.000953603               0.000701474               0.000000000               0.000000000               0.000000000               0.000000000               0.000167708               0.002604030              -0.000072580              -0.000262613               0.000955539               0.000692926               0.000000000               0.000000000               0.000000000               0.000000000               0.000138254               0.002607498              -0.000064249              -0.000274091               0.000960521               0.000686430               0.000000000               0.000000000               0.000000000               0.000000000               0.000107463               0.002616797              -0.000052354              -0.000286800               0.000967857               0.000681057               0.000000000               0.000000000               0.000000000               0.000000000               0.000077632               0.002627366              -0.000037308              -0.000299308               0.000975549               0.000676241               0.000000000               0.000000000               0.000000000               0.000000000               0.000050794               0.002637520              -0.000028368              -0.000310641               0.000982712               0.000672070               0.000000000               0.000000000               0.000000000               0.000000000               0.000030349               0.002639448              -0.000022296              -0.000318549               0.000985990               0.000667441               0.000000000               0.000000000               0.000000000               0.000000000               0.000014613               0.002636192              -0.000011502              -0.000324043               0.000986736               0.000662693               0.000000000               0.000000000               0.000000000               0.000000000               0.000009007               0.002637710              -0.000005595              -0.000326335               0.000988006               0.000661671               0.000000000               0.000000000               0.000000000               0.000000000               0.000967952               0.002957033              -0.001340895              -0.000006649               0.000987884               0.000981235               0.000000000               0.000000000               0.000000000               0.000000000               0.000646459               0.002769890              -0.000939918              -0.000103815               0.000957892               0.000854077               0.000000000               0.000000000               0.000000000               0.000000000               0.000438862               0.002758838              -0.000527928              -0.000180281               0.000979697               0.000799416               0.000000000               0.000000000               0.000000000               0.000000000               0.000344002               0.002709376              -0.000345116              -0.000209671               0.000973006               0.000763336               0.000000000               0.000000000               0.000000000               0.000000000               0.000288721               0.002659973              -0.000250997              -0.000224226               0.000961391               0.000737165               0.000000000               0.000000000               0.000000000               0.000000000               0.000248173               0.002623899              -0.000198133              -0.000234922               0.000952932               0.000718010               0.000000000               0.000000000               0.000000000               0.000000000               0.000215676               0.002600182              -0.000162854              -0.000244144               0.000948100               0.000703956               0.000000000               0.000000000               0.000000000               0.000000000               0.000190962               0.002586389              -0.000136258              -0.000251687               0.000946017               0.000694330               0.000000000               0.000000000               0.000000000               0.000000000               0.000166289               0.002576952              -0.000114427              -0.000259760               0.000945562               0.000685802               0.000000000               0.000000000               0.000000000               0.000000000               0.000139878               0.002576364              -0.000095346              -0.000269591               0.000948643               0.000679052               0.000000000               0.000000000               0.000000000               0.000000000               0.000112365               0.002584732              -0.000078043              -0.000280954               0.000955220               0.000674266               0.000000000               0.000000000               0.000000000               0.000000000               0.000083824               0.002599369              -0.000059913              -0.000293486               0.000964277               0.000670790               0.000000000               0.000000000               0.000000000               0.000000000               0.000061277               0.002614539              -0.000040195              -0.000303838               0.000972784               0.000668946               0.000000000               0.000000000               0.000000000               0.000000000               0.000046951               0.002624411              -0.000029915              -0.000310444               0.000978276               0.000667832               0.000000000               0.000000000               0.000000000               0.000000000               0.000033187               0.002628402              -0.000026647              -0.000316104               0.000981493               0.000665389               0.000000000               0.000000000               0.000000000               0.000000000               0.000016855               0.002634387              -0.000015633              -0.000322977               0.000985779               0.000662802               0.000000000               0.000000000               0.000000000               0.000000000               0.000010912               0.002642698              -0.000009219              -0.000326244               0.000989639               0.000663394               0.000000000               0.000000000               0.000000000               0.000000000               0.000995524               0.002466777              -0.001283372               0.000064972               0.000800593               0.000865565               0.000000000               0.000000000               0.000000000               0.000000000               0.000639546               0.002456148              -0.000941425              -0.000067190               0.000841104               0.000773914               0.000000000               0.000000000               0.000000000               0.000000000               0.000386683               0.002589824              -0.000578929              -0.000178722               0.000922840               0.000744118               0.000000000               0.000000000               0.000000000               0.000000000               0.000290898               0.002596811              -0.000406398              -0.000215514               0.000937433               0.000721919               0.000000000               0.000000000               0.000000000               0.000000000               0.000241382               0.002580232              -0.000308944              -0.000232010               0.000937405               0.000705395               0.000000000               0.000000000               0.000000000               0.000000000               0.000210020               0.002564771              -0.000247184              -0.000241838               0.000935528               0.000693689               0.000000000               0.000000000               0.000000000               0.000000000               0.000185430               0.002554097              -0.000201977              -0.000249725               0.000934599               0.000684874               0.000000000               0.000000000               0.000000000               0.000000000               0.000165302               0.002546926              -0.000166043              -0.000256377               0.000934426               0.000678049               0.000000000               0.000000000               0.000000000               0.000000000               0.000144293               0.002546666              -0.000135444              -0.000264223               0.000936954               0.000672732               0.000000000               0.000000000               0.000000000               0.000000000               0.000121864               0.002557621              -0.000106103              -0.000274003               0.000943866               0.000669863               0.000000000               0.000000000               0.000000000               0.000000000               0.000098464               0.002578148              -0.000079499              -0.000285344               0.000954489               0.000669145               0.000000000               0.000000000               0.000000000               0.000000000               0.000076191               0.002602224              -0.000056155              -0.000296706               0.000966301               0.000669595               0.000000000               0.000000000               0.000000000               0.000000000               0.000062114               0.002622898              -0.000038043              -0.000304569               0.000975813               0.000671245               0.000000000               0.000000000               0.000000000               0.000000000               0.000053109               0.002637088              -0.000030567              -0.000309719               0.000982260               0.000672541               0.000000000               0.000000000               0.000000000               0.000000000               0.000040477               0.002654400              -0.000027657              -0.000316620               0.000990331               0.000673711               0.000000000               0.000000000               0.000000000               0.000000000               0.000021048               0.002675035              -0.000017657              -0.000326486               0.001000498               0.000674012               0.000000000               0.000000000               0.000000000               0.000000000               0.000012231               0.002688743              -0.000011802              -0.000331506               0.001006741               0.000675235               0.000000000               0.000000000               0.000000000               0.000000000               0.001000333               0.002033892              -0.001175770               0.000120886               0.000637661               0.000758547               0.000000000               0.000000000               0.000000000               0.000000000               0.000638805               0.002174283              -0.000924917              -0.000032235               0.000735499               0.000703264               0.000000000               0.000000000               0.000000000               0.000000000               0.000362059               0.002431587              -0.000637217              -0.000168177               0.000866580               0.000698403               0.000000000               0.000000000               0.000000000               0.000000000               0.000267556               0.002495548              -0.000471750              -0.000211610               0.000902378               0.000690768               0.000000000               0.000000000               0.000000000               0.000000000               0.000221940               0.002513045              -0.000368042              -0.000230903               0.000914641               0.000683738               0.000000000               0.000000000               0.000000000               0.000000000               0.000194143               0.002519406              -0.000296373              -0.000242122               0.000920501               0.000678379               0.000000000               0.000000000               0.000000000               0.000000000               0.000177488               0.002523956              -0.000242352              -0.000248936               0.000924289               0.000675353               0.000000000               0.000000000               0.000000000               0.000000000               0.000160834               0.002527332              -0.000197808              -0.000255603               0.000927637               0.000672033               0.000000000               0.000000000               0.000000000               0.000000000               0.000142682               0.002540419              -0.000157623              -0.000264046               0.000934813               0.000670767               0.000000000               0.000000000               0.000000000               0.000000000               0.000123206               0.002565807              -0.000119759              -0.000274523               0.000946768               0.000672245               0.000000000               0.000000000               0.000000000               0.000000000               0.000104285               0.002597362              -0.000088454              -0.000285562               0.000960966               0.000675404               0.000000000               0.000000000               0.000000000               0.000000000               0.000086163               0.002624890              -0.000064344              -0.000295799               0.000973554               0.000677755               0.000000000               0.000000000               0.000000000               0.000000000               0.000077343               0.002647470              -0.000046314              -0.000301929               0.000983124               0.000681195               0.000000000               0.000000000               0.000000000               0.000000000               0.000071121               0.002670719              -0.000033571              -0.000307169               0.000992620               0.000685451               0.000000000               0.000000000               0.000000000               0.000000000               0.000056955               0.002701741              -0.000025445              -0.000316359               0.001006024               0.000689665               0.000000000               0.000000000               0.000000000               0.000000000               0.000036238               0.002735862              -0.000016845              -0.000328393               0.001021409               0.000693017               0.000000000               0.000000000               0.000000000               0.000000000               0.000022429               0.002753062              -0.000011221              -0.000335721               0.001029585               0.000693864               0.000000000               0.000000000               0.000000000               0.000000000               0.000973780               0.001609095              -0.001043595               0.000164028               0.000481683               0.000645711               0.000000000               0.000000000               0.000000000               0.000000000               0.000653165               0.001839718              -0.000900541               0.000014971               0.000608243               0.000623213               0.000000000               0.000000000               0.000000000               0.000000000               0.000379116               0.002188675              -0.000706524              -0.000131416               0.000773356               0.000641940               0.000000000               0.000000000               0.000000000               0.000000000               0.000279623               0.002321713              -0.000553360              -0.000185355               0.000835681               0.000650326               0.000000000               0.000000000               0.000000000               0.000000000               0.000232923               0.002385571              -0.000443018              -0.000210850               0.000865466               0.000654616               0.000000000               0.000000000               0.000000000               0.000000000               0.000202121               0.002424601              -0.000362069              -0.000227279               0.000883952               0.000656673               0.000000000               0.000000000               0.000000000               0.000000000               0.000185562               0.002451632              -0.000300829              -0.000236868               0.000896159               0.000659291               0.000000000               0.000000000               0.000000000               0.000000000               0.000171256               0.002473489              -0.000247710              -0.000244964               0.000906143               0.000661178               0.000000000               0.000000000               0.000000000               0.000000000               0.000154997               0.002498528              -0.000200440              -0.000254192               0.000917565               0.000663373               0.000000000               0.000000000               0.000000000               0.000000000               0.000138589               0.002532690              -0.000159849              -0.000264615               0.000932426               0.000667812               0.000000000               0.000000000               0.000000000               0.000000000               0.000124675               0.002573063              -0.000126508              -0.000274879               0.000949305               0.000674426               0.000000000               0.000000000               0.000000000               0.000000000               0.000111477               0.002614096              -0.000099644              -0.000284957               0.000966342               0.000681385               0.000000000               0.000000000               0.000000000               0.000000000               0.000100504               0.002654386              -0.000074824              -0.000294108               0.000982823               0.000688714               0.000000000               0.000000000               0.000000000               0.000000000               0.000091612               0.002693275              -0.000050194              -0.000302304               0.000998517               0.000696213               0.000000000               0.000000000               0.000000000               0.000000000               0.000077108               0.002729035              -0.000030367              -0.000312213               0.001013740               0.000701527               0.000000000               0.000000000               0.000000000               0.000000000               0.000057865               0.002771140              -0.000014651              -0.000324692               0.001031935               0.000707242               0.000000000               0.000000000               0.000000000               0.000000000               0.000041163               0.002791735              -0.000004249              -0.000333530               0.001041746               0.000708216               0.000000000               0.000000000               0.000000000               0.000000000               0.000897486               0.001203025              -0.000887010               0.000186177               0.000338945               0.000525122               0.000000000               0.000000000               0.000000000               0.000000000               0.000668521               0.001500255              -0.000851714               0.000063162               0.000479026               0.000542188               0.000000000               0.000000000               0.000000000               0.000000000               0.000431127               0.001911826              -0.000757938              -0.000077306               0.000663037               0.000585731               0.000000000               0.000000000               0.000000000               0.000000000               0.000328256               0.002109818              -0.000631052              -0.000140632               0.000750143               0.000609511               0.000000000               0.000000000               0.000000000               0.000000000               0.000273342               0.002225159              -0.000521465              -0.000175641               0.000800259               0.000624618               0.000000000               0.000000000               0.000000000               0.000000000               0.000238132               0.002302987              -0.000436372              -0.000198573               0.000833846               0.000635272               0.000000000               0.000000000               0.000000000               0.000000000               0.000214220               0.002360739              -0.000368535              -0.000214760               0.000858492               0.000643732               0.000000000               0.000000000               0.000000000               0.000000000               0.000198926               0.002406937              -0.000308792              -0.000226270               0.000877728               0.000651458               0.000000000               0.000000000               0.000000000               0.000000000               0.000183752               0.002445859              -0.000257873              -0.000236825               0.000894220               0.000657395               0.000000000               0.000000000               0.000000000               0.000000000               0.000170822               0.002486442              -0.000217090              -0.000246746               0.000911055               0.000664308               0.000000000               0.000000000               0.000000000               0.000000000               0.000159911               0.002535164              -0.000181765              -0.000256928               0.000930689               0.000673761               0.000000000               0.000000000               0.000000000               0.000000000               0.000147783               0.002589745              -0.000148667              -0.000268299               0.000952673               0.000684374               0.000000000               0.000000000               0.000000000               0.000000000               0.000132719               0.002647527              -0.000115668              -0.000281171               0.000976224               0.000695053               0.000000000               0.000000000               0.000000000               0.000000000               0.000118989               0.002702876              -0.000081980              -0.000293238               0.000998695               0.000705458               0.000000000               0.000000000               0.000000000               0.000000000               0.000101799               0.002744764              -0.000050740              -0.000304920               0.001016552               0.000711632               0.000000000               0.000000000               0.000000000               0.000000000               0.000078270               0.002782311              -0.000024151              -0.000318437               0.001033573               0.000715137               0.000000000               0.000000000               0.000000000               0.000000000               0.000054569               0.002793160              -0.000007166              -0.000328681               0.001040604               0.000711924               0.000000000               0.000000000               0.000000000               0.000000000               0.000773860               0.000837860              -0.000708412               0.000185463               0.000217462               0.000402925               0.000000000               0.000000000               0.000000000               0.000000000               0.000663986               0.001168415              -0.000764233               0.000102941               0.000355154               0.000458095               0.000000000               0.000000000               0.000000000               0.000000000               0.000498238               0.001601374              -0.000760082              -0.000013334               0.000538230               0.000524897               0.000000000               0.000000000               0.000000000               0.000000000               0.000406250               0.001850752              -0.000670231              -0.000079001               0.000643245               0.000564244               0.000000000               0.000000000               0.000000000               0.000000000               0.000346801               0.002014678              -0.000574114              -0.000121784               0.000712147               0.000590363               0.000000000               0.000000000               0.000000000               0.000000000               0.000305394               0.002135115              -0.000491049              -0.000152366               0.000762487               0.000610120               0.000000000               0.000000000               0.000000000               0.000000000               0.000271673               0.002227707              -0.000421397              -0.000176586               0.000801423               0.000624838               0.000000000               0.000000000               0.000000000               0.000000000               0.000250051               0.002301707              -0.000359559              -0.000193944               0.000831876               0.000637932               0.000000000               0.000000000               0.000000000               0.000000000               0.000233817               0.002362590              -0.000307651              -0.000207642               0.000856736               0.000649094               0.000000000               0.000000000               0.000000000               0.000000000               0.000218003               0.002414906              -0.000267531              -0.000220112               0.000878331               0.000658220               0.000000000               0.000000000               0.000000000               0.000000000               0.000205447               0.002473473              -0.000231335              -0.000232141               0.000901863               0.000669722               0.000000000               0.000000000               0.000000000               0.000000000               0.000194244               0.002542765              -0.000193195              -0.000245004               0.000929248               0.000684244               0.000000000               0.000000000               0.000000000               0.000000000               0.000179324               0.002618235              -0.000154508              -0.000260032               0.000959414               0.000699381               0.000000000               0.000000000               0.000000000               0.000000000               0.000159816               0.002690293              -0.000115204              -0.000276355               0.000988874               0.000712519               0.000000000               0.000000000               0.000000000               0.000000000               0.000135338               0.002747094              -0.000076114              -0.000292634               0.001013234               0.000720599               0.000000000               0.000000000               0.000000000               0.000000000               0.000104111               0.002787463              -0.000037377              -0.000309390               0.001032275               0.000722885               0.000000000               0.000000000               0.000000000               0.000000000               0.000074385               0.002796067              -0.000013295              -0.000321613               0.001039218               0.000717604               0.000000000               0.000000000               0.000000000               0.000000000               0.000617982               0.000540577              -0.000526336               0.000164169               0.000125467               0.000289636               0.000000000               0.000000000               0.000000000               0.000000000               0.000639406               0.000863061              -0.000643177               0.000131893               0.000243719               0.000375612               0.000000000               0.000000000               0.000000000               0.000000000               0.000569369               0.001281677              -0.000705075               0.000053303               0.000409453               0.000462756               0.000000000               0.000000000               0.000000000               0.000000000               0.000503512               0.001562974              -0.000653859              -0.000006555               0.000523171               0.000516616               0.000000000               0.000000000               0.000000000               0.000000000               0.000446655               0.001765882              -0.000580167              -0.000053240               0.000606368               0.000553128               0.000000000               0.000000000               0.000000000               0.000000000               0.000399269               0.001924840              -0.000507095              -0.000090879               0.000671900               0.000581021               0.000000000               0.000000000               0.000000000               0.000000000               0.000359072               0.002053278              -0.000442029              -0.000122008               0.000725088               0.000603081               0.000000000               0.000000000               0.000000000               0.000000000               0.000327452               0.002159216              -0.000384321              -0.000147107               0.000768767               0.000621660               0.000000000               0.000000000               0.000000000               0.000000000               0.000305735               0.002247528              -0.000334518              -0.000166290               0.000804599               0.000638308               0.000000000               0.000000000               0.000000000               0.000000000               0.000281773               0.002320388              -0.000294772              -0.000184383               0.000834916               0.000650533               0.000000000               0.000000000               0.000000000               0.000000000               0.000260155               0.002392646              -0.000260574              -0.000201522               0.000864715               0.000663193               0.000000000               0.000000000               0.000000000               0.000000000               0.000244241               0.002473127              -0.000222470              -0.000217550               0.000896884               0.000679334               0.000000000               0.000000000               0.000000000               0.000000000               0.000230331               0.002562834              -0.000179856              -0.000233980               0.000932263               0.000698283               0.000000000               0.000000000               0.000000000               0.000000000               0.000211246               0.002653647              -0.000136414              -0.000252488               0.000968703               0.000716215               0.000000000               0.000000000               0.000000000               0.000000000               0.000186348               0.002728069              -0.000094876              -0.000271128               0.000999723               0.000728595               0.000000000               0.000000000               0.000000000               0.000000000               0.000154687               0.002780425              -0.000051270              -0.000289545               0.001023314               0.000733769               0.000000000               0.000000000               0.000000000               0.000000000               0.000125402               0.002795378              -0.000024169              -0.000302396               0.001032582               0.000730186               0.000000000               0.000000000               0.000000000               0.000000000               0.000456235               0.000319745              -0.000359523               0.000131119               0.000062874               0.000193993               0.000000000               0.000000000               0.000000000               0.000000000               0.000602597               0.000604589              -0.000497307               0.000150399               0.000151394               0.000301793               0.000000000               0.000000000               0.000000000               0.000000000               0.000634961               0.000982673              -0.000592297               0.000115275               0.000289129               0.000404404               0.000000000               0.000000000               0.000000000               0.000000000               0.000605479               0.001277602              -0.000572767               0.000067353               0.000403412               0.000470765               0.000000000               0.000000000               0.000000000               0.000000000               0.000557393               0.001508875              -0.000523201               0.000020412               0.000496149               0.000516561               0.000000000               0.000000000               0.000000000               0.000000000               0.000508372               0.001698066              -0.000467981              -0.000021619               0.000573223               0.000551603               0.000000000               0.000000000               0.000000000               0.000000000               0.000461524               0.001858493              -0.000414864              -0.000059240               0.000639238               0.000579998               0.000000000               0.000000000               0.000000000               0.000000000               0.000421180               0.001998244              -0.000367378              -0.000091838               0.000696687               0.000604849               0.000000000               0.000000000               0.000000000               0.000000000               0.000388121               0.002118723              -0.000323676              -0.000119295               0.000745999               0.000626704               0.000000000               0.000000000               0.000000000               0.000000000               0.000356772               0.002219716              -0.000286355              -0.000143675               0.000787790               0.000644115               0.000000000               0.000000000               0.000000000               0.000000000               0.000323368               0.002308624              -0.000255419              -0.000167315               0.000825305               0.000657990               0.000000000               0.000000000               0.000000000               0.000000000               0.000296124               0.002398276              -0.000223720              -0.000188737               0.000862330               0.000673592               0.000000000               0.000000000               0.000000000               0.000000000               0.000281737               0.002498048              -0.000185266              -0.000206604               0.000901542               0.000694938               0.000000000               0.000000000               0.000000000               0.000000000               0.000272241               0.002601542              -0.000143835              -0.000223102               0.000941539               0.000718437               0.000000000               0.000000000               0.000000000               0.000000000               0.000257467               0.002690598              -0.000104152              -0.000239774               0.000976782               0.000737008               0.000000000               0.000000000               0.000000000               0.000000000               0.000234782               0.002762190              -0.000058002              -0.000257230               0.001006464               0.000749234               0.000000000               0.000000000               0.000000000               0.000000000               0.000211123               0.002788585              -0.000029063              -0.000269401               0.001019319               0.000749918               0.000000000               0.000000000               0.000000000               0.000000000               0.000314054               0.000170775              -0.000217715               0.000096422               0.000024783               0.000121206               0.000000000               0.000000000               0.000000000               0.000000000               0.000563268               0.000410059              -0.000336612               0.000159966               0.000083363               0.000243329               0.000000000               0.000000000               0.000000000               0.000000000               0.000687104               0.000740268              -0.000427085               0.000165129               0.000191711               0.000356839               0.000000000               0.000000000               0.000000000               0.000000000               0.000695654               0.001033803              -0.000427088               0.000131643               0.000300716               0.000432360               0.000000000               0.000000000               0.000000000               0.000000000               0.000659745               0.001281481              -0.000399905               0.000087218               0.000398083               0.000485302               0.000000000               0.000000000               0.000000000               0.000000000               0.000609836               0.001493899              -0.000363869               0.000041951               0.000483978               0.000525928               0.000000000               0.000000000               0.000000000               0.000000000               0.000556779               0.001679015              -0.000327841              -0.000001085               0.000560028               0.000558943               0.000000000               0.000000000               0.000000000               0.000000000               0.000508329               0.001845624              -0.000294398              -0.000040080               0.000628562               0.000588482               0.000000000               0.000000000               0.000000000               0.000000000               0.000465672               0.001992666              -0.000262064              -0.000074456               0.000689034               0.000614578               0.000000000               0.000000000               0.000000000               0.000000000               0.000427254               0.002117512              -0.000231115              -0.000104468               0.000740653               0.000636185               0.000000000               0.000000000               0.000000000               0.000000000               0.000387536               0.002227537              -0.000204438              -0.000133116               0.000786877               0.000653761               0.000000000               0.000000000               0.000000000               0.000000000               0.000354539               0.002330827              -0.000184074              -0.000158401               0.000829735               0.000671334               0.000000000               0.000000000               0.000000000               0.000000000               0.000339018               0.002432987              -0.000160262              -0.000176991               0.000869985               0.000692993               0.000000000               0.000000000               0.000000000               0.000000000               0.000336078               0.002539376              -0.000126207              -0.000191392               0.000910248               0.000718856               0.000000000               0.000000000               0.000000000               0.000000000               0.000331914               0.002644262              -0.000089548              -0.000206064               0.000950100               0.000744035               0.000000000               0.000000000               0.000000000               0.000000000               0.000329927               0.002738034              -0.000049406              -0.000218531               0.000985513               0.000766982               0.000000000               0.000000000               0.000000000               0.000000000               0.000326817               0.002777901              -0.000025655              -0.000224681               0.001000851               0.000776170               0.000000000               0.000000000               0.000000000               0.000000000               0.000213868               0.000088052              -0.000099955               0.000069193               0.000006286               0.000075479               0.000000000               0.000000000               0.000000000               0.000000000               0.000529715               0.000289354              -0.000168923               0.000162472               0.000042293               0.000204765               0.000000000               0.000000000               0.000000000               0.000000000               0.000717128               0.000580671              -0.000223618               0.000196337               0.000128109               0.000324446               0.000000000               0.000000000               0.000000000               0.000000000               0.000756644               0.000870589              -0.000228389               0.000174916               0.000231888               0.000406804               0.000000000               0.000000000               0.000000000               0.000000000               0.000733379               0.001125607              -0.000217120               0.000134315               0.000330427               0.000464742               0.000000000               0.000000000               0.000000000               0.000000000               0.000685443               0.001351304              -0.000199259               0.000088127               0.000421055               0.000509182               0.000000000               0.000000000               0.000000000               0.000000000               0.000630144               0.001551387              -0.000181861               0.000042380               0.000502997               0.000545377               0.000000000               0.000000000               0.000000000               0.000000000               0.000573306               0.001729405              -0.000165672              -0.000001186               0.000576858               0.000575672               0.000000000               0.000000000               0.000000000               0.000000000               0.000521430               0.001892435              -0.000148220              -0.000041018               0.000644478               0.000603460               0.000000000               0.000000000               0.000000000               0.000000000               0.000476928               0.002038463              -0.000128383              -0.000075960               0.000704801               0.000628841               0.000000000               0.000000000               0.000000000               0.000000000               0.000440191               0.002166638              -0.000112200              -0.000105758               0.000757458               0.000651700               0.000000000               0.000000000               0.000000000               0.000000000               0.000408521               0.002278435              -0.000105828              -0.000131609               0.000803340               0.000671732               0.000000000               0.000000000               0.000000000               0.000000000               0.000384120               0.002382811              -0.000097122              -0.000153806               0.000845531               0.000691725               0.000000000               0.000000000               0.000000000               0.000000000               0.000375034               0.002490614              -0.000073680              -0.000170689               0.000887093               0.000716404               0.000000000               0.000000000               0.000000000               0.000000000               0.000383130               0.002601746              -0.000048841              -0.000181544               0.000927755               0.000746211               0.000000000               0.000000000               0.000000000               0.000000000               0.000406620               0.002710846              -0.000028606              -0.000186373               0.000965730               0.000779358               0.000000000               0.000000000               0.000000000               0.000000000               0.000424943               0.002763912              -0.000017722              -0.000186135               0.000983340               0.000797205               0.000000000               0.000000000               0.000000000               0.000000000               0.000177449               0.000062825               0.000000000               0.000058690               0.000001378               0.000060068               0.000000000               0.000000000               0.000000000               0.000000000               0.000516142               0.000249514              -0.000000000               0.000162362               0.000029050               0.000191412               0.000000000               0.000000000               0.000000000               0.000000000               0.000726081               0.000525515              -0.000000000               0.000206589               0.000106307               0.000312896               0.000000000               0.000000000               0.000000000               0.000000000               0.000776823               0.000812382               0.000000000               0.000189759               0.000207538               0.000397297               0.000000000               0.000000000               0.000000000               0.000000000               0.000759188               0.001067780               0.000000000               0.000151222               0.000305516               0.000456738               0.000000000               0.000000000               0.000000000               0.000000000               0.000715337               0.001299276               0.000000000               0.000105841               0.000397808               0.000503648               0.000000000               0.000000000               0.000000000               0.000000000               0.000661084               0.001507458              -0.000000000               0.000059474               0.000482657               0.000542130               0.000000000               0.000000000               0.000000000               0.000000000               0.000600404               0.001687544               0.000000000               0.000014208               0.000557773               0.000571981               0.000000000               0.000000000               0.000000000               0.000000000               0.000540967               0.001851745              -0.000000000              -0.000028606               0.000626777               0.000598172               0.000000000               0.000000000               0.000000000               0.000000000               0.000494253               0.002008364              -0.000000000              -0.000065700               0.000691348               0.000625648               0.000000000               0.000000000               0.000000000               0.000000000               0.000463004               0.002147068               0.000000000              -0.000094757               0.000747268               0.000652511               0.000000000               0.000000000               0.000000000               0.000000000               0.000432601               0.002258888              -0.000000000              -0.000120136               0.000793000               0.000672865               0.000000000               0.000000000               0.000000000               0.000000000               0.000398877               0.002364276              -0.000000000              -0.000145955               0.000836736               0.000690781               0.000000000               0.000000000               0.000000000               0.000000000               0.000383403               0.002472255              -0.000000000              -0.000165255               0.000879162               0.000713907               0.000000000               0.000000000               0.000000000               0.000000000               0.000399868               0.002581612              -0.000000000              -0.000172750               0.000918112               0.000745362               0.000000000               0.000000000               0.000000000               0.000000000               0.000436682               0.002698997              -0.000000000              -0.000173619               0.000957529               0.000783911               0.000000000               0.000000000               0.000000000               0.000000000               0.000462679               0.002760189              -0.000000000              -0.000171518               0.000977227               0.000805708               0.000000000               0.000000000               0.000000000               0.000000000               0.000000000               0.000000000               0.000000000               0.000000000               0.000000000               0.000000000               0.000000000               0.000000000               0.000000000               0.000000000               0.000000000               0.000000000               0.000000000               0.000000000               0.000000000               0.000000000               0.000000000               0.000000000               0.000000000               0.000000000               0.000000000               0.000000000               0.000000000               0.000000000               0.000000000               0.000000000               0.000000000               0.000000000               0.000000000               0.000000000               0.000000000               0.000000000               0.000000000               0.000000000               0.000000000               0.000000000               0.000000000               0.000000000               0.000000000               0.000000000               0.000000000               0.000000000               0.000000000               0.000000000               0.000000000               0.000000000               0.000000000               0.000000000               0.000000000               0.000000000               0.000000000               0.000000000               0.000000000               0.000000000               0.000000000               0.000000000               0.000000000               0.000000000               0.000000000               0.000000000               0.000000000               0.000000000               0.000000000               0.000000000               0.000000000               0.000000000               0.000000000               0.000000000               0.000000000               0.000000000               0.000000000               0.000000000               0.000000000               0.000000000               0.000000000               0.000000000               0.000000000               0.000000000               0.000000000               0.000000000               0.000000000               0.000000000               0.000000000               0.000000000               0.000000000               0.000000000               0.000000000               0.000000000               0.000000000               0.000000000               0.000000000               0.000000000               0.000000000               0.000000000               0.000000000               0.000000000               0.000000000               0.000000000               0.000000000               0.000000000               0.000000000               0.000000000               0.000000000               0.000000000               0.000000000               0.000000000               0.000000000               0.000000000               0.000000000               0.000000000               0.000000000               0.000000000               0.000000000               0.000000000               0.000000000               0.000000000               0.000000000               0.000000000               0.000000000               0.000000000               0.000000000               0.000000000               0.000000000               0.000000000               0.000000000               0.000000000               0.000000000               0.000000000               0.000000000               0.000000000               0.000000000               0.000000000               0.000000000               0.000000000               0.000000000               0.000000000               0.000000000               0.000000000               0.000000000               0.000000000               0.000000000               0.000000000               0.000000000               0.000000000               0.000000000               0.000000000               0.000000000               0.000000000               0.000000000               0.000000000               0.000000000               0.000000000               0.000000000               0.000000000               0.000000000               0.000000000               0.000000000               0.000000000               0.000000000               0.000000000               0.000000000               0.000000000               0.000000000               0.000000000               0.000000000               0.000000000               0.000000000               0.000000000               0.000000000               0.000000000               0.000462427               0.004986610               0.000392011              -0.000449915               0.001812159               0.001362243               0.000000000               0.000000000               0.000000000               0.000000000               0.000495906               0.004165188               0.000260217              -0.000334683               0.001499943               0.001165260               0.000000000               0.000000000               0.000000000               0.000000000               0.000671455               0.003509949               0.000120661              -0.000186948               0.001232287               0.001045339               0.000000000               0.000000000               0.000000000               0.000000000               0.000696992               0.003150677               0.000052959              -0.000132462               0.001094369               0.000961907               0.000000000               0.000000000               0.000000000               0.000000000               0.000663960               0.002941193               0.000019703              -0.000118664               0.001019943               0.000901279               0.000000000               0.000000000               0.000000000               0.000000000               0.000607508               0.002815424               0.000002667              -0.000124112               0.000979836               0.000855724               0.000000000               0.000000000               0.000000000               0.000000000               0.000542656               0.002737997              -0.000006901              -0.000138753               0.000958907               0.000820154               0.000000000               0.000000000               0.000000000               0.000000000               0.000476385               0.002691189              -0.000010022              -0.000157754               0.000949639               0.000791885               0.000000000               0.000000000               0.000000000               0.000000000               0.000412718               0.002665826              -0.000010208              -0.000178459               0.000948086               0.000769627               0.000000000               0.000000000               0.000000000               0.000000000               0.000353909               0.002654615              -0.000009292              -0.000199110               0.000951233               0.000752122               0.000000000               0.000000000               0.000000000               0.000000000               0.000298839               0.002652816              -0.000008387              -0.000219537               0.000957442               0.000737905               0.000000000               0.000000000               0.000000000               0.000000000               0.000244254               0.002656960              -0.000007919              -0.000240524               0.000965819               0.000725295               0.000000000               0.000000000               0.000000000               0.000000000               0.000193611               0.002667407              -0.000006040              -0.000260821               0.000976067               0.000715246               0.000000000               0.000000000               0.000000000               0.000000000               0.000146271               0.002682003              -0.000006750              -0.000280398               0.000987458               0.000707060               0.000000000               0.000000000               0.000000000               0.000000000               0.000097594               0.002702917              -0.000010548              -0.000301266               0.001001385               0.000700119               0.000000000               0.000000000               0.000000000               0.000000000               0.000047945               0.002728017              -0.000008894              -0.000323022               0.001017004               0.000693982               0.000000000               0.000000000               0.000000000               0.000000000               0.000026166               0.002747357              -0.000004550              -0.000333607               0.001026979               0.000693372               0.000000000               0.000000000               0.000000000               0.000000000               0.000546824               0.004763310               0.000746448              -0.000390354               0.001717872               0.001327518               0.000000000               0.000000000               0.000000000               0.000000000               0.000531161               0.004003802               0.000495116              -0.000301289               0.001435017               0.001133728               0.000000000               0.000000000               0.000000000               0.000000000               0.000653214               0.003420463               0.000232006              -0.000182602               0.001201010               0.001018408               0.000000000               0.000000000               0.000000000               0.000000000               0.000652161               0.003099477               0.000106510              -0.000142874               0.001080773               0.000937899               0.000000000               0.000000000               0.000000000               0.000000000               0.000608513               0.002912067               0.000044493              -0.000135816               0.001015951               0.000880136               0.000000000               0.000000000               0.000000000               0.000000000               0.000550884               0.002800433               0.000014279              -0.000143472               0.000981292               0.000837820               0.000000000               0.000000000               0.000000000               0.000000000               0.000487387               0.002730421               0.000000252              -0.000158532               0.000962975               0.000804443               0.000000000               0.000000000               0.000000000               0.000000000               0.000422147               0.002685470              -0.000006145              -0.000177378               0.000954274               0.000776895               0.000000000               0.000000000               0.000000000               0.000000000               0.000363968               0.002662081              -0.000008257              -0.000196272               0.000952775               0.000756504               0.000000000               0.000000000               0.000000000               0.000000000               0.000311230               0.002651396              -0.000007182              -0.000214713               0.000955361               0.000740648               0.000000000               0.000000000               0.000000000               0.000000000               0.000259807               0.002648466              -0.000005227              -0.000233630               0.000960690               0.000727060               0.000000000               0.000000000               0.000000000               0.000000000               0.000210821               0.002652338              -0.000004724              -0.000252484               0.000968265               0.000715781               0.000000000               0.000000000               0.000000000               0.000000000               0.000164779               0.002662707              -0.000003306              -0.000271046               0.000977909               0.000706863               0.000000000               0.000000000               0.000000000               0.000000000               0.000121767               0.002678913              -0.000005614              -0.000289201               0.000989362               0.000700161               0.000000000               0.000000000               0.000000000               0.000000000               0.000080674               0.002701097              -0.000013089              -0.000307384               0.001002818               0.000695434               0.000000000               0.000000000               0.000000000               0.000000000               0.000039505               0.002727359              -0.000012006              -0.000326105               0.001017812               0.000691708               0.000000000               0.000000000               0.000000000               0.000000000               0.000022468               0.002749103              -0.000006073              -0.000335212               0.001028096               0.000692884               0.000000000               0.000000000               0.000000000               0.000000000               0.000665580               0.004405826               0.001031633              -0.000301136               0.001568972               0.001267837               0.000000000               0.000000000               0.000000000               0.000000000               0.000573423               0.003749467               0.000684344              -0.000253650               0.001334360               0.001080710               0.000000000               0.000000000               0.000000000               0.000000000               0.000614966               0.003277410               0.000326065              -0.000179064               0.001152147               0.000973083               0.000000000               0.000000000               0.000000000               0.000000000               0.000582593               0.003016146               0.000161299              -0.000158546               0.001058221               0.000899675               0.000000000               0.000000000               0.000000000               0.000000000               0.000528356               0.002862908               0.000081269              -0.000159730               0.001007536               0.000847807               0.000000000               0.000000000               0.000000000               0.000000000               0.000468708               0.002767973               0.000041997              -0.000170231               0.000979392               0.000809161               0.000000000               0.000000000               0.000000000               0.000000000               0.000409664               0.002707451               0.000023610              -0.000184807               0.000964077               0.000779270               0.000000000               0.000000000               0.000000000               0.000000000               0.000352427               0.002670943               0.000014815              -0.000201707               0.000957541               0.000755834               0.000000000               0.000000000               0.000000000               0.000000000               0.000300488               0.002650666               0.000011082              -0.000218650               0.000956430               0.000737780               0.000000000               0.000000000               0.000000000               0.000000000               0.000254195               0.002641695               0.000012444              -0.000234888               0.000958852               0.000723964               0.000000000               0.000000000               0.000000000               0.000000000               0.000211999               0.002639843               0.000013320              -0.000250480               0.000963432               0.000712952               0.000000000               0.000000000               0.000000000               0.000000000               0.000172352               0.002644632               0.000010925              -0.000265946               0.000970184               0.000704238               0.000000000               0.000000000               0.000000000               0.000000000               0.000132503               0.002657312               0.000009363              -0.000282475               0.000979920               0.000697445               0.000000000               0.000000000               0.000000000               0.000000000               0.000093058               0.002675939               0.000005555              -0.000299595               0.000991836               0.000692241               0.000000000               0.000000000               0.000000000               0.000000000               0.000057513               0.002695051              -0.000003513              -0.000315313               0.001003446               0.000688133               0.000000000               0.000000000               0.000000000               0.000000000               0.000027161               0.002714747              -0.000006338              -0.000329157               0.001014626               0.000685468               0.000000000               0.000000000               0.000000000               0.000000000               0.000015982               0.002731111              -0.000002591              -0.000335395               0.001022159               0.000686765               0.000000000               0.000000000               0.000000000               0.000000000               0.000793614               0.003959373               0.001225087              -0.000197317               0.001385550               0.001188233               0.000000000               0.000000000               0.000000000               0.000000000               0.000613219               0.003439021               0.000818686              -0.000199921               0.001212969               0.001013048               0.000000000               0.000000000               0.000000000               0.000000000               0.000561622               0.003109575               0.000404409              -0.000178089               0.001095878               0.000917789               0.000000000               0.000000000               0.000000000               0.000000000               0.000498245               0.002919461               0.000219193              -0.000178090               0.001032507               0.000854417               0.000000000               0.000000000               0.000000000               0.000000000               0.000439439               0.002803466               0.000129541              -0.000185643               0.000996360               0.000810717               0.000000000               0.000000000               0.000000000               0.000000000               0.000383021               0.002727420               0.000085708              -0.000197294               0.000974895               0.000777601               0.000000000               0.000000000               0.000000000               0.000000000               0.000331664               0.002678418               0.000063778              -0.000210428               0.000962940               0.000752512               0.000000000               0.000000000               0.000000000               0.000000000               0.000284437               0.002649663               0.000051654              -0.000224544               0.000958060               0.000733516               0.000000000               0.000000000               0.000000000               0.000000000               0.000240976               0.002633913               0.000045284              -0.000238873               0.000957586               0.000718714               0.000000000               0.000000000               0.000000000               0.000000000               0.000203921               0.002627196               0.000042333              -0.000251928               0.000959699               0.000707771               0.000000000               0.000000000               0.000000000               0.000000000               0.000171481               0.002629090               0.000040431              -0.000264330               0.000964465               0.000700135               0.000000000               0.000000000               0.000000000               0.000000000               0.000138343               0.002635601               0.000033510              -0.000277571               0.000971048               0.000693478               0.000000000               0.000000000               0.000000000               0.000000000               0.000101347               0.002648199               0.000025306              -0.000293019               0.000980397               0.000687378               0.000000000               0.000000000               0.000000000               0.000000000               0.000065435               0.002662921               0.000019458              -0.000308326               0.000990407               0.000682081               0.000000000               0.000000000               0.000000000               0.000000000               0.000038844               0.002673125               0.000010614              -0.000319573               0.000997557               0.000677984               0.000000000               0.000000000               0.000000000               0.000000000               0.000017890               0.002676624               0.000002619              -0.000327868               0.001001488               0.000673620               0.000000000               0.000000000               0.000000000               0.000000000               0.000009688               0.002681170               0.000001308              -0.000331513               0.001004219               0.000672706               0.000000000               0.000000000               0.000000000               0.000000000               0.000899327               0.003465565               0.001324864              -0.000095949               0.001187160               0.001091210               0.000000000               0.000000000               0.000000000               0.000000000               0.000637857               0.003104844               0.000901406              -0.000148910               0.001084574               0.000935665               0.000000000               0.000000000               0.000000000               0.000000000               0.000500274               0.002933686               0.000470805              -0.000179108               0.001037588               0.000858480               0.000000000               0.000000000               0.000000000               0.000000000               0.000415491               0.002816659               0.000280939              -0.000196273               0.001004301               0.000808028               0.000000000               0.000000000               0.000000000               0.000000000               0.000355994               0.002734845               0.000187958              -0.000208357               0.000981058               0.000772701               0.000000000               0.000000000               0.000000000               0.000000000               0.000306358               0.002677719               0.000140441              -0.000219830               0.000965841               0.000746011               0.000000000               0.000000000               0.000000000               0.000000000               0.000264169               0.002641914               0.000114057              -0.000231175               0.000957688               0.000726512               0.000000000               0.000000000               0.000000000               0.000000000               0.000229113               0.002621399               0.000096323              -0.000241757               0.000954377               0.000712620               0.000000000               0.000000000               0.000000000               0.000000000               0.000197223               0.002608705               0.000083004              -0.000252129               0.000953603               0.000701474               0.000000000               0.000000000               0.000000000               0.000000000               0.000167708               0.002604030               0.000072580              -0.000262613               0.000955539               0.000692926               0.000000000               0.000000000               0.000000000               0.000000000               0.000138254               0.002607498               0.000064249              -0.000274091               0.000960521               0.000686430               0.000000000               0.000000000               0.000000000               0.000000000               0.000107463               0.002616797               0.000052354              -0.000286800               0.000967857               0.000681057               0.000000000               0.000000000               0.000000000               0.000000000               0.000077632               0.002627366               0.000037308              -0.000299308               0.000975549               0.000676241               0.000000000               0.000000000               0.000000000               0.000000000               0.000050794               0.002637520               0.000028368              -0.000310641               0.000982712               0.000672070               0.000000000               0.000000000               0.000000000               0.000000000               0.000030349               0.002639448               0.000022296              -0.000318549               0.000985990               0.000667441               0.000000000               0.000000000               0.000000000               0.000000000               0.000014613               0.002636192               0.000011502              -0.000324043               0.000986736               0.000662693               0.000000000               0.000000000               0.000000000               0.000000000               0.000009007               0.002637710               0.000005595              -0.000326335               0.000988006               0.000661671               0.000000000               0.000000000               0.000000000               0.000000000               0.000967952               0.002957033               0.001340895              -0.000006649               0.000987884               0.000981235               0.000000000               0.000000000               0.000000000               0.000000000               0.000646459               0.002769890               0.000939918              -0.000103815               0.000957892               0.000854077               0.000000000               0.000000000               0.000000000               0.000000000               0.000438862               0.002758838               0.000527928              -0.000180281               0.000979697               0.000799416               0.000000000               0.000000000               0.000000000               0.000000000               0.000344002               0.002709376               0.000345116              -0.000209671               0.000973006               0.000763336               0.000000000               0.000000000               0.000000000               0.000000000               0.000288721               0.002659973               0.000250997              -0.000224226               0.000961391               0.000737165               0.000000000               0.000000000               0.000000000               0.000000000               0.000248173               0.002623899               0.000198133              -0.000234922               0.000952932               0.000718010               0.000000000               0.000000000               0.000000000               0.000000000               0.000215676               0.002600182               0.000162854              -0.000244144               0.000948100               0.000703956               0.000000000               0.000000000               0.000000000               0.000000000               0.000190962               0.002586389               0.000136258              -0.000251687               0.000946017               0.000694330               0.000000000               0.000000000               0.000000000               0.000000000               0.000166289               0.002576952               0.000114427              -0.000259760               0.000945562               0.000685802               0.000000000               0.000000000               0.000000000               0.000000000               0.000139878               0.002576364               0.000095346              -0.000269591               0.000948643               0.000679052               0.000000000               0.000000000               0.000000000               0.000000000               0.000112365               0.002584732               0.000078043              -0.000280954               0.000955220               0.000674266               0.000000000               0.000000000               0.000000000               0.000000000               0.000083824               0.002599369               0.000059913              -0.000293486               0.000964277               0.000670790               0.000000000               0.000000000               0.000000000               0.000000000               0.000061277               0.002614539               0.000040195              -0.000303838               0.000972784               0.000668946               0.000000000               0.000000000               0.000000000               0.000000000               0.000046951               0.002624411               0.000029915              -0.000310444               0.000978276               0.000667832               0.000000000               0.000000000               0.000000000               0.000000000               0.000033187               0.002628402               0.000026647              -0.000316104               0.000981493               0.000665389               0.000000000               0.000000000               0.000000000               0.000000000               0.000016855               0.002634387               0.000015633              -0.000322977               0.000985779               0.000662802               0.000000000               0.000000000               0.000000000               0.000000000               0.000010912               0.002642698               0.000009219              -0.000326244               0.000989639               0.000663394               0.000000000               0.000000000               0.000000000               0.000000000               0.000995524               0.002466777               0.001283372               0.000064972               0.000800593               0.000865565               0.000000000               0.000000000               0.000000000               0.000000000               0.000639546               0.002456148               0.000941425              -0.000067190               0.000841104               0.000773914               0.000000000               0.000000000               0.000000000               0.000000000               0.000386683               0.002589824               0.000578929              -0.000178722               0.000922840               0.000744118               0.000000000               0.000000000               0.000000000               0.000000000               0.000290898               0.002596811               0.000406398              -0.000215514               0.000937433               0.000721919               0.000000000               0.000000000               0.000000000               0.000000000               0.000241382               0.002580232               0.000308944              -0.000232010               0.000937405               0.000705395               0.000000000               0.000000000               0.000000000               0.000000000               0.000210020               0.002564771               0.000247184              -0.000241838               0.000935528               0.000693689               0.000000000               0.000000000               0.000000000               0.000000000               0.000185430               0.002554097               0.000201977              -0.000249725               0.000934599               0.000684874               0.000000000               0.000000000               0.000000000               0.000000000               0.000165302               0.002546926               0.000166043              -0.000256377               0.000934426               0.000678049               0.000000000               0.000000000               0.000000000               0.000000000               0.000144293               0.002546666               0.000135444              -0.000264223               0.000936954               0.000672732               0.000000000               0.000000000               0.000000000               0.000000000               0.000121864               0.002557621               0.000106103              -0.000274003               0.000943866               0.000669863               0.000000000               0.000000000               0.000000000               0.000000000               0.000098464               0.002578148               0.000079499              -0.000285344               0.000954489               0.000669145               0.000000000               0.000000000               0.000000000               0.000000000               0.000076191               0.002602224               0.000056155              -0.000296706               0.000966301               0.000669595               0.000000000               0.000000000               0.000000000               0.000000000               0.000062114               0.002622898               0.000038043              -0.000304569               0.000975813               0.000671245               0.000000000               0.000000000               0.000000000               0.000000000               0.000053109               0.002637088               0.000030567              -0.000309719               0.000982260               0.000672541               0.000000000               0.000000000               0.000000000               0.000000000               0.000040477               0.002654400               0.000027657              -0.000316620               0.000990331               0.000673711               0.000000000               0.000000000               0.000000000               0.000000000               0.000021048               0.002675035               0.000017657              -0.000326486               0.001000498               0.000674012               0.000000000               0.000000000               0.000000000               0.000000000               0.000012231               0.002688743               0.000011802              -0.000331506               0.001006741               0.000675235               0.000000000               0.000000000               0.000000000               0.000000000               0.001000333               0.002033892               0.001175770               0.000120886               0.000637661               0.000758547               0.000000000               0.000000000               0.000000000               0.000000000               0.000638805               0.002174283               0.000924917              -0.000032235               0.000735499               0.000703264               0.000000000               0.000000000               0.000000000               0.000000000               0.000362059               0.002431587               0.000637217              -0.000168177               0.000866580               0.000698403               0.000000000               0.000000000               0.000000000               0.000000000               0.000267556               0.002495548               0.000471750              -0.000211610               0.000902378               0.000690768               0.000000000               0.000000000               0.000000000               0.000000000               0.000221940               0.002513045               0.000368042              -0.000230903               0.000914641               0.000683738               0.000000000               0.000000000               0.000000000               0.000000000               0.000194143               0.002519406               0.000296373              -0.000242122               0.000920501               0.000678379               0.000000000               0.000000000               0.000000000               0.000000000               0.000177488               0.002523956               0.000242352              -0.000248936               0.000924289               0.000675353               0.000000000               0.000000000               0.000000000               0.000000000               0.000160834               0.002527332               0.000197808              -0.000255603               0.000927637               0.000672033               0.000000000               0.000000000               0.000000000               0.000000000               0.000142682               0.002540419               0.000157623              -0.000264046               0.000934813               0.000670767               0.000000000               0.000000000               0.000000000               0.000000000               0.000123206               0.002565807               0.000119759              -0.000274523               0.000946768               0.000672245               0.000000000               0.000000000               0.000000000               0.000000000               0.000104285               0.002597362               0.000088454              -0.000285562               0.000960966               0.000675404               0.000000000               0.000000000               0.000000000               0.000000000               0.000086163               0.002624890               0.000064344              -0.000295799               0.000973554               0.000677755               0.000000000               0.000000000               0.000000000               0.000000000               0.000077343               0.002647470               0.000046314              -0.000301929               0.000983124               0.000681195               0.000000000               0.000000000               0.000000000               0.000000000               0.000071121               0.002670719               0.000033571              -0.000307169               0.000992620               0.000685451               0.000000000               0.000000000               0.000000000               0.000000000               0.000056955               0.002701741               0.000025445              -0.000316359               0.001006024               0.000689665               0.000000000               0.000000000               0.000000000               0.000000000               0.000036238               0.002735862               0.000016845              -0.000328393               0.001021409               0.000693017               0.000000000               0.000000000               0.000000000               0.000000000               0.000022429               0.002753062               0.000011221              -0.000335721               0.001029585               0.000693864               0.000000000               0.000000000               0.000000000               0.000000000               0.000973780               0.001609095               0.001043595               0.000164028               0.000481683               0.000645711               0.000000000               0.000000000               0.000000000               0.000000000               0.000653165               0.001839718               0.000900541               0.000014971               0.000608243               0.000623213               0.000000000               0.000000000               0.000000000               0.000000000               0.000379116               0.002188675               0.000706524              -0.000131416               0.000773356               0.000641940               0.000000000               0.000000000               0.000000000               0.000000000               0.000279623               0.002321713               0.000553360              -0.000185355               0.000835681               0.000650326               0.000000000               0.000000000               0.000000000               0.000000000               0.000232923               0.002385571               0.000443018              -0.000210850               0.000865466               0.000654616               0.000000000               0.000000000               0.000000000               0.000000000               0.000202121               0.002424601               0.000362069              -0.000227279               0.000883952               0.000656673               0.000000000               0.000000000               0.000000000               0.000000000               0.000185562               0.002451632               0.000300829              -0.000236868               0.000896159               0.000659291               0.000000000               0.000000000               0.000000000               0.000000000               0.000171256               0.002473489               0.000247710              -0.000244964               0.000906143               0.000661178               0.000000000               0.000000000               0.000000000               0.000000000               0.000154997               0.002498528               0.000200440              -0.000254192               0.000917565               0.000663373               0.000000000               0.000000000               0.000000000               0.000000000               0.000138589               0.002532690               0.000159849              -0.000264615               0.000932426               0.000667812               0.000000000               0.000000000               0.000000000               0.000000000               0.000124675               0.002573063               0.000126508              -0.000274879               0.000949305               0.000674426               0.000000000               0.000000000               0.000000000               0.000000000               0.000111477               0.002614096               0.000099644              -0.000284957               0.000966342               0.000681385               0.000000000               0.000000000               0.000000000               0.000000000               0.000100504               0.002654386               0.000074824              -0.000294108               0.000982823               0.000688714               0.000000000               0.000000000               0.000000000               0.000000000               0.000091612               0.002693275               0.000050194              -0.000302304               0.000998517               0.000696213               0.000000000               0.000000000               0.000000000               0.000000000               0.000077108               0.002729035               0.000030367              -0.000312213               0.001013740               0.000701527               0.000000000               0.000000000               0.000000000               0.000000000               0.000057865               0.002771140               0.000014651              -0.000324692               0.001031935               0.000707242               0.000000000               0.000000000               0.000000000               0.000000000               0.000041163               0.002791735               0.000004249              -0.000333530               0.001041746               0.000708216               0.000000000               0.000000000               0.000000000               0.000000000               0.000897486               0.001203025               0.000887010               0.000186177               0.000338945               0.000525122               0.000000000               0.000000000               0.000000000               0.000000000               0.000668521               0.001500255               0.000851714               0.000063162               0.000479026               0.000542188               0.000000000               0.000000000               0.000000000               0.000000000               0.000431127               0.001911826               0.000757938              -0.000077306               0.000663037               0.000585731               0.000000000               0.000000000               0.000000000               0.000000000               0.000328256               0.002109818               0.000631052              -0.000140632               0.000750143               0.000609511               0.000000000               0.000000000               0.000000000               0.000000000               0.000273342               0.002225159               0.000521465              -0.000175641               0.000800259               0.000624618               0.000000000               0.000000000               0.000000000               0.000000000               0.000238132               0.002302987               0.000436372              -0.000198573               0.000833846               0.000635272               0.000000000               0.000000000               0.000000000               0.000000000               0.000214220               0.002360739               0.000368535              -0.000214760               0.000858492               0.000643732               0.000000000               0.000000000               0.000000000               0.000000000               0.000198926               0.002406937               0.000308792              -0.000226270               0.000877728               0.000651458               0.000000000               0.000000000               0.000000000               0.000000000               0.000183752               0.002445859               0.000257873              -0.000236825               0.000894220               0.000657395               0.000000000               0.000000000               0.000000000               0.000000000               0.000170822               0.002486442               0.000217090              -0.000246746               0.000911055               0.000664308               0.000000000               0.000000000               0.000000000               0.000000000               0.000159911               0.002535164               0.000181765              -0.000256928               0.000930689               0.000673761               0.000000000               0.000000000               0.000000000               0.000000000               0.000147783               0.002589745               0.000148667              -0.000268299               0.000952673               0.000684374               0.000000000               0.000000000               0.000000000               0.000000000               0.000132719               0.002647527               0.000115668              -0.000281171               0.000976224               0.000695053               0.000000000               0.000000000               0.000000000               0.000000000               0.000118989               0.002702876               0.000081980              -0.000293238               0.000998695               0.000705458               0.000000000               0.000000000               0.000000000               0.000000000               0.000101799               0.002744764               0.000050740              -0.000304920               0.001016552               0.000711632               0.000000000               0.000000000               0.000000000               0.000000000               0.000078270               0.002782311               0.000024151              -0.000318437               0.001033573               0.000715137               0.000000000               0.000000000               0.000000000               0.000000000               0.000054569               0.002793160               0.000007166              -0.000328681               0.001040604               0.000711924               0.000000000               0.000000000               0.000000000               0.000000000               0.000773860               0.000837860               0.000708412               0.000185463               0.000217462               0.000402925               0.000000000               0.000000000               0.000000000               0.000000000               0.000663986               0.001168415               0.000764233               0.000102941               0.000355154               0.000458095               0.000000000               0.000000000               0.000000000               0.000000000               0.000498238               0.001601374               0.000760082              -0.000013334               0.000538230               0.000524897               0.000000000               0.000000000               0.000000000               0.000000000               0.000406250               0.001850752               0.000670231              -0.000079001               0.000643245               0.000564244               0.000000000               0.000000000               0.000000000               0.000000000               0.000346801               0.002014678               0.000574114              -0.000121784               0.000712147               0.000590363               0.000000000               0.000000000               0.000000000               0.000000000               0.000305394               0.002135115               0.000491049              -0.000152366               0.000762487               0.000610120               0.000000000               0.000000000               0.000000000               0.000000000               0.000271673               0.002227707               0.000421397              -0.000176586               0.000801423               0.000624838               0.000000000               0.000000000               0.000000000               0.000000000               0.000250051               0.002301707               0.000359559              -0.000193944               0.000831876               0.000637932               0.000000000               0.000000000               0.000000000               0.000000000               0.000233817               0.002362590               0.000307651              -0.000207642               0.000856736               0.000649094               0.000000000               0.000000000               0.000000000               0.000000000               0.000218003               0.002414906               0.000267531              -0.000220112               0.000878331               0.000658220               0.000000000               0.000000000               0.000000000               0.000000000               0.000205447               0.002473473               0.000231335              -0.000232141               0.000901863               0.000669722               0.000000000               0.000000000               0.000000000               0.000000000               0.000194244               0.002542765               0.000193195              -0.000245004               0.000929248               0.000684244               0.000000000               0.000000000               0.000000000               0.000000000               0.000179324               0.002618235               0.000154508              -0.000260032               0.000959414               0.000699381               0.000000000               0.000000000               0.000000000               0.000000000               0.000159816               0.002690293               0.000115204              -0.000276355               0.000988874               0.000712519               0.000000000               0.000000000               0.000000000               0.000000000               0.000135338               0.002747094               0.000076114              -0.000292634               0.001013234               0.000720599               0.000000000               0.000000000               0.000000000               0.000000000               0.000104111               0.002787463               0.000037377              -0.000309390               0.001032275               0.000722885               0.000000000               0.000000000               0.000000000               0.000000000               0.000074385               0.002796067               0.000013295              -0.000321613               0.001039218               0.000717604               0.000000000               0.000000000               0.000000000               0.000000000               0.000617982               0.000540577               0.000526336               0.000164169               0.000125467               0.000289636               0.000000000               0.000000000               0.000000000               0.000000000               0.000639406               0.000863061               0.000643177               0.000131893               0.000243719               0.000375612               0.000000000               0.000000000               0.000000000               0.000000000               0.000569369               0.001281677               0.000705075               0.000053303               0.000409453               0.000462756               0.000000000               0.000000000               0.000000000               0.000000000               0.000503512               0.001562974               0.000653859              -0.000006555               0.000523171               0.000516616               0.000000000               0.000000000               0.000000000               0.000000000               0.000446655               0.001765882               0.000580167              -0.000053240               0.000606368               0.000553128               0.000000000               0.000000000               0.000000000               0.000000000               0.000399269               0.001924840               0.000507095              -0.000090879               0.000671900               0.000581021               0.000000000               0.000000000               0.000000000               0.000000000               0.000359072               0.002053278               0.000442029              -0.000122008               0.000725088               0.000603081               0.000000000               0.000000000               0.000000000               0.000000000               0.000327452               0.002159216               0.000384321              -0.000147107               0.000768767               0.000621660               0.000000000               0.000000000               0.000000000               0.000000000               0.000305735               0.002247528               0.000334518              -0.000166290               0.000804599               0.000638308               0.000000000               0.000000000               0.000000000               0.000000000               0.000281773               0.002320388               0.000294772              -0.000184383               0.000834916               0.000650533               0.000000000               0.000000000               0.000000000               0.000000000               0.000260155               0.002392646               0.000260574              -0.000201522               0.000864715               0.000663193               0.000000000               0.000000000               0.000000000               0.000000000               0.000244241               0.002473127               0.000222470              -0.000217550               0.000896884               0.000679334               0.000000000               0.000000000               0.000000000               0.000000000               0.000230331               0.002562834               0.000179856              -0.000233980               0.000932263               0.000698283               0.000000000               0.000000000               0.000000000               0.000000000               0.000211246               0.002653647               0.000136414              -0.000252488               0.000968703               0.000716215               0.000000000               0.000000000               0.000000000               0.000000000               0.000186348               0.002728069               0.000094876              -0.000271128               0.000999723               0.000728595               0.000000000               0.000000000               0.000000000               0.000000000               0.000154687               0.002780425               0.000051270              -0.000289545               0.001023314               0.000733769               0.000000000               0.000000000               0.000000000               0.000000000               0.000125402               0.002795378               0.000024169              -0.000302396               0.001032582               0.000730186               0.000000000               0.000000000               0.000000000               0.000000000               0.000456235               0.000319745               0.000359523               0.000131119               0.000062874               0.000193993               0.000000000               0.000000000               0.000000000               0.000000000               0.000602597               0.000604589               0.000497307               0.000150399               0.000151394               0.000301793               0.000000000               0.000000000               0.000000000               0.000000000               0.000634961               0.000982673               0.000592297               0.000115275               0.000289129               0.000404404               0.000000000               0.000000000               0.000000000               0.000000000               0.000605479               0.001277602               0.000572767               0.000067353               0.000403412               0.000470765               0.000000000               0.000000000               0.000000000               0.000000000               0.000557393               0.001508875               0.000523201               0.000020412               0.000496149               0.000516561               0.000000000               0.000000000               0.000000000               0.000000000               0.000508372               0.001698066               0.000467981              -0.000021619               0.000573223               0.000551603               0.000000000               0.000000000               0.000000000               0.000000000               0.000461524               0.001858493               0.000414864              -0.000059240               0.000639238               0.000579998               0.000000000               0.000000000               0.000000000               0.000000000               0.000421180               0.001998244               0.000367378              -0.000091838               0.000696687               0.000604849               0.000000000               0.000000000               0.000000000               0.000000000               0.000388121               0.002118723               0.000323676              -0.000119295               0.000745999               0.000626704               0.000000000               0.000000000               0.000000000               0.000000000               0.000356772               0.002219716               0.000286355              -0.000143675               0.000787790               0.000644115               0.000000000               0.000000000               0.000000000               0.000000000               0.000323368               0.002308624               0.000255419              -0.000167315               0.000825305               0.000657990               0.000000000               0.000000000               0.000000000               0.000000000               0.000296124               0.002398276               0.000223720              -0.000188737               0.000862330               0.000673592               0.000000000               0.000000000               0.000000000               0.000000000               0.000281737               0.002498048               0.000185266              -0.000206604               0.000901542               0.000694938               0.000000000               0.000000000               0.000000000               0.000000000               0.000272241               0.002601542               0.000143835              -0.000223102               0.000941539               0.000718437               0.000000000               0.000000000               0.000000000               0.000000000               0.000257467               0.002690598               0.000104152              -0.000239774               0.000976782               0.000737008               0.000000000               0.000000000               0.000000000               0.000000000               0.000234782               0.002762190               0.000058002              -0.000257230               0.001006464               0.000749234               0.000000000               0.000000000               0.000000000               0.000000000               0.000211123               0.002788585               0.000029063              -0.000269401               0.001019319               0.000749918               0.000000000               0.000000000               0.000000000               0.000000000               0.000314054               0.000170775               0.000217715               0.000096422               0.000024783               0.000121206               0.000000000               0.000000000               0.000000000               0.000000000               0.000563268               0.000410059               0.000336612               0.000159966               0.000083363               0.000243329               0.000000000               0.000000000               0.000000000               0.000000000               0.000687104               0.000740268               0.000427085               0.000165129               0.000191711               0.000356839               0.000000000               0.000000000               0.000000000               0.000000000               0.000695654               0.001033803               0.000427088               0.000131643               0.000300716               0.000432360               0.000000000               0.000000000               0.000000000               0.000000000               0.000659745               0.001281481               0.000399905               0.000087218               0.000398083               0.000485302               0.000000000               0.000000000               0.000000000               0.000000000               0.000609836               0.001493899               0.000363869               0.000041951               0.000483978               0.000525928               0.000000000               0.000000000               0.000000000               0.000000000               0.000556779               0.001679015               0.000327841              -0.000001085               0.000560028               0.000558943               0.000000000               0.000000000               0.000000000               0.000000000               0.000508329               0.001845624               0.000294398              -0.000040080               0.000628562               0.000588482               0.000000000               0.000000000               0.000000000               0.000000000               0.000465672               0.001992666               0.000262064              -0.000074456               0.000689034               0.000614578               0.000000000               0.000000000               0.000000000               0.000000000               0.000427254               0.002117512               0.000231115              -0.000104468               0.000740653               0.000636185               0.000000000               0.000000000               0.000000000               0.000000000               0.000387536               0.002227537               0.000204438              -0.000133116               0.000786877               0.000653761               0.000000000               0.000000000               0.000000000               0.000000000               0.000354539               0.002330827               0.000184074              -0.000158401               0.000829735               0.000671334               0.000000000               0.000000000               0.000000000               0.000000000               0.000339018               0.002432987               0.000160262              -0.000176991               0.000869985               0.000692993               0.000000000               0.000000000               0.000000000               0.000000000               0.000336078               0.002539376               0.000126207              -0.000191392               0.000910248               0.000718856               0.000000000               0.000000000               0.000000000               0.000000000               0.000331914               0.002644262               0.000089548              -0.000206064               0.000950100               0.000744035               0.000000000               0.000000000               0.000000000               0.000000000               0.000329927               0.002738034               0.000049406              -0.000218531               0.000985513               0.000766982               0.000000000               0.000000000               0.000000000               0.000000000               0.000326817               0.002777901               0.000025655              -0.000224681               0.001000851               0.000776170               0.000000000               0.000000000               0.000000000               0.000000000               0.000213868               0.000088052               0.000099955               0.000069193               0.000006286               0.000075479               0.000000000               0.000000000               0.000000000               0.000000000               0.000529715               0.000289354               0.000168923               0.000162472               0.000042293               0.000204765               0.000000000               0.000000000               0.000000000               0.000000000               0.000717128               0.000580671               0.000223618               0.000196337               0.000128109               0.000324446               0.000000000               0.000000000               0.000000000               0.000000000               0.000756644               0.000870589               0.000228389               0.000174916               0.000231888               0.000406804               0.000000000               0.000000000               0.000000000               0.000000000               0.000733379               0.001125607               0.000217120               0.000134315               0.000330427               0.000464742               0.000000000               0.000000000               0.000000000               0.000000000               0.000685443               0.001351304               0.000199259               0.000088127               0.000421055               0.000509182               0.000000000               0.000000000               0.000000000               0.000000000               0.000630144               0.001551387               0.000181861               0.000042380               0.000502997               0.000545377               0.000000000               0.000000000               0.000000000               0.000000000               0.000573306               0.001729405               0.000165672              -0.000001186               0.000576858               0.000575672               0.000000000               0.000000000               0.000000000               0.000000000               0.000521430               0.001892435               0.000148220              -0.000041018               0.000644478               0.000603460               0.000000000               0.000000000               0.000000000               0.000000000               0.000476928               0.002038463               0.000128383              -0.000075960               0.000704801               0.000628841               0.000000000               0.000000000               0.000000000               0.000000000               0.000440191               0.002166638               0.000112200              -0.000105758               0.000757458               0.000651700               0.000000000               0.000000000               0.000000000               0.000000000               0.000408521               0.002278435               0.000105828              -0.000131609               0.000803340               0.000671732               0.000000000               0.000000000               0.000000000               0.000000000               0.000384120               0.002382811               0.000097122              -0.000153806               0.000845531               0.000691725               0.000000000               0.000000000               0.000000000               0.000000000               0.000375034               0.002490614               0.000073680              -0.000170689               0.000887093               0.000716404               0.000000000               0.000000000               0.000000000               0.000000000               0.000383130               0.002601746               0.000048841              -0.000181544               0.000927755               0.000746211               0.000000000               0.000000000               0.000000000               0.000000000               0.000406620               0.002710846               0.000028606              -0.000186373               0.000965730               0.000779358               0.000000000               0.000000000               0.000000000               0.000000000               0.000424943               0.002763912               0.000017722              -0.000186135               0.000983340               0.000797205               0.000000000               0.000000000               0.000000000               0.000000000               0.000177449               0.000062825               0.000000000               0.000058690               0.000001378               0.000060068               0.000000000               0.000000000               0.000000000               0.000000000               0.000516142               0.000249514               0.000000000               0.000162362               0.000029050               0.000191412               0.000000000               0.000000000               0.000000000               0.000000000               0.000726081               0.000525515              -0.000000000               0.000206589               0.000106307               0.000312896               0.000000000               0.000000000               0.000000000               0.000000000               0.000776823               0.000812382               0.000000000               0.000189759               0.000207538               0.000397297               0.000000000               0.000000000               0.000000000               0.000000000               0.000759188               0.001067780               0.000000000               0.000151222               0.000305516               0.000456738               0.000000000               0.000000000               0.000000000               0.000000000               0.000715337               0.001299276               0.000000000               0.000105841               0.000397808               0.000503648               0.000000000               0.000000000               0.000000000               0.000000000               0.000661084               0.001507458               0.000000000               0.000059474               0.000482657               0.000542130               0.000000000               0.000000000               0.000000000               0.000000000               0.000600404               0.001687544              -0.000000000               0.000014208               0.000557773               0.000571981               0.000000000               0.000000000               0.000000000               0.000000000               0.000540967               0.001851745              -0.000000000              -0.000028606               0.000626777               0.000598172               0.000000000               0.000000000               0.000000000               0.000000000               0.000494253               0.002008364               0.000000000              -0.000065700               0.000691348               0.000625648               0.000000000               0.000000000               0.000000000               0.000000000               0.000463004               0.002147068               0.000000000              -0.000094757               0.000747268               0.000652511               0.000000000               0.000000000               0.000000000               0.000000000               0.000432601               0.002258888               0.000000000              -0.000120136               0.000793000               0.000672865               0.000000000               0.000000000               0.000000000               0.000000000               0.000398877               0.002364276               0.000000000              -0.000145955               0.000836736               0.000690781               0.000000000               0.000000000               0.000000000               0.000000000               0.000383403               0.002472255              -0.000000000              -0.000165255               0.000879162               0.000713907               0.000000000               0.000000000               0.000000000               0.000000000               0.000399868               0.002581612               0.000000000              -0.000172750               0.000918112               0.000745362               0.000000000               0.000000000               0.000000000               0.000000000               0.000436682               0.002698997               0.000000000              -0.000173619               0.000957529               0.000783911               0.000000000               0.000000000               0.000000000               0.000000000               0.000462679               0.002760189               0.000000000              -0.000171518               0.000977227               0.000805708               0.000000000               0.000000000               0.000000000               0.000000000               0.000428902               0.005060257               0.000000000              -0.000471693               0.001843966               0.001372274               0.000000000               0.000000000               0.000000000               0.000000000               0.000479932               0.004219077              -0.000000000              -0.000347409               0.001522148               0.001174739               0.000000000               0.000000000               0.000000000               0.000000000               0.000676757               0.003537725              -0.000000000              -0.000188432               0.001242040               0.001053609               0.000000000               0.000000000               0.000000000               0.000000000               0.000712684               0.003164970              -0.000000000              -0.000128365               0.001097768               0.000969403               0.000000000               0.000000000               0.000000000               0.000000000               0.000681819               0.002947847               0.000000000              -0.000112799               0.001020205               0.000907407               0.000000000               0.000000000               0.000000000               0.000000000               0.000625512               0.002814308               0.000000000              -0.000117221               0.000977167               0.000859946               0.000000000               0.000000000               0.000000000               0.000000000               0.000560318               0.002735136               0.000000000              -0.000131773               0.000955627               0.000823855               0.000000000               0.000000000               0.000000000               0.000000000               0.000495263               0.002690293               0.000000000              -0.000150563               0.000946943               0.000796380               0.000000000               0.000000000               0.000000000               0.000000000               0.000431864               0.002663996              -0.000000000              -0.000171050               0.000945006               0.000773956               0.000000000               0.000000000               0.000000000               0.000000000               0.000371330               0.002652844               0.000000000              -0.000192356               0.000948391               0.000756035               0.000000000               0.000000000               0.000000000               0.000000000               0.000312875               0.002650113               0.000000000              -0.000213936               0.000954674               0.000740738               0.000000000               0.000000000               0.000000000               0.000000000               0.000257474               0.002656645               0.000000000              -0.000235527               0.000964048               0.000728521               0.000000000               0.000000000               0.000000000               0.000000000               0.000206429               0.002668152               0.000000000              -0.000256107               0.000974744               0.000718637               0.000000000               0.000000000               0.000000000               0.000000000               0.000156599               0.002683486               0.000000000              -0.000276710               0.000986723               0.000710013               0.000000000               0.000000000               0.000000000               0.000000000               0.000104607               0.002703842               0.000000000              -0.000298752               0.001000855               0.000702104               0.000000000               0.000000000               0.000000000               0.000000000               0.000051310               0.002727702              -0.000000000              -0.000321721               0.001016465               0.000694744               0.000000000               0.000000000               0.000000000               0.000000000               0.000026726               0.002744479              -0.000000000              -0.000333037               0.001025829               0.000692793               0.000000000               0.000000000               0.000000000               0.000000000               0.000462427               0.004986610              -0.000392011              -0.000449915               0.001812159               0.001362243               0.000000000               0.000000000               0.000000000               0.000000000               0.000495906               0.004165188              -0.000260217              -0.000334683               0.001499943               0.001165260               0.000000000               0.000000000               0.000000000               0.000000000               0.000671455               0.003509949              -0.000120661              -0.000186948               0.001232287               0.001045339               0.000000000               0.000000000               0.000000000               0.000000000               0.000696992               0.003150677              -0.000052959              -0.000132462               0.001094369               0.000961907               0.000000000               0.000000000               0.000000000               0.000000000               0.000663960               0.002941193              -0.000019703              -0.000118664               0.001019943               0.000901279               0.000000000               0.000000000               0.000000000               0.000000000               0.000607508               0.002815424              -0.000002667              -0.000124112               0.000979836               0.000855724               0.000000000               0.000000000               0.000000000               0.000000000               0.000542656               0.002737997               0.000006901              -0.000138753               0.000958907               0.000820154               0.000000000               0.000000000               0.000000000               0.000000000               0.000476385               0.002691189               0.000010022              -0.000157754               0.000949639               0.000791885               0.000000000               0.000000000               0.000000000               0.000000000               0.000412718               0.002665826               0.000010208              -0.000178459               0.000948086               0.000769627               0.000000000               0.000000000               0.000000000               0.000000000               0.000353909               0.002654615               0.000009292              -0.000199110               0.000951233               0.000752122               0.000000000               0.000000000               0.000000000               0.000000000               0.000298839               0.002652816               0.000008387              -0.000219537               0.000957442               0.000737905               0.000000000               0.000000000               0.000000000               0.000000000               0.000244254               0.002656960               0.000007919              -0.000240524               0.000965819               0.000725295               0.000000000               0.000000000               0.000000000               0.000000000               0.000193611               0.002667407               0.000006040              -0.000260821               0.000976067               0.000715246               0.000000000               0.000000000               0.000000000               0.000000000               0.000146271               0.002682003               0.000006750              -0.000280398               0.000987458               0.000707060               0.000000000               0.000000000               0.000000000               0.000000000               0.000097594               0.002702917               0.000010548              -0.000301266               0.001001385               0.000700119               0.000000000               0.000000000               0.000000000               0.000000000               0.000047945               0.002728017               0.000008894              -0.000323022               0.001017004               0.000693982               0.000000000               0.000000000               0.000000000               0.000000000               0.000026166               0.002747357               0.000004550              -0.000333607               0.001026979               0.000693372               0.000000000               0.000000000               0.000000000               0.000000000               0.000546824               0.004763310              -0.000746448              -0.000390354               0.001717872               0.001327518               0.000000000               0.000000000               0.000000000               0.000000000               0.000531161               0.004003802              -0.000495116              -0.000301289               0.001435017               0.001133728               0.000000000               0.000000000               0.000000000               0.000000000               0.000653214               0.003420463              -0.000232006              -0.000182602               0.001201010               0.001018408               0.000000000               0.000000000               0.000000000               0.000000000               0.000652161               0.003099477              -0.000106510              -0.000142874               0.001080773               0.000937899               0.000000000               0.000000000               0.000000000               0.000000000               0.000608513               0.002912067              -0.000044493              -0.000135816               0.001015951               0.000880136               0.000000000               0.000000000               0.000000000               0.000000000               0.000550884               0.002800433              -0.000014279              -0.000143472               0.000981292               0.000837820               0.000000000               0.000000000               0.000000000               0.000000000               0.000487387               0.002730421              -0.000000252              -0.000158532               0.000962975               0.000804443               0.000000000               0.000000000               0.000000000               0.000000000               0.000422147               0.002685470               0.000006145              -0.000177378               0.000954274               0.000776895               0.000000000               0.000000000               0.000000000               0.000000000               0.000363968               0.002662081               0.000008257              -0.000196272               0.000952775               0.000756504               0.000000000               0.000000000               0.000000000               0.000000000               0.000311230               0.002651396               0.000007182              -0.000214713               0.000955361               0.000740648               0.000000000               0.000000000               0.000000000               0.000000000               0.000259807               0.002648466               0.000005227              -0.000233630               0.000960690               0.000727060               0.000000000               0.000000000               0.000000000               0.000000000               0.000210821               0.002652338               0.000004724              -0.000252484               0.000968265               0.000715781               0.000000000               0.000000000               0.000000000               0.000000000               0.000164779               0.002662707               0.000003306              -0.000271046               0.000977909               0.000706863               0.000000000               0.000000000               0.000000000               0.000000000               0.000121767               0.002678913               0.000005614              -0.000289201               0.000989362               0.000700161               0.000000000               0.000000000               0.000000000               0.000000000               0.000080674               0.002701097               0.000013089              -0.000307384               0.001002818               0.000695434               0.000000000               0.000000000               0.000000000               0.000000000               0.000039505               0.002727359               0.000012006              -0.000326105               0.001017812               0.000691708               0.000000000               0.000000000               0.000000000               0.000000000               0.000022468               0.002749103               0.000006073              -0.000335212               0.001028096               0.000692884               0.000000000               0.000000000               0.000000000               0.000000000               0.000665580               0.004405826              -0.001031633              -0.000301136               0.001568972               0.001267837               0.000000000               0.000000000               0.000000000               0.000000000               0.000573423               0.003749467              -0.000684344              -0.000253650               0.001334360               0.001080710               0.000000000               0.000000000               0.000000000               0.000000000               0.000614966               0.003277410              -0.000326065              -0.000179064               0.001152147               0.000973083               0.000000000               0.000000000               0.000000000               0.000000000               0.000582593               0.003016146              -0.000161299              -0.000158546               0.001058221               0.000899675               0.000000000               0.000000000               0.000000000               0.000000000               0.000528356               0.002862908              -0.000081269              -0.000159730               0.001007536               0.000847807               0.000000000               0.000000000               0.000000000               0.000000000               0.000468708               0.002767973              -0.000041997              -0.000170231               0.000979392               0.000809161               0.000000000               0.000000000               0.000000000               0.000000000               0.000409664               0.002707451              -0.000023610              -0.000184807               0.000964077               0.000779270               0.000000000               0.000000000               0.000000000               0.000000000               0.000352427               0.002670943              -0.000014815              -0.000201707               0.000957541               0.000755834               0.000000000               0.000000000               0.000000000               0.000000000               0.000300488               0.002650666              -0.000011082              -0.000218650               0.000956430               0.000737780               0.000000000               0.000000000               0.000000000               0.000000000               0.000254195               0.002641695              -0.000012444              -0.000234888               0.000958852               0.000723964               0.000000000               0.000000000               0.000000000               0.000000000               0.000211999               0.002639843              -0.000013320              -0.000250480               0.000963432               0.000712952               0.000000000               0.000000000               0.000000000               0.000000000               0.000172352               0.002644632              -0.000010925              -0.000265946               0.000970184               0.000704238               0.000000000               0.000000000               0.000000000               0.000000000               0.000132503               0.002657312              -0.000009363              -0.000282475               0.000979920               0.000697445               0.000000000               0.000000000               0.000000000               0.000000000               0.000093058               0.002675939              -0.000005555              -0.000299595               0.000991836               0.000692241               0.000000000               0.000000000               0.000000000               0.000000000               0.000057513               0.002695051               0.000003513              -0.000315313               0.001003446               0.000688133               0.000000000               0.000000000               0.000000000               0.000000000               0.000027161               0.002714747               0.000006338              -0.000329157               0.001014626               0.000685468               0.000000000               0.000000000               0.000000000               0.000000000               0.000015982               0.002731111               0.000002591              -0.000335395               0.001022159               0.000686765               0.000000000               0.000000000               0.000000000               0.000000000               0.000793614               0.003959373              -0.001225087              -0.000197317               0.001385550               0.001188233               0.000000000               0.000000000               0.000000000               0.000000000               0.000613219               0.003439021              -0.000818686              -0.000199921               0.001212969               0.001013048               0.000000000               0.000000000               0.000000000               0.000000000               0.000561622               0.003109575              -0.000404409              -0.000178089               0.001095878               0.000917789               0.000000000               0.000000000               0.000000000               0.000000000               0.000498245               0.002919461              -0.000219193              -0.000178090               0.001032507               0.000854417               0.000000000               0.000000000               0.000000000               0.000000000               0.000439439               0.002803466              -0.000129541              -0.000185643               0.000996360               0.000810717               0.000000000               0.000000000               0.000000000               0.000000000               0.000383021               0.002727420              -0.000085708              -0.000197294               0.000974895               0.000777601               0.000000000               0.000000000               0.000000000               0.000000000               0.000331664               0.002678418              -0.000063778              -0.000210428               0.000962940               0.000752512               0.000000000               0.000000000               0.000000000               0.000000000               0.000284437               0.002649663              -0.000051654              -0.000224544               0.000958060               0.000733516               0.000000000               0.000000000               0.000000000               0.000000000               0.000240976               0.002633913              -0.000045284              -0.000238873               0.000957586               0.000718714               0.000000000               0.000000000               0.000000000               0.000000000               0.000203921               0.002627196              -0.000042333              -0.000251928               0.000959699               0.000707771               0.000000000               0.000000000               0.000000000               0.000000000               0.000171481               0.002629090              -0.000040431              -0.000264330               0.000964465               0.000700135               0.000000000               0.000000000               0.000000000               0.000000000               0.000138343               0.002635601              -0.000033510              -0.000277571               0.000971048               0.000693478               0.000000000               0.000000000               0.000000000               0.000000000               0.000101347               0.002648199              -0.000025306              -0.000293019               0.000980397               0.000687378               0.000000000               0.000000000               0.000000000               0.000000000               0.000065435               0.002662921              -0.000019458              -0.000308326               0.000990407               0.000682081               0.000000000               0.000000000               0.000000000               0.000000000               0.000038844               0.002673125              -0.000010614              -0.000319573               0.000997557               0.000677984               0.000000000               0.000000000               0.000000000               0.000000000               0.000017890               0.002676624              -0.000002619              -0.000327868               0.001001488               0.000673620               0.000000000               0.000000000               0.000000000               0.000000000               0.000009688               0.002681170              -0.000001308              -0.000331513               0.001004219               0.000672706               0.000000000               0.000000000               0.000000000               0.000000000               0.000899327               0.003465565              -0.001324864              -0.000095949               0.001187160               0.001091210               0.000000000               0.000000000               0.000000000               0.000000000               0.000637857               0.003104844              -0.000901406              -0.000148910               0.001084574               0.000935665               0.000000000               0.000000000               0.000000000               0.000000000               0.000500274               0.002933686              -0.000470805              -0.000179108               0.001037588               0.000858480               0.000000000               0.000000000               0.000000000               0.000000000               0.000415491               0.002816659              -0.000280939              -0.000196273               0.001004301               0.000808028               0.000000000               0.000000000               0.000000000               0.000000000               0.000355994               0.002734845              -0.000187958              -0.000208357               0.000981058               0.000772701               0.000000000               0.000000000               0.000000000               0.000000000               0.000306358               0.002677719              -0.000140441              -0.000219830               0.000965841               0.000746011               0.000000000               0.000000000               0.000000000               0.000000000               0.000264169               0.002641914              -0.000114057              -0.000231175               0.000957688               0.000726512               0.000000000               0.000000000               0.000000000               0.000000000               0.000229113               0.002621399              -0.000096323              -0.000241757               0.000954377               0.000712620               0.000000000               0.000000000               0.000000000               0.000000000               0.000197223               0.002608705              -0.000083004              -0.000252129               0.000953603               0.000701474               0.000000000               0.000000000               0.000000000               0.000000000               0.000167708               0.002604030              -0.000072580              -0.000262613               0.000955539               0.000692926               0.000000000               0.000000000               0.000000000               0.000000000               0.000138254               0.002607498              -0.000064249              -0.000274091               0.000960521               0.000686430               0.000000000               0.000000000               0.000000000               0.000000000               0.000107463               0.002616797              -0.000052354              -0.000286800               0.000967857               0.000681057               0.000000000               0.000000000               0.000000000               0.000000000               0.000077632               0.002627366              -0.000037308              -0.000299308               0.000975549               0.000676241               0.000000000               0.000000000               0.000000000               0.000000000               0.000050794               0.002637520              -0.000028368              -0.000310641               0.000982712               0.000672070               0.000000000               0.000000000               0.000000000               0.000000000               0.000030349               0.002639448              -0.000022296              -0.000318549               0.000985990               0.000667441               0.000000000               0.000000000               0.000000000               0.000000000               0.000014613               0.002636192              -0.000011502              -0.000324043               0.000986736               0.000662693               0.000000000               0.000000000               0.000000000               0.000000000               0.000009007               0.002637710              -0.000005595              -0.000326335               0.000988006               0.000661671               0.000000000               0.000000000               0.000000000               0.000000000               0.000967952               0.002957033              -0.001340895              -0.000006649               0.000987884               0.000981235               0.000000000               0.000000000               0.000000000               0.000000000               0.000646459               0.002769890              -0.000939918              -0.000103815               0.000957892               0.000854077               0.000000000               0.000000000               0.000000000               0.000000000               0.000438862               0.002758838              -0.000527928              -0.000180281               0.000979697               0.000799416               0.000000000               0.000000000               0.000000000               0.000000000               0.000344002               0.002709376              -0.000345116              -0.000209671               0.000973006               0.000763336               0.000000000               0.000000000               0.000000000               0.000000000               0.000288721               0.002659973              -0.000250997              -0.000224226               0.000961391               0.000737165               0.000000000               0.000000000               0.000000000               0.000000000               0.000248173               0.002623899              -0.000198133              -0.000234922               0.000952932               0.000718010               0.000000000               0.000000000               0.000000000               0.000000000               0.000215676               0.002600182              -0.000162854              -0.000244144               0.000948100               0.000703956               0.000000000               0.000000000               0.000000000               0.000000000               0.000190962               0.002586389              -0.000136258              -0.000251687               0.000946017               0.000694330               0.000000000               0.000000000               0.000000000               0.000000000               0.000166289               0.002576952              -0.000114427              -0.000259760               0.000945562               0.000685802               0.000000000               0.000000000               0.000000000               0.000000000               0.000139878               0.002576364              -0.000095346              -0.000269591               0.000948643               0.000679052               0.000000000               0.000000000               0.000000000               0.000000000               0.000112365               0.002584732              -0.000078043              -0.000280954               0.000955220               0.000674266               0.000000000               0.000000000               0.000000000               0.000000000               0.000083824               0.002599369              -0.000059913              -0.000293486               0.000964277               0.000670790               0.000000000               0.000000000               0.000000000               0.000000000               0.000061277               0.002614539              -0.000040195              -0.000303838               0.000972784               0.000668946               0.000000000               0.000000000               0.000000000               0.000000000               0.000046951               0.002624411              -0.000029915              -0.000310444               0.000978276               0.000667832               0.000000000               0.000000000               0.000000000               0.000000000               0.000033187               0.002628402              -0.000026647              -0.000316104               0.000981493               0.000665389               0.000000000               0.000000000               0.000000000               0.000000000               0.000016855               0.002634387              -0.000015633              -0.000322977               0.000985779               0.000662802               0.000000000               0.000000000               0.000000000               0.000000000               0.000010912               0.002642698              -0.000009219              -0.000326244               0.000989639               0.000663394               0.000000000               0.000000000               0.000000000               0.000000000               0.000995524               0.002466777              -0.001283372               0.000064972               0.000800593               0.000865565               0.000000000               0.000000000               0.000000000               0.000000000               0.000639546               0.002456148              -0.000941425              -0.000067190               0.000841104               0.000773914               0.000000000               0.000000000               0.000000000               0.000000000               0.000386683               0.002589824              -0.000578929              -0.000178722               0.000922840               0.000744118               0.000000000               0.000000000               0.000000000               0.000000000               0.000290898               0.002596811              -0.000406398              -0.000215514               0.000937433               0.000721919               0.000000000               0.000000000               0.000000000               0.000000000               0.000241382               0.002580232              -0.000308944              -0.000232010               0.000937405               0.000705395               0.000000000               0.000000000               0.000000000               0.000000000               0.000210020               0.002564771              -0.000247184              -0.000241838               0.000935528               0.000693689               0.000000000               0.000000000               0.000000000               0.000000000               0.000185430               0.002554097              -0.000201977              -0.000249725               0.000934599               0.000684874               0.000000000               0.000000000               0.000000000               0.000000000               0.000165302               0.002546926              -0.000166043              -0.000256377               0.000934426               0.000678049               0.000000000               0.000000000               0.000000000               0.000000000               0.000144293               0.002546666              -0.000135444              -0.000264223               0.000936954               0.000672732               0.000000000               0.000000000               0.000000000               0.000000000               0.000121864               0.002557621              -0.000106103              -0.000274003               0.000943866               0.000669863               0.000000000               0.000000000               0.000000000               0.000000000               0.000098464               0.002578148              -0.000079499              -0.000285344               0.000954489               0.000669145               0.000000000               0.000000000               0.000000000               0.000000000               0.000076191               0.002602224              -0.000056155              -0.000296706               0.000966301               0.000669595               0.000000000               0.000000000               0.000000000               0.000000000               0.000062114               0.002622898              -0.000038043              -0.000304569               0.000975813               0.000671245               0.000000000               0.000000000               0.000000000               0.000000000               0.000053109               0.002637088              -0.000030567              -0.000309719               0.000982260               0.000672541               0.000000000               0.000000000               0.000000000               0.000000000               0.000040477               0.002654400              -0.000027657              -0.000316620               0.000990331               0.000673711               0.000000000               0.000000000               0.000000000               0.000000000               0.000021048               0.002675035              -0.000017657              -0.000326486               0.001000498               0.000674012               0.000000000               0.000000000               0.000000000               0.000000000               0.000012231               0.002688743              -0.000011802              -0.000331506               0.001006741               0.000675235               0.000000000               0.000000000               0.000000000               0.000000000               0.001000333               0.002033892              -0.001175770               0.000120886               0.000637661               0.000758547               0.000000000               0.000000000               0.000000000               0.000000000               0.000638805               0.002174283              -0.000924917              -0.000032235               0.000735499               0.000703264               0.000000000               0.000000000               0.000000000               0.000000000               0.000362059               0.002431587              -0.000637217              -0.000168177               0.000866580               0.000698403               0.000000000               0.000000000               0.000000000               0.000000000               0.000267556               0.002495548              -0.000471750              -0.000211610               0.000902378               0.000690768               0.000000000               0.000000000               0.000000000               0.000000000               0.000221940               0.002513045              -0.000368042              -0.000230903               0.000914641               0.000683738               0.000000000               0.000000000               0.000000000               0.000000000               0.000194143               0.002519406              -0.000296373              -0.000242122               0.000920501               0.000678379               0.000000000               0.000000000               0.000000000               0.000000000               0.000177488               0.002523956              -0.000242352              -0.000248936               0.000924289               0.000675353               0.000000000               0.000000000               0.000000000               0.000000000               0.000160834               0.002527332              -0.000197808              -0.000255603               0.000927637               0.000672033               0.000000000               0.000000000               0.000000000               0.000000000               0.000142682               0.002540419              -0.000157623              -0.000264046               0.000934813               0.000670767               0.000000000               0.000000000               0.000000000               0.000000000               0.000123206               0.002565807              -0.000119759              -0.000274523               0.000946768               0.000672245               0.000000000               0.000000000               0.000000000               0.000000000               0.000104285               0.002597362              -0.000088454              -0.000285562               0.000960966               0.000675404               0.000000000               0.000000000               0.000000000               0.000000000               0.000086163               0.002624890              -0.000064344              -0.000295799               0.000973554               0.000677755               0.000000000               0.000000000               0.000000000               0.000000000               0.000077343               0.002647470              -0.000046314              -0.000301929               0.000983124               0.000681195               0.000000000               0.000000000               0.000000000               0.000000000               0.000071121               0.002670719              -0.000033571              -0.000307169               0.000992620               0.000685451               0.000000000               0.000000000               0.000000000               0.000000000               0.000056955               0.002701741              -0.000025445              -0.000316359               0.001006024               0.000689665               0.000000000               0.000000000               0.000000000               0.000000000               0.000036238               0.002735862              -0.000016845              -0.000328393               0.001021409               0.000693017               0.000000000               0.000000000               0.000000000               0.000000000               0.000022429               0.002753062              -0.000011221              -0.000335721               0.001029585               0.000693864               0.000000000               0.000000000               0.000000000               0.000000000               0.000973780               0.001609095              -0.001043595               0.000164028               0.000481683               0.000645711               0.000000000               0.000000000               0.000000000               0.000000000               0.000653165               0.001839718              -0.000900541               0.000014971               0.000608243               0.000623213               0.000000000               0.000000000               0.000000000               0.000000000               0.000379116               0.002188675              -0.000706524              -0.000131416               0.000773356               0.000641940               0.000000000               0.000000000               0.000000000               0.000000000               0.000279623               0.002321713              -0.000553360              -0.000185355               0.000835681               0.000650326               0.000000000               0.000000000               0.000000000               0.000000000               0.000232923               0.002385571              -0.000443018              -0.000210850               0.000865466               0.000654616               0.000000000               0.000000000               0.000000000               0.000000000               0.000202121               0.002424601              -0.000362069              -0.000227279               0.000883952               0.000656673               0.000000000               0.000000000               0.000000000               0.000000000               0.000185562               0.002451632              -0.000300829              -0.000236868               0.000896159               0.000659291               0.000000000               0.000000000               0.000000000               0.000000000               0.000171256               0.002473489              -0.000247710              -0.000244964               0.000906143               0.000661178               0.000000000               0.000000000               0.000000000               0.000000000               0.000154997               0.002498528              -0.000200440              -0.000254192               0.000917565               0.000663373               0.000000000               0.000000000               0.000000000               0.000000000               0.000138589               0.002532690              -0.000159849              -0.000264615               0.000932426               0.000667812               0.000000000               0.000000000               0.000000000               0.000000000               0.000124675               0.002573063              -0.000126508              -0.000274879               0.000949305               0.000674426               0.000000000               0.000000000               0.000000000               0.000000000               0.000111477               0.002614096              -0.000099644              -0.000284957               0.000966342               0.000681385               0.000000000               0.000000000               0.000000000               0.000000000               0.000100504               0.002654386              -0.000074824              -0.000294108               0.000982823               0.000688714               0.000000000               0.000000000               0.000000000               0.000000000               0.000091612               0.002693275              -0.000050194              -0.000302304               0.000998517               0.000696213               0.000000000               0.000000000               0.000000000               0.000000000               0.000077108               0.002729035              -0.000030367              -0.000312213               0.001013740               0.000701527               0.000000000               0.000000000               0.000000000               0.000000000               0.000057865               0.002771140              -0.000014651              -0.000324692               0.001031935               0.000707242               0.000000000               0.000000000               0.000000000               0.000000000               0.000041163               0.002791735              -0.000004249              -0.000333530               0.001041746               0.000708216               0.000000000               0.000000000               0.000000000               0.000000000               0.000897486               0.001203025              -0.000887010               0.000186177               0.000338945               0.000525122               0.000000000               0.000000000               0.000000000               0.000000000               0.000668521               0.001500255              -0.000851714               0.000063162               0.000479026               0.000542188               0.000000000               0.000000000               0.000000000               0.000000000               0.000431127               0.001911826              -0.000757938              -0.000077306               0.000663037               0.000585731               0.000000000               0.000000000               0.000000000               0.000000000               0.000328256               0.002109818              -0.000631052              -0.000140632               0.000750143               0.000609511               0.000000000               0.000000000               0.000000000               0.000000000               0.000273342               0.002225159              -0.000521465              -0.000175641               0.000800259               0.000624618               0.000000000               0.000000000               0.000000000               0.000000000               0.000238132               0.002302987              -0.000436372              -0.000198573               0.000833846               0.000635272               0.000000000               0.000000000               0.000000000               0.000000000               0.000214220               0.002360739              -0.000368535              -0.000214760               0.000858492               0.000643732               0.000000000               0.000000000               0.000000000               0.000000000               0.000198926               0.002406937              -0.000308792              -0.000226270               0.000877728               0.000651458               0.000000000               0.000000000               0.000000000               0.000000000               0.000183752               0.002445859              -0.000257873              -0.000236825               0.000894220               0.000657395               0.000000000               0.000000000               0.000000000               0.000000000               0.000170822               0.002486442              -0.000217090              -0.000246746               0.000911055               0.000664308               0.000000000               0.000000000               0.000000000               0.000000000               0.000159911               0.002535164              -0.000181765              -0.000256928               0.000930689               0.000673761               0.000000000               0.000000000               0.000000000               0.000000000               0.000147783               0.002589745              -0.000148667              -0.000268299               0.000952673               0.000684374               0.000000000               0.000000000               0.000000000               0.000000000               0.000132719               0.002647527              -0.000115668              -0.000281171               0.000976224               0.000695053               0.000000000               0.000000000               0.000000000               0.000000000               0.000118989               0.002702876              -0.000081980              -0.000293238               0.000998695               0.000705458               0.000000000               0.000000000               0.000000000               0.000000000               0.000101799               0.002744764              -0.000050740              -0.000304920               0.001016552               0.000711632               0.000000000               0.000000000               0.000000000               0.000000000               0.000078270               0.002782311              -0.000024151              -0.000318437               0.001033573               0.000715137               0.000000000               0.000000000               0.000000000               0.000000000               0.000054569               0.002793160              -0.000007166              -0.000328681               0.001040604               0.000711924               0.000000000               0.000000000               0.000000000               0.000000000               0.000773860               0.000837860              -0.000708412               0.000185463               0.000217462               0.000402925               0.000000000               0.000000000               0.000000000               0.000000000               0.000663986               0.001168415              -0.000764233               0.000102941               0.000355154               0.000458095               0.000000000               0.000000000               0.000000000               0.000000000               0.000498238               0.001601374              -0.000760082              -0.000013334               0.000538230               0.000524897               0.000000000               0.000000000               0.000000000               0.000000000               0.000406250               0.001850752              -0.000670231              -0.000079001               0.000643245               0.000564244               0.000000000               0.000000000               0.000000000               0.000000000               0.000346801               0.002014678              -0.000574114              -0.000121784               0.000712147               0.000590363               0.000000000               0.000000000               0.000000000               0.000000000               0.000305394               0.002135115              -0.000491049              -0.000152366               0.000762487               0.000610120               0.000000000               0.000000000               0.000000000               0.000000000               0.000271673               0.002227707              -0.000421397              -0.000176586               0.000801423               0.000624838               0.000000000               0.000000000               0.000000000               0.000000000               0.000250051               0.002301707              -0.000359559              -0.000193944               0.000831876               0.000637932               0.000000000               0.000000000               0.000000000               0.000000000               0.000233817               0.002362590              -0.000307651              -0.000207642               0.000856736               0.000649094               0.000000000               0.000000000               0.000000000               0.000000000               0.000218003               0.002414906              -0.000267531              -0.000220112               0.000878331               0.000658220               0.000000000               0.000000000               0.000000000               0.000000000               0.000205447               0.002473473              -0.000231335              -0.000232141               0.000901863               0.000669722               0.000000000               0.000000000               0.000000000               0.000000000               0.000194244               0.002542765              -0.000193195              -0.000245004               0.000929248               0.000684244               0.000000000               0.000000000               0.000000000               0.000000000               0.000179324               0.002618235              -0.000154508              -0.000260032               0.000959414               0.000699381               0.000000000               0.000000000               0.000000000               0.000000000               0.000159816               0.002690293              -0.000115204              -0.000276355               0.000988874               0.000712519               0.000000000               0.000000000               0.000000000               0.000000000               0.000135338               0.002747094              -0.000076114              -0.000292634               0.001013234               0.000720599               0.000000000               0.000000000               0.000000000               0.000000000               0.000104111               0.002787463              -0.000037377              -0.000309390               0.001032275               0.000722885               0.000000000               0.000000000               0.000000000               0.000000000               0.000074385               0.002796067              -0.000013295              -0.000321613               0.001039218               0.000717604               0.000000000               0.000000000               0.000000000               0.000000000               0.000617982               0.000540577              -0.000526336               0.000164169               0.000125467               0.000289636               0.000000000               0.000000000               0.000000000               0.000000000               0.000639406               0.000863061              -0.000643177               0.000131893               0.000243719               0.000375612               0.000000000               0.000000000               0.000000000               0.000000000               0.000569369               0.001281677              -0.000705075               0.000053303               0.000409453               0.000462756               0.000000000               0.000000000               0.000000000               0.000000000               0.000503512               0.001562974              -0.000653859              -0.000006555               0.000523171               0.000516616               0.000000000               0.000000000               0.000000000               0.000000000               0.000446655               0.001765882              -0.000580167              -0.000053240               0.000606368               0.000553128               0.000000000               0.000000000               0.000000000               0.000000000               0.000399269               0.001924840              -0.000507095              -0.000090879               0.000671900               0.000581021               0.000000000               0.000000000               0.000000000               0.000000000               0.000359072               0.002053278              -0.000442029              -0.000122008               0.000725088               0.000603081               0.000000000               0.000000000               0.000000000               0.000000000               0.000327452               0.002159216              -0.000384321              -0.000147107               0.000768767               0.000621660               0.000000000               0.000000000               0.000000000               0.000000000               0.000305735               0.002247528              -0.000334518              -0.000166290               0.000804599               0.000638308               0.000000000               0.000000000               0.000000000               0.000000000               0.000281773               0.002320388              -0.000294772              -0.000184383               0.000834916               0.000650533               0.000000000               0.000000000               0.000000000               0.000000000               0.000260155               0.002392646              -0.000260574              -0.000201522               0.000864715               0.000663193               0.000000000               0.000000000               0.000000000               0.000000000               0.000244241               0.002473127              -0.000222470              -0.000217550               0.000896884               0.000679334               0.000000000               0.000000000               0.000000000               0.000000000               0.000230331               0.002562834              -0.000179856              -0.000233980               0.000932263               0.000698283               0.000000000               0.000000000               0.000000000               0.000000000               0.000211246               0.002653647              -0.000136414              -0.000252488               0.000968703               0.000716215               0.000000000               0.000000000               0.000000000               0.000000000               0.000186348               0.002728069              -0.000094876              -0.000271128               0.000999723               0.000728595               0.000000000               0.000000000               0.000000000               0.000000000               0.000154687               0.002780425              -0.000051270              -0.000289545               0.001023314               0.000733769               0.000000000               0.000000000               0.000000000               0.000000000               0.000125402               0.002795378              -0.000024169              -0.000302396               0.001032582               0.000730186               0.000000000               0.000000000               0.000000000               0.000000000               0.000456235               0.000319745              -0.000359523               0.000131119               0.000062874               0.000193993               0.000000000               0.000000000               0.000000000               0.000000000               0.000602597               0.000604589              -0.000497307               0.000150399               0.000151394               0.000301793               0.000000000               0.000000000               0.000000000               0.000000000               0.000634961               0.000982673              -0.000592297               0.000115275               0.000289129               0.000404404               0.000000000               0.000000000               0.000000000               0.000000000               0.000605479               0.001277602              -0.000572767               0.000067353               0.000403412               0.000470765               0.000000000               0.000000000               0.000000000               0.000000000               0.000557393               0.001508875              -0.000523201               0.000020412               0.000496149               0.000516561               0.000000000               0.000000000               0.000000000               0.000000000               0.000508372               0.001698066              -0.000467981              -0.000021619               0.000573223               0.000551603               0.000000000               0.000000000               0.000000000               0.000000000               0.000461524               0.001858493              -0.000414864              -0.000059240               0.000639238               0.000579998               0.000000000               0.000000000               0.000000000               0.000000000               0.000421180               0.001998244              -0.000367378              -0.000091838               0.000696687               0.000604849               0.000000000               0.000000000               0.000000000               0.000000000               0.000388121               0.002118723              -0.000323676              -0.000119295               0.000745999               0.000626704               0.000000000               0.000000000               0.000000000               0.000000000               0.000356772               0.002219716              -0.000286355              -0.000143675               0.000787790               0.000644115               0.000000000               0.000000000               0.000000000               0.000000000               0.000323368               0.002308624              -0.000255419              -0.000167315               0.000825305               0.000657990               0.000000000               0.000000000               0.000000000               0.000000000               0.000296124               0.002398276              -0.000223720              -0.000188737               0.000862330               0.000673592               0.000000000               0.000000000               0.000000000               0.000000000               0.000281737               0.002498048              -0.000185266              -0.000206604               0.000901542               0.000694938               0.000000000               0.000000000               0.000000000               0.000000000               0.000272241               0.002601542              -0.000143835              -0.000223102               0.000941539               0.000718437               0.000000000               0.000000000               0.000000000               0.000000000               0.000257467               0.002690598              -0.000104152              -0.000239774               0.000976782               0.000737008               0.000000000               0.000000000               0.000000000               0.000000000               0.000234782               0.002762190              -0.000058002              -0.000257230               0.001006464               0.000749234               0.000000000               0.000000000               0.000000000               0.000000000               0.000211123               0.002788585              -0.000029063              -0.000269401               0.001019319               0.000749918               0.000000000               0.000000000               0.000000000               0.000000000               0.000314054               0.000170775              -0.000217715               0.000096422               0.000024783               0.000121206               0.000000000               0.000000000               0.000000000               0.000000000               0.000563268               0.000410059              -0.000336612               0.000159966               0.000083363               0.000243329               0.000000000               0.000000000               0.000000000               0.000000000               0.000687104               0.000740268              -0.000427085               0.000165129               0.000191711               0.000356839               0.000000000               0.000000000               0.000000000               0.000000000               0.000695654               0.001033803              -0.000427088               0.000131643               0.000300716               0.000432360               0.000000000               0.000000000               0.000000000               0.000000000               0.000659745               0.001281481              -0.000399905               0.000087218               0.000398083               0.000485302               0.000000000               0.000000000               0.000000000               0.000000000               0.000609836               0.001493899              -0.000363869               0.000041951               0.000483978               0.000525928               0.000000000               0.000000000               0.000000000               0.000000000               0.000556779               0.001679015              -0.000327841              -0.000001085               0.000560028               0.000558943               0.000000000               0.000000000               0.000000000               0.000000000               0.000508329               0.001845624              -0.000294398              -0.000040080               0.000628562               0.000588482               0.000000000               0.000000000               0.000000000               0.000000000               0.000465672               0.001992666              -0.000262064              -0.000074456               0.000689034               0.000614578               0.000000000               0.000000000               0.000000000               0.000000000               0.000427254               0.002117512              -0.000231115              -0.000104468               0.000740653               0.000636185               0.000000000               0.000000000               0.000000000               0.000000000               0.000387536               0.002227537              -0.000204438              -0.000133116               0.000786877               0.000653761               0.000000000               0.000000000               0.000000000               0.000000000               0.000354539               0.002330827              -0.000184074              -0.000158401               0.000829735               0.000671334               0.000000000               0.000000000               0.000000000               0.000000000               0.000339018               0.002432987              -0.000160262              -0.000176991               0.000869985               0.000692993               0.000000000               0.000000000               0.000000000               0.000000000               0.000336078               0.002539376              -0.000126207              -0.000191392               0.000910248               0.000718856               0.000000000               0.000000000               0.000000000               0.000000000               0.000331914               0.002644262              -0.000089548              -0.000206064               0.000950100               0.000744035               0.000000000               0.000000000               0.000000000               0.000000000               0.000329927               0.002738034              -0.000049406              -0.000218531               0.000985513               0.000766982               0.000000000               0.000000000               0.000000000               0.000000000               0.000326817               0.002777901              -0.000025655              -0.000224681               0.001000851               0.000776170               0.000000000               0.000000000               0.000000000               0.000000000               0.000213868               0.000088052              -0.000099955               0.000069193               0.000006286               0.000075479               0.000000000               0.000000000               0.000000000               0.000000000               0.000529715               0.000289354              -0.000168923               0.000162472               0.000042293               0.000204765               0.000000000               0.000000000               0.000000000               0.000000000               0.000717128               0.000580671              -0.000223618               0.000196337               0.000128109               0.000324446               0.000000000               0.000000000               0.000000000               0.000000000               0.000756644               0.000870589              -0.000228389               0.000174916               0.000231888               0.000406804               0.000000000               0.000000000               0.000000000               0.000000000               0.000733379               0.001125607              -0.000217120               0.000134315               0.000330427               0.000464742               0.000000000               0.000000000               0.000000000               0.000000000               0.000685443               0.001351304              -0.000199259               0.000088127               0.000421055               0.000509182               0.000000000               0.000000000               0.000000000               0.000000000               0.000630144               0.001551387              -0.000181861               0.000042380               0.000502997               0.000545377               0.000000000               0.000000000               0.000000000               0.000000000               0.000573306               0.001729405              -0.000165672              -0.000001186               0.000576858               0.000575672               0.000000000               0.000000000               0.000000000               0.000000000               0.000521430               0.001892435              -0.000148220              -0.000041018               0.000644478               0.000603460               0.000000000               0.000000000               0.000000000               0.000000000               0.000476928               0.002038463              -0.000128383              -0.000075960               0.000704801               0.000628841               0.000000000               0.000000000               0.000000000               0.000000000               0.000440191               0.002166638              -0.000112200              -0.000105758               0.000757458               0.000651700               0.000000000               0.000000000               0.000000000               0.000000000               0.000408521               0.002278435              -0.000105828              -0.000131609               0.000803340               0.000671732               0.000000000               0.000000000               0.000000000               0.000000000               0.000384120               0.002382811              -0.000097122              -0.000153806               0.000845531               0.000691725               0.000000000               0.000000000               0.000000000               0.000000000               0.000375034               0.002490614              -0.000073680              -0.000170689               0.000887093               0.000716404               0.000000000               0.000000000               0.000000000               0.000000000               0.000383130               0.002601746              -0.000048841              -0.000181544               0.000927755               0.000746211               0.000000000               0.000000000               0.000000000               0.000000000               0.000406620               0.002710846              -0.000028606              -0.000186373               0.000965730               0.000779358               0.000000000               0.000000000               0.000000000               0.000000000               0.000424943               0.002763912              -0.000017722              -0.000186135               0.000983340               0.000797205               0.000000000               0.000000000               0.000000000               0.000000000               0.000000000               0.000000000               0.000000000               0.000000000               0.000000000               0.000000000               0.000000000               0.000000000               0.000000000               0.000000000               0.000000000               0.000000000               0.000000000               0.000000000               0.000000000               0.000000000               0.000000000               0.000000000               0.000000000               0.000000000               0.000000000               0.000000000               0.000000000               0.000000000               0.000000000               0.000000000               0.000000000               0.000000000               0.000000000               0.000000000               0.000000000               0.000000000               0.000000000               0.000000000               0.000000000               0.000000000               0.000000000               0.000000000               0.000000000               0.000000000               0.000000000               0.000000000               0.000000000               0.000000000               0.000000000               0.000000000               0.000000000               0.000000000               0.000000000               0.000000000               0.000000000               0.000000000               0.000000000               0.000000000               0.000000000               0.000000000               0.000000000               0.000000000               0.000000000               0.000000000               0.000000000               0.000000000               0.000000000               0.000000000               0.000000000               0.000000000               0.000000000               0.000000000               0.000000000               0.000000000               0.000000000               0.000000000               0.000000000               0.000000000               0.000000000               0.000000000               0.000000000               0.000000000               0.000000000               0.000000000               0.000000000               0.000000000               0.000000000               0.000000000               0.000000000               0.000000000               0.000000000               0.000000000               0.000000000               0.000000000               0.000000000               0.000000000               0.000000000               0.000000000               0.000000000               0.000000000               0.000000000               0.000000000               0.000000000               0.000000000               0.000000000               0.000000000               0.000000000               0.000000000               0.000000000               0.000000000               0.000000000               0.000000000               0.000000000               0.000000000               0.000000000               0.000000000               0.000000000               0.000000000               0.000000000               0.000000000               0.000000000               0.000000000               0.000000000               0.000000000               0.000000000               0.000000000               0.000000000               0.000000000               0.000000000               0.000000000               0.000000000               0.000000000               0.000000000               0.000000000               0.000000000               0.000000000               0.000000000               0.000000000               0.000000000               0.000000000               0.000000000               0.000000000               0.000000000               0.000000000               0.000000000               0.000000000               0.000000000               0.000000000               0.000000000               0.000000000               0.000000000               0.000000000               0.000000000               0.000000000               0.000000000               0.000000000               0.000000000               0.000000000               0.000000000               0.000000000               0.000000000               0.000000000               0.000000000               0.000000000               0.000000000               0.000000000               0.000000000               0.000000000               0.000000000               0.000000000               0.000000000               0.000000000               0.000000000               0.000000000               0.000000000               0.000000000               0.000000000               0.000000000               0.000000000               0.000000000               0.000000000               0.000000000               0.000000000               0.000000000               0.000000000               0.000000000               0.000000000               0.000000000               0.000000000               0.000000000               0.000000000               0.000000000               0.000000000               0.000000000               0.000000000               0.000000000               0.000000000               0.000000000               0.000000000               0.000000000               0.000000000               0.000000000               0.000000000               0.000000000               0.000000000               0.000000000               0.000000000               0.000000000               0.000000000               0.000000000               0.000000000               0.000000000               0.000000000               0.000000000               0.000000000               0.000000000               0.000000000               0.000000000               0.000000000               0.000000000               0.000000000               0.000000000               0.000000000               0.000000000               0.000000000               0.000000000               0.000000000               0.000000000               0.000000000               0.000000000               0.000000000               0.000000000               0.000000000               0.000000000               0.000000000               0.000000000               0.000000000               0.000000000               0.000000000               0.000000000               0.000000000               0.000000000               0.000000000               0.000000000               0.000000000               0.000000000               0.000000000               0.000000000               0.000000000               0.000000000               0.000000000               0.000000000               0.000000000               0.000000000               0.000000000               0.000000000               0.000000000               0.000000000               0.000000000               0.000000000               0.000000000               0.000000000               0.000000000               0.000000000               0.000000000               0.000000000               0.000000000               0.000000000               0.000000000               0.000000000               0.000000000               0.000000000               0.000000000               0.000000000               0.000000000               0.000000000               0.000000000               0.000000000               0.000000000               0.000000000               0.000000000               0.000000000               0.000000000               0.000000000               0.000000000               0.000000000               0.000000000               0.000000000               0.000000000               0.000000000               0.000000000               0.000000000               0.000000000               0.000000000               0.000000000               0.000000000               0.000000000               0.000000000               0.000000000               0.000000000               0.000000000               0.000000000               0.000000000               0.000000000               0.000000000               0.000000000               0.000000000               0.000000000               0.000000000               0.000000000               0.000000000               0.000000000               0.000000000               0.000000000               0.000000000               0.000000000               0.000000000               0.000000000               0.000000000               0.000000000               0.000000000               0.000000000               0.000000000               0.000000000               0.000000000               0.000000000               0.000000000               0.000000000               0.000000000               0.000000000               0.000000000               0.000000000               0.000000000               0.000000000               0.000000000               0.000000000               0.000000000               0.000000000               0.000000000               0.000000000               0.000000000               0.000000000               0.000000000               0.000000000               0.000462427               0.004986610               0.000392011              -0.000449915               0.001812159               0.001362243               0.000000000               0.000000000               0.000000000               0.000000000               0.000495906               0.004165188               0.000260217              -0.000334683               0.001499943               0.001165260               0.000000000               0.000000000               0.000000000               0.000000000               0.000671455               0.003509949               0.000120661              -0.000186948               0.001232287               0.001045339               0.000000000               0.000000000               0.000000000               0.000000000               0.000696992               0.003150677               0.000052959              -0.000132462               0.001094369               0.000961907               0.000000000               0.000000000               0.000000000               0.000000000               0.000663960               0.002941193               0.000019703              -0.000118664               0.001019943               0.000901279               0.000000000               0.000000000               0.000000000               0.000000000               0.000607508               0.002815424               0.000002667              -0.000124112               0.000979836               0.000855724               0.000000000               0.000000000               0.000000000               0.000000000               0.000542656               0.002737997              -0.000006901              -0.000138753               0.000958907               0.000820154               0.000000000               0.000000000               0.000000000               0.000000000               0.000476385               0.002691189              -0.000010022              -0.000157754               0.000949639               0.000791885               0.000000000               0.000000000               0.000000000               0.000000000               0.000412718               0.002665826              -0.000010208              -0.000178459               0.000948086               0.000769627               0.000000000               0.000000000               0.000000000               0.000000000               0.000353909               0.002654615              -0.000009292              -0.000199110               0.000951233               0.000752122               0.000000000               0.000000000               0.000000000               0.000000000               0.000298839               0.002652816              -0.000008387              -0.000219537               0.000957442               0.000737905               0.000000000               0.000000000               0.000000000               0.000000000               0.000244254               0.002656960              -0.000007919              -0.000240524               0.000965819               0.000725295               0.000000000               0.000000000               0.000000000               0.000000000               0.000193611               0.002667407              -0.000006040              -0.000260821               0.000976067               0.000715246               0.000000000               0.000000000               0.000000000               0.000000000               0.000146271               0.002682003              -0.000006750              -0.000280398               0.000987458               0.000707060               0.000000000               0.000000000               0.000000000               0.000000000               0.000097594               0.002702917              -0.000010548              -0.000301266               0.001001385               0.000700119               0.000000000               0.000000000               0.000000000               0.000000000               0.000047945               0.002728017              -0.000008894              -0.000323022               0.001017004               0.000693982               0.000000000               0.000000000               0.000000000               0.000000000               0.000026166               0.002747357              -0.000004550              -0.000333607               0.001026979               0.000693372               0.000000000               0.000000000               0.000000000               0.000000000               0.000546824               0.004763310               0.000746448              -0.000390354               0.001717872               0.001327518               0.000000000               0.000000000               0.000000000               0.000000000               0.000531161               0.004003802               0.000495116              -0.000301289               0.001435017               0.001133728               0.000000000               0.000000000               0.000000000               0.000000000               0.000653214               0.003420463               0.000232006              -0.000182602               0.001201010               0.001018408               0.000000000               0.000000000               0.000000000               0.000000000               0.000652161               0.003099477               0.000106510              -0.000142874               0.001080773               0.000937899               0.000000000               0.000000000               0.000000000               0.000000000               0.000608513               0.002912067               0.000044493              -0.000135816               0.001015951               0.000880136               0.000000000               0.000000000               0.000000000               0.000000000               0.000550884               0.002800433               0.000014279              -0.000143472               0.000981292               0.000837820               0.000000000               0.000000000               0.000000000               0.000000000               0.000487387               0.002730421               0.000000252              -0.000158532               0.000962975               0.000804443               0.000000000               0.000000000               0.000000000               0.000000000               0.000422147               0.002685470              -0.000006145              -0.000177378               0.000954274               0.000776895               0.000000000               0.000000000               0.000000000               0.000000000               0.000363968               0.002662081              -0.000008257              -0.000196272               0.000952775               0.000756504               0.000000000               0.000000000               0.000000000               0.000000000               0.000311230               0.002651396              -0.000007182              -0.000214713               0.000955361               0.000740648               0.000000000               0.000000000               0.000000000               0.000000000               0.000259807               0.002648466              -0.000005227              -0.000233630               0.000960690               0.000727060               0.000000000               0.000000000               0.000000000               0.000000000               0.000210821               0.002652338              -0.000004724              -0.000252484               0.000968265               0.000715781               0.000000000               0.000000000               0.000000000               0.000000000               0.000164779               0.002662707              -0.000003306              -0.000271046               0.000977909               0.000706863               0.000000000               0.000000000               0.000000000               0.000000000               0.000121767               0.002678913              -0.000005614              -0.000289201               0.000989362               0.000700161               0.000000000               0.000000000               0.000000000               0.000000000               0.000080674               0.002701097              -0.000013089              -0.000307384               0.001002818               0.000695434               0.000000000               0.000000000               0.000000000               0.000000000               0.000039505               0.002727359              -0.000012006              -0.000326105               0.001017812               0.000691708               0.000000000               0.000000000               0.000000000               0.000000000               0.000022468               0.002749103              -0.000006073              -0.000335212               0.001028096               0.000692884               0.000000000               0.000000000               0.000000000               0.000000000               0.000665580               0.004405826               0.001031633              -0.000301136               0.001568972               0.001267837               0.000000000               0.000000000               0.000000000               0.000000000               0.000573423               0.003749467               0.000684344              -0.000253650               0.001334360               0.001080710               0.000000000               0.000000000               0.000000000               0.000000000               0.000614966               0.003277410               0.000326065              -0.000179064               0.001152147               0.000973083               0.000000000               0.000000000               0.000000000               0.000000000               0.000582593               0.003016146               0.000161299              -0.000158546               0.001058221               0.000899675               0.000000000               0.000000000               0.000000000               0.000000000               0.000528356               0.002862908               0.000081269              -0.000159730               0.001007536               0.000847807               0.000000000               0.000000000               0.000000000               0.000000000               0.000468708               0.002767973               0.000041997              -0.000170231               0.000979392               0.000809161               0.000000000               0.000000000               0.000000000               0.000000000               0.000409664               0.002707451               0.000023610              -0.000184807               0.000964077               0.000779270               0.000000000               0.000000000               0.000000000               0.000000000               0.000352427               0.002670943               0.000014815              -0.000201707               0.000957541               0.000755834               0.000000000               0.000000000               0.000000000               0.000000000               0.000300488               0.002650666               0.000011082              -0.000218650               0.000956430               0.000737780               0.000000000               0.000000000               0.000000000               0.000000000               0.000254195               0.002641695               0.000012444              -0.000234888               0.000958852               0.000723964               0.000000000               0.000000000               0.000000000               0.000000000               0.000211999               0.002639843               0.000013320              -0.000250480               0.000963432               0.000712952               0.000000000               0.000000000               0.000000000               0.000000000               0.000172352               0.002644632               0.000010925              -0.000265946               0.000970184               0.000704238               0.000000000               0.000000000               0.000000000               0.000000000               0.000132503               0.002657312               0.000009363              -0.000282475               0.000979920               0.000697445               0.000000000               0.000000000               0.000000000               0.000000000               0.000093058               0.002675939               0.000005555              -0.000299595               0.000991836               0.000692241               0.000000000               0.000000000               0.000000000               0.000000000               0.000057513               0.002695051              -0.000003513              -0.000315313               0.001003446               0.000688133               0.000000000               0.000000000               0.000000000               0.000000000               0.000027161               0.002714747              -0.000006338              -0.000329157               0.001014626               0.000685468               0.000000000               0.000000000               0.000000000               0.000000000               0.000015982               0.002731111              -0.000002591              -0.000335395               0.001022159               0.000686765               0.000000000               0.000000000               0.000000000               0.000000000               0.000793614               0.003959373               0.001225087              -0.000197317               0.001385550               0.001188233               0.000000000               0.000000000               0.000000000               0.000000000               0.000613219               0.003439021               0.000818686              -0.000199921               0.001212969               0.001013048               0.000000000               0.000000000               0.000000000               0.000000000               0.000561622               0.003109575               0.000404409              -0.000178089               0.001095878               0.000917789               0.000000000               0.000000000               0.000000000               0.000000000               0.000498245               0.002919461               0.000219193              -0.000178090               0.001032507               0.000854417               0.000000000               0.000000000               0.000000000               0.000000000               0.000439439               0.002803466               0.000129541              -0.000185643               0.000996360               0.000810717               0.000000000               0.000000000               0.000000000               0.000000000               0.000383021               0.002727420               0.000085708              -0.000197294               0.000974895               0.000777601               0.000000000               0.000000000               0.000000000               0.000000000               0.000331664               0.002678418               0.000063778              -0.000210428               0.000962940               0.000752512               0.000000000               0.000000000               0.000000000               0.000000000               0.000284437               0.002649663               0.000051654              -0.000224544               0.000958060               0.000733516               0.000000000               0.000000000               0.000000000               0.000000000               0.000240976               0.002633913               0.000045284              -0.000238873               0.000957586               0.000718714               0.000000000               0.000000000               0.000000000               0.000000000               0.000203921               0.002627196               0.000042333              -0.000251928               0.000959699               0.000707771               0.000000000               0.000000000               0.000000000               0.000000000               0.000171481               0.002629090               0.000040431              -0.000264330               0.000964465               0.000700135               0.000000000               0.000000000               0.000000000               0.000000000               0.000138343               0.002635601               0.000033510              -0.000277571               0.000971048               0.000693478               0.000000000               0.000000000               0.000000000               0.000000000               0.000101347               0.002648199               0.000025306              -0.000293019               0.000980397               0.000687378               0.000000000               0.000000000               0.000000000               0.000000000               0.000065435               0.002662921               0.000019458              -0.000308326               0.000990407               0.000682081               0.000000000               0.000000000               0.000000000               0.000000000               0.000038844               0.002673125               0.000010614              -0.000319573               0.000997557               0.000677984               0.000000000               0.000000000               0.000000000               0.000000000               0.000017890               0.002676624               0.000002619              -0.000327868               0.001001488               0.000673620               0.000000000               0.000000000               0.000000000               0.000000000               0.000009688               0.002681170               0.000001308              -0.000331513               0.001004219               0.000672706               0.000000000               0.000000000               0.000000000               0.000000000               0.000899327               0.003465565               0.001324864              -0.000095949               0.001187160               0.001091210               0.000000000               0.000000000               0.000000000               0.000000000               0.000637857               0.003104844               0.000901406              -0.000148910               0.001084574               0.000935665               0.000000000               0.000000000               0.000000000               0.000000000               0.000500274               0.002933686               0.000470805              -0.000179108               0.001037588               0.000858480               0.000000000               0.000000000               0.000000000               0.000000000               0.000415491               0.002816659               0.000280939              -0.000196273               0.001004301               0.000808028               0.000000000               0.000000000               0.000000000               0.000000000               0.000355994               0.002734845               0.000187958              -0.000208357               0.000981058               0.000772701               0.000000000               0.000000000               0.000000000               0.000000000               0.000306358               0.002677719               0.000140441              -0.000219830               0.000965841               0.000746011               0.000000000               0.000000000               0.000000000               0.000000000               0.000264169               0.002641914               0.000114057              -0.000231175               0.000957688               0.000726512               0.000000000               0.000000000               0.000000000               0.000000000               0.000229113               0.002621399               0.000096323              -0.000241757               0.000954377               0.000712620               0.000000000               0.000000000               0.000000000               0.000000000               0.000197223               0.002608705               0.000083004              -0.000252129               0.000953603               0.000701474               0.000000000               0.000000000               0.000000000               0.000000000               0.000167708               0.002604030               0.000072580              -0.000262613               0.000955539               0.000692926               0.000000000               0.000000000               0.000000000               0.000000000               0.000138254               0.002607498               0.000064249              -0.000274091               0.000960521               0.000686430               0.000000000               0.000000000               0.000000000               0.000000000               0.000107463               0.002616797               0.000052354              -0.000286800               0.000967857               0.000681057               0.000000000               0.000000000               0.000000000               0.000000000               0.000077632               0.002627366               0.000037308              -0.000299308               0.000975549               0.000676241               0.000000000               0.000000000               0.000000000               0.000000000               0.000050794               0.002637520               0.000028368              -0.000310641               0.000982712               0.000672070               0.000000000               0.000000000               0.000000000               0.000000000               0.000030349               0.002639448               0.000022296              -0.000318549               0.000985990               0.000667441               0.000000000               0.000000000               0.000000000               0.000000000               0.000014613               0.002636192               0.000011502              -0.000324043               0.000986736               0.000662693               0.000000000               0.000000000               0.000000000               0.000000000               0.000009007               0.002637710               0.000005595              -0.000326335               0.000988006               0.000661671               0.000000000               0.000000000               0.000000000               0.000000000               0.000967952               0.002957033               0.001340895              -0.000006649               0.000987884               0.000981235               0.000000000               0.000000000               0.000000000               0.000000000               0.000646459               0.002769890               0.000939918              -0.000103815               0.000957892               0.000854077               0.000000000               0.000000000               0.000000000               0.000000000               0.000438862               0.002758838               0.000527928              -0.000180281               0.000979697               0.000799416               0.000000000               0.000000000               0.000000000               0.000000000               0.000344002               0.002709376               0.000345116              -0.000209671               0.000973006               0.000763336               0.000000000               0.000000000               0.000000000               0.000000000               0.000288721               0.002659973               0.000250997              -0.000224226               0.000961391               0.000737165               0.000000000               0.000000000               0.000000000               0.000000000               0.000248173               0.002623899               0.000198133              -0.000234922               0.000952932               0.000718010               0.000000000               0.000000000               0.000000000               0.000000000               0.000215676               0.002600182               0.000162854              -0.000244144               0.000948100               0.000703956               0.000000000               0.000000000               0.000000000               0.000000000               0.000190962               0.002586389               0.000136258              -0.000251687               0.000946017               0.000694330               0.000000000               0.000000000               0.000000000               0.000000000               0.000166289               0.002576952               0.000114427              -0.000259760               0.000945562               0.000685802               0.000000000               0.000000000               0.000000000               0.000000000               0.000139878               0.002576364               0.000095346              -0.000269591               0.000948643               0.000679052               0.000000000               0.000000000               0.000000000               0.000000000               0.000112365               0.002584732               0.000078043              -0.000280954               0.000955220               0.000674266               0.000000000               0.000000000               0.000000000               0.000000000               0.000083824               0.002599369               0.000059913              -0.000293486               0.000964277               0.000670790               0.000000000               0.000000000               0.000000000               0.000000000               0.000061277               0.002614539               0.000040195              -0.000303838               0.000972784               0.000668946               0.000000000               0.000000000               0.000000000               0.000000000               0.000046951               0.002624411               0.000029915              -0.000310444               0.000978276               0.000667832               0.000000000               0.000000000               0.000000000               0.000000000               0.000033187               0.002628402               0.000026647              -0.000316104               0.000981493               0.000665389               0.000000000               0.000000000               0.000000000               0.000000000               0.000016855               0.002634387               0.000015633              -0.000322977               0.000985779               0.000662802               0.000000000               0.000000000               0.000000000               0.000000000               0.000010912               0.002642698               0.000009219              -0.000326244               0.000989639               0.000663394               0.000000000               0.000000000               0.000000000               0.000000000               0.000995524               0.002466777               0.001283372               0.000064972               0.000800593               0.000865565               0.000000000               0.000000000               0.000000000               0.000000000               0.000639546               0.002456148               0.000941425              -0.000067190               0.000841104               0.000773914               0.000000000               0.000000000               0.000000000               0.000000000               0.000386683               0.002589824               0.000578929              -0.000178722               0.000922840               0.000744118               0.000000000               0.000000000               0.000000000               0.000000000               0.000290898               0.002596811               0.000406398              -0.000215514               0.000937433               0.000721919               0.000000000               0.000000000               0.000000000               0.000000000               0.000241382               0.002580232               0.000308944              -0.000232010               0.000937405               0.000705395               0.000000000               0.000000000               0.000000000               0.000000000               0.000210020               0.002564771               0.000247184              -0.000241838               0.000935528               0.000693689               0.000000000               0.000000000               0.000000000               0.000000000               0.000185430               0.002554097               0.000201977              -0.000249725               0.000934599               0.000684874               0.000000000               0.000000000               0.000000000               0.000000000               0.000165302               0.002546926               0.000166043              -0.000256377               0.000934426               0.000678049               0.000000000               0.000000000               0.000000000               0.000000000               0.000144293               0.002546666               0.000135444              -0.000264223               0.000936954               0.000672732               0.000000000               0.000000000               0.000000000               0.000000000               0.000121864               0.002557621               0.000106103              -0.000274003               0.000943866               0.000669863               0.000000000               0.000000000               0.000000000               0.000000000               0.000098464               0.002578148               0.000079499              -0.000285344               0.000954489               0.000669145               0.000000000               0.000000000               0.000000000               0.000000000               0.000076191               0.002602224               0.000056155              -0.000296706               0.000966301               0.000669595               0.000000000               0.000000000               0.000000000               0.000000000               0.000062114               0.002622898               0.000038043              -0.000304569               0.000975813               0.000671245               0.000000000               0.000000000               0.000000000               0.000000000               0.000053109               0.002637088               0.000030567              -0.000309719               0.000982260               0.000672541               0.000000000               0.000000000               0.000000000               0.000000000               0.000040477               0.002654400               0.000027657              -0.000316620               0.000990331               0.000673711               0.000000000               0.000000000               0.000000000               0.000000000               0.000021048               0.002675035               0.000017657              -0.000326486               0.001000498               0.000674012               0.000000000               0.000000000               0.000000000               0.000000000               0.000012231               0.002688743               0.000011802              -0.000331506               0.001006741               0.000675235               0.000000000               0.000000000               0.000000000               0.000000000               0.001000333               0.002033892               0.001175770               0.000120886               0.000637661               0.000758547               0.000000000               0.000000000               0.000000000               0.000000000               0.000638805               0.002174283               0.000924917              -0.000032235               0.000735499               0.000703264               0.000000000               0.000000000               0.000000000               0.000000000               0.000362059               0.002431587               0.000637217              -0.000168177               0.000866580               0.000698403               0.000000000               0.000000000               0.000000000               0.000000000               0.000267556               0.002495548               0.000471750              -0.000211610               0.000902378               0.000690768               0.000000000               0.000000000               0.000000000               0.000000000               0.000221940               0.002513045               0.000368042              -0.000230903               0.000914641               0.000683738               0.000000000               0.000000000               0.000000000               0.000000000               0.000194143               0.002519406               0.000296373              -0.000242122               0.000920501               0.000678379               0.000000000               0.000000000               0.000000000               0.000000000               0.000177488               0.002523956               0.000242352              -0.000248936               0.000924289               0.000675353               0.000000000               0.000000000               0.000000000               0.000000000               0.000160834               0.002527332               0.000197808              -0.000255603               0.000927637               0.000672033               0.000000000               0.000000000               0.000000000               0.000000000               0.000142682               0.002540419               0.000157623              -0.000264046               0.000934813               0.000670767               0.000000000               0.000000000               0.000000000               0.000000000               0.000123206               0.002565807               0.000119759              -0.000274523               0.000946768               0.000672245               0.000000000               0.000000000               0.000000000               0.000000000               0.000104285               0.002597362               0.000088454              -0.000285562               0.000960966               0.000675404               0.000000000               0.000000000               0.000000000               0.000000000               0.000086163               0.002624890               0.000064344              -0.000295799               0.000973554               0.000677755               0.000000000               0.000000000               0.000000000               0.000000000               0.000077343               0.002647470               0.000046314              -0.000301929               0.000983124               0.000681195               0.000000000               0.000000000               0.000000000               0.000000000               0.000071121               0.002670719               0.000033571              -0.000307169               0.000992620               0.000685451               0.000000000               0.000000000               0.000000000               0.000000000               0.000056955               0.002701741               0.000025445              -0.000316359               0.001006024               0.000689665               0.000000000               0.000000000               0.000000000               0.000000000               0.000036238               0.002735862               0.000016845              -0.000328393               0.001021409               0.000693017               0.000000000               0.000000000               0.000000000               0.000000000               0.000022429               0.002753062               0.000011221              -0.000335721               0.001029585               0.000693864               0.000000000               0.000000000               0.000000000               0.000000000               0.000973780               0.001609095               0.001043595               0.000164028               0.000481683               0.000645711               0.000000000               0.000000000               0.000000000               0.000000000               0.000653165               0.001839718               0.000900541               0.000014971               0.000608243               0.000623213               0.000000000               0.000000000               0.000000000               0.000000000               0.000379116               0.002188675               0.000706524              -0.000131416               0.000773356               0.000641940               0.000000000               0.000000000               0.000000000               0.000000000               0.000279623               0.002321713               0.000553360              -0.000185355               0.000835681               0.000650326               0.000000000               0.000000000               0.000000000               0.000000000               0.000232923               0.002385571               0.000443018              -0.000210850               0.000865466               0.000654616               0.000000000               0.000000000               0.000000000               0.000000000               0.000202121               0.002424601               0.000362069              -0.000227279               0.000883952               0.000656673               0.000000000               0.000000000               0.000000000               0.000000000               0.000185562               0.002451632               0.000300829              -0.000236868               0.000896159               0.000659291               0.000000000               0.000000000               0.000000000               0.000000000               0.000171256               0.002473489               0.000247710              -0.000244964               0.000906143               0.000661178               0.000000000               0.000000000               0.000000000               0.000000000               0.000154997               0.002498528               0.000200440              -0.000254192               0.000917565               0.000663373               0.000000000               0.000000000               0.000000000               0.000000000               0.000138589               0.002532690               0.000159849              -0.000264615               0.000932426               0.000667812               0.000000000               0.000000000               0.000000000               0.000000000               0.000124675               0.002573063               0.000126508              -0.000274879               0.000949305               0.000674426               0.000000000               0.000000000               0.000000000               0.000000000               0.000111477               0.002614096               0.000099644              -0.000284957               0.000966342               0.000681385               0.000000000               0.000000000               0.000000000               0.000000000               0.000100504               0.002654386               0.000074824              -0.000294108               0.000982823               0.000688714               0.000000000               0.000000000               0.000000000               0.000000000               0.000091612               0.002693275               0.000050194              -0.000302304               0.000998517               0.000696213               0.000000000               0.000000000               0.000000000               0.000000000               0.000077108               0.002729035               0.000030367              -0.000312213               0.001013740               0.000701527               0.000000000               0.000000000               0.000000000               0.000000000               0.000057865               0.002771140               0.000014651              -0.000324692               0.001031935               0.000707242               0.000000000               0.000000000               0.000000000               0.000000000               0.000041163               0.002791735               0.000004249              -0.000333530               0.001041746               0.000708216               0.000000000               0.000000000               0.000000000               0.000000000               0.000897486               0.001203025               0.000887010               0.000186177               0.000338945               0.000525122               0.000000000               0.000000000               0.000000000               0.000000000               0.000668521               0.001500255               0.000851714               0.000063162               0.000479026               0.000542188               0.000000000               0.000000000               0.000000000               0.000000000               0.000431127               0.001911826               0.000757938              -0.000077306               0.000663037               0.000585731               0.000000000               0.000000000               0.000000000               0.000000000               0.000328256               0.002109818               0.000631052              -0.000140632               0.000750143               0.000609511               0.000000000               0.000000000               0.000000000               0.000000000               0.000273342               0.002225159               0.000521465              -0.000175641               0.000800259               0.000624618               0.000000000               0.000000000               0.000000000               0.000000000               0.000238132               0.002302987               0.000436372              -0.000198573               0.000833846               0.000635272               0.000000000               0.000000000               0.000000000               0.000000000               0.000214220               0.002360739               0.000368535              -0.000214760               0.000858492               0.000643732               0.000000000               0.000000000               0.000000000               0.000000000               0.000198926               0.002406937               0.000308792              -0.000226270               0.000877728               0.000651458               0.000000000               0.000000000               0.000000000               0.000000000               0.000183752               0.002445859               0.000257873              -0.000236825               0.000894220               0.000657395               0.000000000               0.000000000               0.000000000               0.000000000               0.000170822               0.002486442               0.000217090              -0.000246746               0.000911055               0.000664308               0.000000000               0.000000000               0.000000000               0.000000000               0.000159911               0.002535164               0.000181765              -0.000256928               0.000930689               0.000673761               0.000000000               0.000000000               0.000000000               0.000000000               0.000147783               0.002589745               0.000148667              -0.000268299               0.000952673               0.000684374               0.000000000               0.000000000               0.000000000               0.000000000               0.000132719               0.002647527               0.000115668              -0.000281171               0.000976224               0.000695053               0.000000000               0.000000000               0.000000000               0.000000000               0.000118989               0.002702876               0.000081980              -0.000293238               0.000998695               0.000705458               0.000000000               0.000000000               0.000000000               0.000000000               0.000101799               0.002744764               0.000050740              -0.000304920               0.001016552               0.000711632               0.000000000               0.000000000               0.000000000               0.000000000               0.000078270               0.002782311               0.000024151              -0.000318437               0.001033573               0.000715137               0.000000000               0.000000000               0.000000000               0.000000000               0.000054569               0.002793160               0.000007166              -0.000328681               0.001040604               0.000711924               0.000000000               0.000000000               0.000000000               0.000000000               0.000773860               0.000837860               0.000708412               0.000185463               0.000217462               0.000402925               0.000000000               0.000000000               0.000000000               0.000000000               0.000663986               0.001168415               0.000764233               0.000102941               0.000355154               0.000458095               0.000000000               0.000000000               0.000000000               0.000000000               0.000498238               0.001601374               0.000760082              -0.000013334               0.000538230               0.000524897               0.000000000               0.000000000               0.000000000               0.000000000               0.000406250               0.001850752               0.000670231              -0.000079001               0.000643245               0.000564244               0.000000000               0.000000000               0.000000000               0.000000000               0.000346801               0.002014678               0.000574114              -0.000121784               0.000712147               0.000590363               0.000000000               0.000000000               0.000000000               0.000000000               0.000305394               0.002135115               0.000491049              -0.000152366               0.000762487               0.000610120               0.000000000               0.000000000               0.000000000               0.000000000               0.000271673               0.002227707               0.000421397              -0.000176586               0.000801423               0.000624838               0.000000000               0.000000000               0.000000000               0.000000000               0.000250051               0.002301707               0.000359559              -0.000193944               0.000831876               0.000637932               0.000000000               0.000000000               0.000000000               0.000000000               0.000233817               0.002362590               0.000307651              -0.000207642               0.000856736               0.000649094               0.000000000               0.000000000               0.000000000               0.000000000               0.000218003               0.002414906               0.000267531              -0.000220112               0.000878331               0.000658220               0.000000000               0.000000000               0.000000000               0.000000000               0.000205447               0.002473473               0.000231335              -0.000232141               0.000901863               0.000669722               0.000000000               0.000000000               0.000000000               0.000000000               0.000194244               0.002542765               0.000193195              -0.000245004               0.000929248               0.000684244               0.000000000               0.000000000               0.000000000               0.000000000               0.000179324               0.002618235               0.000154508              -0.000260032               0.000959414               0.000699381               0.000000000               0.000000000               0.000000000               0.000000000               0.000159816               0.002690293               0.000115204              -0.000276355               0.000988874               0.000712519               0.000000000               0.000000000               0.000000000               0.000000000               0.000135338               0.002747094               0.000076114              -0.000292634               0.001013234               0.000720599               0.000000000               0.000000000               0.000000000               0.000000000               0.000104111               0.002787463               0.000037377              -0.000309390               0.001032275               0.000722885               0.000000000               0.000000000               0.000000000               0.000000000               0.000074385               0.002796067               0.000013295              -0.000321613               0.001039218               0.000717604               0.000000000               0.000000000               0.000000000               0.000000000               0.000617982               0.000540577               0.000526336               0.000164169               0.000125467               0.000289636               0.000000000               0.000000000               0.000000000               0.000000000               0.000639406               0.000863061               0.000643177               0.000131893               0.000243719               0.000375612               0.000000000               0.000000000               0.000000000               0.000000000               0.000569369               0.001281677               0.000705075               0.000053303               0.000409453               0.000462756               0.000000000               0.000000000               0.000000000               0.000000000               0.000503512               0.001562974               0.000653859              -0.000006555               0.000523171               0.000516616               0.000000000               0.000000000               0.000000000               0.000000000               0.000446655               0.001765882               0.000580167              -0.000053240               0.000606368               0.000553128               0.000000000               0.000000000               0.000000000               0.000000000               0.000399269               0.001924840               0.000507095              -0.000090879               0.000671900               0.000581021               0.000000000               0.000000000               0.000000000               0.000000000               0.000359072               0.002053278               0.000442029              -0.000122008               0.000725088               0.000603081               0.000000000               0.000000000               0.000000000               0.000000000               0.000327452               0.002159216               0.000384321              -0.000147107               0.000768767               0.000621660               0.000000000               0.000000000               0.000000000               0.000000000               0.000305735               0.002247528               0.000334518              -0.000166290               0.000804599               0.000638308               0.000000000               0.000000000               0.000000000               0.000000000               0.000281773               0.002320388               0.000294772              -0.000184383               0.000834916               0.000650533               0.000000000               0.000000000               0.000000000               0.000000000               0.000260155               0.002392646               0.000260574              -0.000201522               0.000864715               0.000663193               0.000000000               0.000000000               0.000000000               0.000000000               0.000244241               0.002473127               0.000222470              -0.000217550               0.000896884               0.000679334               0.000000000               0.000000000               0.000000000               0.000000000               0.000230331               0.002562834               0.000179856              -0.000233980               0.000932263               0.000698283               0.000000000               0.000000000               0.000000000               0.000000000               0.000211246               0.002653647               0.000136414              -0.000252488               0.000968703               0.000716215               0.000000000               0.000000000               0.000000000               0.000000000               0.000186348               0.002728069               0.000094876              -0.000271128               0.000999723               0.000728595               0.000000000               0.000000000               0.000000000               0.000000000               0.000154687               0.002780425               0.000051270              -0.000289545               0.001023314               0.000733769               0.000000000               0.000000000               0.000000000               0.000000000               0.000125402               0.002795378               0.000024169              -0.000302396               0.001032582               0.000730186               0.000000000               0.000000000               0.000000000               0.000000000               0.000456235               0.000319745               0.000359523               0.000131119               0.000062874               0.000193993               0.000000000               0.000000000               0.000000000               0.000000000               0.000602597               0.000604589               0.000497307               0.000150399               0.000151394               0.000301793               0.000000000               0.000000000               0.000000000               0.000000000               0.000634961               0.000982673               0.000592297               0.000115275               0.000289129               0.000404404               0.000000000               0.000000000               0.000000000               0.000000000               0.000605479               0.001277602               0.000572767               0.000067353               0.000403412               0.000470765               0.000000000               0.000000000               0.000000000               0.000000000               0.000557393               0.001508875               0.000523201               0.000020412               0.000496149               0.000516561               0.000000000               0.000000000               0.000000000               0.000000000               0.000508372               0.001698066               0.000467981              -0.000021619               0.000573223               0.000551603               0.000000000               0.000000000               0.000000000               0.000000000               0.000461524               0.001858493               0.000414864              -0.000059240               0.000639238               0.000579998               0.000000000               0.000000000               0.000000000               0.000000000               0.000421180               0.001998244               0.000367378              -0.000091838               0.000696687               0.000604849               0.000000000               0.000000000               0.000000000               0.000000000               0.000388121               0.002118723               0.000323676              -0.000119295               0.000745999               0.000626704               0.000000000               0.000000000               0.000000000               0.000000000               0.000356772               0.002219716               0.000286355              -0.000143675               0.000787790               0.000644115               0.000000000               0.000000000               0.000000000               0.000000000               0.000323368               0.002308624               0.000255419              -0.000167315               0.000825305               0.000657990               0.000000000               0.000000000               0.000000000               0.000000000               0.000296124               0.002398276               0.000223720              -0.000188737               0.000862330               0.000673592               0.000000000               0.000000000               0.000000000               0.000000000               0.000281737               0.002498048               0.000185266              -0.000206604               0.000901542               0.000694938               0.000000000               0.000000000               0.000000000               0.000000000               0.000272241               0.002601542               0.000143835              -0.000223102               0.000941539               0.000718437               0.000000000               0.000000000               0.000000000               0.000000000               0.000257467               0.002690598               0.000104152              -0.000239774               0.000976782               0.000737008               0.000000000               0.000000000               0.000000000               0.000000000               0.000234782               0.002762190               0.000058002              -0.000257230               0.001006464               0.000749234               0.000000000               0.000000000               0.000000000               0.000000000               0.000211123               0.002788585               0.000029063              -0.000269401               0.001019319               0.000749918               0.000000000               0.000000000               0.000000000               0.000000000               0.000314054               0.000170775               0.000217715               0.000096422               0.000024783               0.000121206               0.000000000               0.000000000               0.000000000               0.000000000               0.000563268               0.000410059               0.000336612               0.000159966               0.000083363               0.000243329               0.000000000               0.000000000               0.000000000               0.000000000               0.000687104               0.000740268               0.000427085               0.000165129               0.000191711               0.000356839               0.000000000               0.000000000               0.000000000               0.000000000               0.000695654               0.001033803               0.000427088               0.000131643               0.000300716               0.000432360               0.000000000               0.000000000               0.000000000               0.000000000               0.000659745               0.001281481               0.000399905               0.000087218               0.000398083               0.000485302               0.000000000               0.000000000               0.000000000               0.000000000               0.000609836               0.001493899               0.000363869               0.000041951               0.000483978               0.000525928               0.000000000               0.000000000               0.000000000               0.000000000               0.000556779               0.001679015               0.000327841              -0.000001085               0.000560028               0.000558943               0.000000000               0.000000000               0.000000000               0.000000000               0.000508329               0.001845624               0.000294398              -0.000040080               0.000628562               0.000588482               0.000000000               0.000000000               0.000000000               0.000000000               0.000465672               0.001992666               0.000262064              -0.000074456               0.000689034               0.000614578               0.000000000               0.000000000               0.000000000               0.000000000               0.000427254               0.002117512               0.000231115              -0.000104468               0.000740653               0.000636185               0.000000000               0.000000000               0.000000000               0.000000000               0.000387536               0.002227537               0.000204438              -0.000133116               0.000786877               0.000653761               0.000000000               0.000000000               0.000000000               0.000000000               0.000354539               0.002330827               0.000184074              -0.000158401               0.000829735               0.000671334               0.000000000               0.000000000               0.000000000               0.000000000               0.000339018               0.002432987               0.000160262              -0.000176991               0.000869985               0.000692993               0.000000000               0.000000000               0.000000000               0.000000000               0.000336078               0.002539376               0.000126207              -0.000191392               0.000910248               0.000718856               0.000000000               0.000000000               0.000000000               0.000000000               0.000331914               0.002644262               0.000089548              -0.000206064               0.000950100               0.000744035               0.000000000               0.000000000               0.000000000               0.000000000               0.000329927               0.002738034               0.000049406              -0.000218531               0.000985513               0.000766982               0.000000000               0.000000000               0.000000000               0.000000000               0.000326817               0.002777901               0.000025655              -0.000224681               0.001000851               0.000776170               0.000000000               0.000000000               0.000000000               0.000000000               0.000213868               0.000088052               0.000099955               0.000069193               0.000006286               0.000075479               0.000000000               0.000000000               0.000000000               0.000000000               0.000529715               0.000289354               0.000168923               0.000162472               0.000042293               0.000204765               0.000000000               0.000000000               0.000000000               0.000000000               0.000717128               0.000580671               0.000223618               0.000196337               0.000128109               0.000324446               0.000000000               0.000000000               0.000000000               0.000000000               0.000756644               0.000870589               0.000228389               0.000174916               0.000231888               0.000406804               0.000000000               0.000000000               0.000000000               0.000000000               0.000733379               0.001125607               0.000217120               0.000134315               0.000330427               0.000464742               0.000000000               0.000000000               0.000000000               0.000000000               0.000685443               0.001351304               0.000199259               0.000088127               0.000421055               0.000509182               0.000000000               0.000000000               0.000000000               0.000000000               0.000630144               0.001551387               0.000181861               0.000042380               0.000502997               0.000545377               0.000000000               0.000000000               0.000000000               0.000000000               0.000573306               0.001729405               0.000165672              -0.000001186               0.000576858               0.000575672               0.000000000               0.000000000               0.000000000               0.000000000               0.000521430               0.001892435               0.000148220              -0.000041018               0.000644478               0.000603460               0.000000000               0.000000000               0.000000000               0.000000000               0.000476928               0.002038463               0.000128383              -0.000075960               0.000704801               0.000628841               0.000000000               0.000000000               0.000000000               0.000000000               0.000440191               0.002166638               0.000112200              -0.000105758               0.000757458               0.000651700               0.000000000               0.000000000               0.000000000               0.000000000               0.000408521               0.002278435               0.000105828              -0.000131609               0.000803340               0.000671732               0.000000000               0.000000000               0.000000000               0.000000000               0.000384120               0.002382811               0.000097122              -0.000153806               0.000845531               0.000691725               0.000000000               0.000000000               0.000000000               0.000000000               0.000375034               0.002490614               0.000073680              -0.000170689               0.000887093               0.000716404               0.000000000               0.000000000               0.000000000               0.000000000               0.000383130               0.002601746               0.000048841              -0.000181544               0.000927755               0.000746211               0.000000000               0.000000000               0.000000000               0.000000000               0.000406620               0.002710846               0.000028606              -0.000186373               0.000965730               0.000779358               0.000000000               0.000000000               0.000000000               0.000000000               0.000424943               0.002763912               0.000017722              -0.000186135               0.000983340               0.000797205               0.000000000               0.000000000               0.000000000               0.000000000               0.000000000               0.000000000               0.000000000               0.000000000               0.000000000               0.000000000               0.000000000               0.000000000               0.000000000               0.000000000               0.000000000               0.000000000               0.000000000               0.000000000               0.000000000               0.000000000               0.000000000               0.000000000               0.000000000               0.000000000               0.000000000               0.000000000               0.000000000               0.000000000               0.000000000               0.000000000               0.000000000               0.000000000               0.000000000               0.000000000               0.000000000               0.000000000               0.000000000               0.000000000               0.000000000               0.000000000               0.000000000               0.000000000               0.000000000               0.000000000               0.000000000               0.000000000               0.000000000               0.000000000               0.000000000               0.000000000               0.000000000               0.000000000               0.000000000               0.000000000               0.000000000               0.000000000               0.000000000               0.000000000               0.000000000               0.000000000               0.000000000               0.000000000               0.000000000               0.000000000               0.000000000               0.000000000               0.000000000               0.000000000               0.000000000               0.000000000               0.000000000               0.000000000               0.000000000               0.000000000               0.000000000               0.000000000               0.000000000               0.000000000               0.000000000               0.000000000               0.000000000               0.000000000               0.000000000               0.000000000               0.000000000               0.000000000               0.000000000               0.000000000               0.000000000               0.000000000               0.000000000               0.000000000               0.000000000               0.000000000               0.000000000               0.000000000               0.000000000               0.000000000               0.000000000               0.000000000               0.000000000               0.000000000               0.000000000               0.000000000               0.000000000               0.000000000               0.000000000               0.000000000               0.000000000               0.000000000               0.000000000               0.000000000               0.000000000               0.000000000               0.000000000               0.000000000               0.000000000               0.000000000               0.000000000               0.000000000               0.000000000               0.000000000               0.000000000               0.000000000               0.000000000               0.000000000               0.000000000               0.000000000               0.000000000               0.000000000               0.000000000               0.000000000               0.000000000               0.000000000               0.000000000               0.000000000               0.000000000               0.000000000               0.000000000               0.000000000               0.000000000               0.000000000               0.000000000               0.000000000               0.000000000               0.000000000               0.000000000               0.000000000               0.000000000               0.000000000               0.000000000               0.000000000               0.000000000               0.000000000               0.000000000               0.000000000               0.000000000               0.000000000               0.000000000               0.000000000               0.000000000               0.000000000               0.000000000               0.000000000               0.000000000               0.000000000               0.000000000               0.000000000               0.000000000               0.000000000               0.000000000               0.000000000               0.000000000               0.000000000 </DataArray>
</PointData>
</Piece>
</UnstructuredGrid> </VTKFile>
