<?xml version="1.0"?>
<VTKFile type="UnstructuredGrid" version="0.1">
<UnstructuredGrid>
<Piece NumberOfPoints="      1156" NumberOfCells="      1024">
<Points>
<DataArray type="Float64"                                    Name="coordinates"                                                      NumberOfComponents=" 3" format="ascii">
              0.133000000               0.000000000               0.000000000               0.155937500               0.000000000               0.000000000               0.178875000               0.000000000               0.000000000               0.201812500               0.000000000               0.000000000               0.224750000               0.000000000               0.000000000               0.247687500               0.000000000               0.000000000               0.270625000               0.000000000               0.000000000               0.293562500               0.000000000               0.000000000               0.316500000               0.000000000               0.000000000               0.339437500               0.000000000               0.000000000               0.362375000               0.000000000               0.000000000               0.385312500               0.000000000               0.000000000               0.408250000               0.000000000               0.000000000               0.431187500               0.000000000               0.000000000               0.454125000               0.000000000               0.000000000               0.477062500               0.000000000               0.000000000               0.500000000               0.000000000               0.000000000               0.132359569               0.013036280               0.000000000               0.155337096               0.016127762               0.000000000               0.178314623               0.019219245               0.000000000               0.201292150               0.022310727               0.000000000               0.224269676               0.025402210               0.000000000               0.247247203               0.028493692               0.000000000               0.270224730               0.031585175               0.000000000               0.293202257               0.034676657               0.000000000               0.316179784               0.037768140               0.000000000               0.339157311               0.040859622               0.000000000               0.362134838               0.043951105               0.000000000               0.385112365               0.047042587               0.000000000               0.408089892               0.050134070               0.000000000               0.431067419               0.053225552               0.000000000               0.454044946               0.056317035               0.000000000               0.477022473               0.059408517               0.000000000               0.500000000               0.062500000               0.000000000               0.130444442               0.025947013               0.000000000               0.153541665               0.032137825               0.000000000               0.176638887               0.038328636               0.000000000               0.199736109               0.044519448               0.000000000               0.222833332               0.050710260               0.000000000               0.245930554               0.056901071               0.000000000               0.269027776               0.063091883               0.000000000               0.292124999               0.069282695               0.000000000               0.315222221               0.075473506               0.000000000               0.338319444               0.081664318               0.000000000               0.361416666               0.087855130               0.000000000               0.384513888               0.094045942               0.000000000               0.407611111               0.100236753               0.000000000               0.430708333               0.106427565               0.000000000               0.453805555               0.112618377               0.000000000               0.476902778               0.118809188               0.000000000               0.500000000               0.125000000               0.000000000               0.127273065               0.038607862               0.000000000               0.150568498               0.047913621               0.000000000               0.173863932               0.057219379               0.000000000               0.197159365               0.066525138               0.000000000               0.220454798               0.075830897               0.000000000               0.243750232               0.085136655               0.000000000               0.267045665               0.094442414               0.000000000               0.290341099               0.103748172               0.000000000               0.313636532               0.113053931               0.000000000               0.336931966               0.122359690               0.000000000               0.360227399               0.131665448               0.000000000               0.383522833               0.140971207               0.000000000               0.406818266               0.150276966               0.000000000               0.430113700               0.159582724               0.000000000               0.453409133               0.168888483               0.000000000               0.476704567               0.178194241               0.000000000               0.500000000               0.187500000               0.000000000               0.122875978               0.050896897               0.000000000               0.146446229               0.063340840               0.000000000               0.170016481               0.075784784               0.000000000               0.193586732               0.088228728               0.000000000               0.217156983               0.100672672               0.000000000               0.240727235               0.113116616               0.000000000               0.264297486               0.125560560               0.000000000               0.287867738               0.138004504               0.000000000               0.311437989               0.150448448               0.000000000               0.335008240               0.162892392               0.000000000               0.358578492               0.175336336               0.000000000               0.382148743               0.187780280               0.000000000               0.405718994               0.200224224               0.000000000               0.429289246               0.212668168               0.000000000               0.452859497               0.225112112               0.000000000               0.476429749               0.237556056               0.000000000               0.500000000               0.250000000               0.000000000               0.117295528               0.062695766               0.000000000               0.141214558               0.078308531               0.000000000               0.165133587               0.093921295               0.000000000               0.189052617               0.109534060               0.000000000               0.212971646               0.125146824               0.000000000               0.236890676               0.140759589               0.000000000               0.260809705               0.156372354               0.000000000               0.284728735               0.171985118               0.000000000               0.308647764               0.187597883               0.000000000               0.332566794               0.203210648               0.000000000               0.356485823               0.218823412               0.000000000               0.380404853               0.234436177               0.000000000               0.404323882               0.250048941               0.000000000               0.428242912               0.265661706               0.000000000               0.452161941               0.281274471               0.000000000               0.476080971               0.296887235               0.000000000               0.500000000               0.312500000               0.000000000               0.110585458               0.073890841               0.000000000               0.134923867               0.092710163               0.000000000               0.159262276               0.111529486               0.000000000               0.183600685               0.130348808               0.000000000               0.207939094               0.149168131               0.000000000               0.232277503               0.167987453               0.000000000               0.256615912               0.186806776               0.000000000               0.280954320               0.205626098               0.000000000               0.305292729               0.224445420               0.000000000               0.329631138               0.243264743               0.000000000               0.353969547               0.262084065               0.000000000               0.378307956               0.280903388               0.000000000               0.402646365               0.299722710               0.000000000               0.426984773               0.318542033               0.000000000               0.451323182               0.337361355               0.000000000               0.475661591               0.356180678               0.000000000               0.500000000               0.375000000               0.000000000               0.102810390               0.084374307               0.000000000               0.127634741               0.106444663               0.000000000               0.152459092               0.128515018               0.000000000               0.177283442               0.150585374               0.000000000               0.202107793               0.172655730               0.000000000               0.226932143               0.194726086               0.000000000               0.251756494               0.216796442               0.000000000               0.276580845               0.238866798               0.000000000               0.301405195               0.260937153               0.000000000               0.326229546               0.283007509               0.000000000               0.351053896               0.305077865               0.000000000               0.375878247               0.327148221               0.000000000               0.400702598               0.349218577               0.000000000               0.425526948               0.371288933               0.000000000               0.450351299               0.393359288               0.000000000               0.475175649               0.415429644               0.000000000               0.500000000               0.437500000               0.000000000               0.094045202               0.094045202               0.000000000               0.119417377               0.119417377               0.000000000               0.144789552               0.144789552               0.000000000               0.170161727               0.170161727               0.000000000               0.195533901               0.195533901               0.000000000               0.220906076               0.220906076               0.000000000               0.246278251               0.246278251               0.000000000               0.271650426               0.271650426               0.000000000               0.297022601               0.297022601               0.000000000               0.322394776               0.322394776               0.000000000               0.347766951               0.347766951               0.000000000               0.373139126               0.373139126               0.000000000               0.398511300               0.398511300               0.000000000               0.423883475               0.423883475               0.000000000               0.449255650               0.449255650               0.000000000               0.474627825               0.474627825               0.000000000               0.500000000               0.500000000               0.000000000               0.084374307               0.102810390               0.000000000               0.106444663               0.127634741               0.000000000               0.128515018               0.152459092               0.000000000               0.150585374               0.177283442               0.000000000               0.172655730               0.202107793               0.000000000               0.194726086               0.226932143               0.000000000               0.216796442               0.251756494               0.000000000               0.238866798               0.276580845               0.000000000               0.260937153               0.301405195               0.000000000               0.283007509               0.326229546               0.000000000               0.305077865               0.351053896               0.000000000               0.327148221               0.375878247               0.000000000               0.349218577               0.400702598               0.000000000               0.371288933               0.425526948               0.000000000               0.393359288               0.450351299               0.000000000               0.415429644               0.475175649               0.000000000               0.437500000               0.500000000               0.000000000               0.073890841               0.110585458               0.000000000               0.092710163               0.134923867               0.000000000               0.111529486               0.159262276               0.000000000               0.130348808               0.183600685               0.000000000               0.149168131               0.207939094               0.000000000               0.167987453               0.232277503               0.000000000               0.186806776               0.256615912               0.000000000               0.205626098               0.280954320               0.000000000               0.224445420               0.305292729               0.000000000               0.243264743               0.329631138               0.000000000               0.262084065               0.353969547               0.000000000               0.280903388               0.378307956               0.000000000               0.299722710               0.402646365               0.000000000               0.318542033               0.426984773               0.000000000               0.337361355               0.451323182               0.000000000               0.356180678               0.475661591               0.000000000               0.375000000               0.500000000               0.000000000               0.062695766               0.117295528               0.000000000               0.078308531               0.141214558               0.000000000               0.093921295               0.165133587               0.000000000               0.109534060               0.189052617               0.000000000               0.125146824               0.212971646               0.000000000               0.140759589               0.236890676               0.000000000               0.156372354               0.260809705               0.000000000               0.171985118               0.284728735               0.000000000               0.187597883               0.308647764               0.000000000               0.203210648               0.332566794               0.000000000               0.218823412               0.356485823               0.000000000               0.234436177               0.380404853               0.000000000               0.250048941               0.404323882               0.000000000               0.265661706               0.428242912               0.000000000               0.281274471               0.452161941               0.000000000               0.296887235               0.476080971               0.000000000               0.312500000               0.500000000               0.000000000               0.050896897               0.122875978               0.000000000               0.063340840               0.146446229               0.000000000               0.075784784               0.170016481               0.000000000               0.088228728               0.193586732               0.000000000               0.100672672               0.217156983               0.000000000               0.113116616               0.240727235               0.000000000               0.125560560               0.264297486               0.000000000               0.138004504               0.287867738               0.000000000               0.150448448               0.311437989               0.000000000               0.162892392               0.335008240               0.000000000               0.175336336               0.358578492               0.000000000               0.187780280               0.382148743               0.000000000               0.200224224               0.405718994               0.000000000               0.212668168               0.429289246               0.000000000               0.225112112               0.452859497               0.000000000               0.237556056               0.476429749               0.000000000               0.250000000               0.500000000               0.000000000               0.038607862               0.127273065               0.000000000               0.047913621               0.150568498               0.000000000               0.057219379               0.173863932               0.000000000               0.066525138               0.197159365               0.000000000               0.075830897               0.220454798               0.000000000               0.085136655               0.243750232               0.000000000               0.094442414               0.267045665               0.000000000               0.103748172               0.290341099               0.000000000               0.113053931               0.313636532               0.000000000               0.122359690               0.336931966               0.000000000               0.131665448               0.360227399               0.000000000               0.140971207               0.383522833               0.000000000               0.150276966               0.406818266               0.000000000               0.159582724               0.430113700               0.000000000               0.168888483               0.453409133               0.000000000               0.178194241               0.476704567               0.000000000               0.187500000               0.500000000               0.000000000               0.025947013               0.130444442               0.000000000               0.032137825               0.153541665               0.000000000               0.038328636               0.176638887               0.000000000               0.044519448               0.199736109               0.000000000               0.050710260               0.222833332               0.000000000               0.056901071               0.245930554               0.000000000               0.063091883               0.269027776               0.000000000               0.069282695               0.292124999               0.000000000               0.075473506               0.315222221               0.000000000               0.081664318               0.338319444               0.000000000               0.087855130               0.361416666               0.000000000               0.094045942               0.384513888               0.000000000               0.100236753               0.407611111               0.000000000               0.106427565               0.430708333               0.000000000               0.112618377               0.453805555               0.000000000               0.118809188               0.476902778               0.000000000               0.125000000               0.500000000               0.000000000               0.013036280               0.132359569               0.000000000               0.016127762               0.155337096               0.000000000               0.019219245               0.178314623               0.000000000               0.022310727               0.201292150               0.000000000               0.025402210               0.224269676               0.000000000               0.028493692               0.247247203               0.000000000               0.031585175               0.270224730               0.000000000               0.034676657               0.293202257               0.000000000               0.037768140               0.316179784               0.000000000               0.040859622               0.339157311               0.000000000               0.043951105               0.362134838               0.000000000               0.047042587               0.385112365               0.000000000               0.050134070               0.408089892               0.000000000               0.053225552               0.431067419               0.000000000               0.056317035               0.454044946               0.000000000               0.059408517               0.477022473               0.000000000               0.062500000               0.500000000               0.000000000               0.000000000               0.133000000               0.000000000               0.000000000               0.155937500               0.000000000               0.000000000               0.178875000               0.000000000               0.000000000               0.201812500               0.000000000               0.000000000               0.224750000               0.000000000               0.000000000               0.247687500               0.000000000               0.000000000               0.270625000               0.000000000               0.000000000               0.293562500               0.000000000               0.000000000               0.316500000               0.000000000               0.000000000               0.339437500               0.000000000               0.000000000               0.362375000               0.000000000               0.000000000               0.385312500               0.000000000               0.000000000               0.408250000               0.000000000               0.000000000               0.431187500               0.000000000               0.000000000               0.454125000               0.000000000               0.000000000               0.477062500               0.000000000               0.000000000               0.500000000               0.000000000               0.133000000               0.000000000               0.000000000               0.155937500               0.000000000               0.000000000               0.178875000               0.000000000               0.000000000               0.201812500               0.000000000               0.000000000               0.224750000               0.000000000               0.000000000               0.247687500               0.000000000               0.000000000               0.270625000               0.000000000               0.000000000               0.293562500               0.000000000               0.000000000               0.316500000               0.000000000               0.000000000               0.339437500               0.000000000               0.000000000               0.362375000               0.000000000               0.000000000               0.385312500               0.000000000               0.000000000               0.408250000               0.000000000               0.000000000               0.431187500               0.000000000               0.000000000               0.454125000               0.000000000               0.000000000               0.477062500               0.000000000               0.000000000               0.500000000               0.000000000               0.000000000               0.132359569              -0.013036280               0.000000000               0.155337096              -0.016127762               0.000000000               0.178314623              -0.019219245               0.000000000               0.201292150              -0.022310727               0.000000000               0.224269676              -0.025402210               0.000000000               0.247247203              -0.028493692               0.000000000               0.270224730              -0.031585175               0.000000000               0.293202257              -0.034676657               0.000000000               0.316179784              -0.037768140               0.000000000               0.339157311              -0.040859622               0.000000000               0.362134838              -0.043951105               0.000000000               0.385112365              -0.047042587               0.000000000               0.408089892              -0.050134070               0.000000000               0.431067419              -0.053225552               0.000000000               0.454044946              -0.056317035               0.000000000               0.477022473              -0.059408517               0.000000000               0.500000000              -0.062500000               0.000000000               0.130444442              -0.025947013               0.000000000               0.153541665              -0.032137825               0.000000000               0.176638887              -0.038328636               0.000000000               0.199736109              -0.044519448               0.000000000               0.222833332              -0.050710260               0.000000000               0.245930554              -0.056901071               0.000000000               0.269027776              -0.063091883               0.000000000               0.292124999              -0.069282695               0.000000000               0.315222221              -0.075473506               0.000000000               0.338319444              -0.081664318               0.000000000               0.361416666              -0.087855130               0.000000000               0.384513888              -0.094045942               0.000000000               0.407611111              -0.100236753               0.000000000               0.430708333              -0.106427565               0.000000000               0.453805555              -0.112618377               0.000000000               0.476902778              -0.118809188               0.000000000               0.500000000              -0.125000000               0.000000000               0.127273065              -0.038607862               0.000000000               0.150568498              -0.047913621               0.000000000               0.173863932              -0.057219379               0.000000000               0.197159365              -0.066525138               0.000000000               0.220454798              -0.075830897               0.000000000               0.243750232              -0.085136655               0.000000000               0.267045665              -0.094442414               0.000000000               0.290341099              -0.103748172               0.000000000               0.313636532              -0.113053931               0.000000000               0.336931966              -0.122359690               0.000000000               0.360227399              -0.131665448               0.000000000               0.383522833              -0.140971207               0.000000000               0.406818266              -0.150276966               0.000000000               0.430113700              -0.159582724               0.000000000               0.453409133              -0.168888483               0.000000000               0.476704567              -0.178194241               0.000000000               0.500000000              -0.187500000               0.000000000               0.122875978              -0.050896897               0.000000000               0.146446229              -0.063340840               0.000000000               0.170016481              -0.075784784               0.000000000               0.193586732              -0.088228728               0.000000000               0.217156983              -0.100672672               0.000000000               0.240727235              -0.113116616               0.000000000               0.264297486              -0.125560560               0.000000000               0.287867738              -0.138004504               0.000000000               0.311437989              -0.150448448               0.000000000               0.335008240              -0.162892392               0.000000000               0.358578492              -0.175336336               0.000000000               0.382148743              -0.187780280               0.000000000               0.405718994              -0.200224224               0.000000000               0.429289246              -0.212668168               0.000000000               0.452859497              -0.225112112               0.000000000               0.476429749              -0.237556056               0.000000000               0.500000000              -0.250000000               0.000000000               0.117295528              -0.062695766               0.000000000               0.141214558              -0.078308531               0.000000000               0.165133587              -0.093921295               0.000000000               0.189052617              -0.109534060               0.000000000               0.212971646              -0.125146824               0.000000000               0.236890676              -0.140759589               0.000000000               0.260809705              -0.156372354               0.000000000               0.284728735              -0.171985118               0.000000000               0.308647764              -0.187597883               0.000000000               0.332566794              -0.203210648               0.000000000               0.356485823              -0.218823412               0.000000000               0.380404853              -0.234436177               0.000000000               0.404323882              -0.250048941               0.000000000               0.428242912              -0.265661706               0.000000000               0.452161941              -0.281274471               0.000000000               0.476080971              -0.296887235               0.000000000               0.500000000              -0.312500000               0.000000000               0.110585458              -0.073890841               0.000000000               0.134923867              -0.092710163               0.000000000               0.159262276              -0.111529486               0.000000000               0.183600685              -0.130348808               0.000000000               0.207939094              -0.149168131               0.000000000               0.232277503              -0.167987453               0.000000000               0.256615912              -0.186806776               0.000000000               0.280954320              -0.205626098               0.000000000               0.305292729              -0.224445420               0.000000000               0.329631138              -0.243264743               0.000000000               0.353969547              -0.262084065               0.000000000               0.378307956              -0.280903388               0.000000000               0.402646365              -0.299722710               0.000000000               0.426984773              -0.318542033               0.000000000               0.451323182              -0.337361355               0.000000000               0.475661591              -0.356180678               0.000000000               0.500000000              -0.375000000               0.000000000               0.102810390              -0.084374307               0.000000000               0.127634741              -0.106444663               0.000000000               0.152459092              -0.128515018               0.000000000               0.177283442              -0.150585374               0.000000000               0.202107793              -0.172655730               0.000000000               0.226932143              -0.194726086               0.000000000               0.251756494              -0.216796442               0.000000000               0.276580845              -0.238866798               0.000000000               0.301405195              -0.260937153               0.000000000               0.326229546              -0.283007509               0.000000000               0.351053896              -0.305077865               0.000000000               0.375878247              -0.327148221               0.000000000               0.400702598              -0.349218577               0.000000000               0.425526948              -0.371288933               0.000000000               0.450351299              -0.393359288               0.000000000               0.475175649              -0.415429644               0.000000000               0.500000000              -0.437500000               0.000000000               0.094045202              -0.094045202               0.000000000               0.119417377              -0.119417377               0.000000000               0.144789552              -0.144789552               0.000000000               0.170161727              -0.170161727               0.000000000               0.195533901              -0.195533901               0.000000000               0.220906076              -0.220906076               0.000000000               0.246278251              -0.246278251               0.000000000               0.271650426              -0.271650426               0.000000000               0.297022601              -0.297022601               0.000000000               0.322394776              -0.322394776               0.000000000               0.347766951              -0.347766951               0.000000000               0.373139126              -0.373139126               0.000000000               0.398511300              -0.398511300               0.000000000               0.423883475              -0.423883475               0.000000000               0.449255650              -0.449255650               0.000000000               0.474627825              -0.474627825               0.000000000               0.500000000              -0.500000000               0.000000000               0.084374307              -0.102810390               0.000000000               0.106444663              -0.127634741               0.000000000               0.128515018              -0.152459092               0.000000000               0.150585374              -0.177283442               0.000000000               0.172655730              -0.202107793               0.000000000               0.194726086              -0.226932143               0.000000000               0.216796442              -0.251756494               0.000000000               0.238866798              -0.276580845               0.000000000               0.260937153              -0.301405195               0.000000000               0.283007509              -0.326229546               0.000000000               0.305077865              -0.351053896               0.000000000               0.327148221              -0.375878247               0.000000000               0.349218577              -0.400702598               0.000000000               0.371288933              -0.425526948               0.000000000               0.393359288              -0.450351299               0.000000000               0.415429644              -0.475175649               0.000000000               0.437500000              -0.500000000               0.000000000               0.073890841              -0.110585458               0.000000000               0.092710163              -0.134923867               0.000000000               0.111529486              -0.159262276               0.000000000               0.130348808              -0.183600685               0.000000000               0.149168131              -0.207939094               0.000000000               0.167987453              -0.232277503               0.000000000               0.186806776              -0.256615912               0.000000000               0.205626098              -0.280954320               0.000000000               0.224445420              -0.305292729               0.000000000               0.243264743              -0.329631138               0.000000000               0.262084065              -0.353969547               0.000000000               0.280903388              -0.378307956               0.000000000               0.299722710              -0.402646365               0.000000000               0.318542033              -0.426984773               0.000000000               0.337361355              -0.451323182               0.000000000               0.356180678              -0.475661591               0.000000000               0.375000000              -0.500000000               0.000000000               0.062695766              -0.117295528               0.000000000               0.078308531              -0.141214558               0.000000000               0.093921295              -0.165133587               0.000000000               0.109534060              -0.189052617               0.000000000               0.125146824              -0.212971646               0.000000000               0.140759589              -0.236890676               0.000000000               0.156372354              -0.260809705               0.000000000               0.171985118              -0.284728735               0.000000000               0.187597883              -0.308647764               0.000000000               0.203210648              -0.332566794               0.000000000               0.218823412              -0.356485823               0.000000000               0.234436177              -0.380404853               0.000000000               0.250048941              -0.404323882               0.000000000               0.265661706              -0.428242912               0.000000000               0.281274471              -0.452161941               0.000000000               0.296887235              -0.476080971               0.000000000               0.312500000              -0.500000000               0.000000000               0.050896897              -0.122875978               0.000000000               0.063340840              -0.146446229               0.000000000               0.075784784              -0.170016481               0.000000000               0.088228728              -0.193586732               0.000000000               0.100672672              -0.217156983               0.000000000               0.113116616              -0.240727235               0.000000000               0.125560560              -0.264297486               0.000000000               0.138004504              -0.287867738               0.000000000               0.150448448              -0.311437989               0.000000000               0.162892392              -0.335008240               0.000000000               0.175336336              -0.358578492               0.000000000               0.187780280              -0.382148743               0.000000000               0.200224224              -0.405718994               0.000000000               0.212668168              -0.429289246               0.000000000               0.225112112              -0.452859497               0.000000000               0.237556056              -0.476429749               0.000000000               0.250000000              -0.500000000               0.000000000               0.038607862              -0.127273065               0.000000000               0.047913621              -0.150568498               0.000000000               0.057219379              -0.173863932               0.000000000               0.066525138              -0.197159365               0.000000000               0.075830897              -0.220454798               0.000000000               0.085136655              -0.243750232               0.000000000               0.094442414              -0.267045665               0.000000000               0.103748172              -0.290341099               0.000000000               0.113053931              -0.313636532               0.000000000               0.122359690              -0.336931966               0.000000000               0.131665448              -0.360227399               0.000000000               0.140971207              -0.383522833               0.000000000               0.150276966              -0.406818266               0.000000000               0.159582724              -0.430113700               0.000000000               0.168888483              -0.453409133               0.000000000               0.178194241              -0.476704567               0.000000000               0.187500000              -0.500000000               0.000000000               0.025947013              -0.130444442               0.000000000               0.032137825              -0.153541665               0.000000000               0.038328636              -0.176638887               0.000000000               0.044519448              -0.199736109               0.000000000               0.050710260              -0.222833332               0.000000000               0.056901071              -0.245930554               0.000000000               0.063091883              -0.269027776               0.000000000               0.069282695              -0.292124999               0.000000000               0.075473506              -0.315222221               0.000000000               0.081664318              -0.338319444               0.000000000               0.087855130              -0.361416666               0.000000000               0.094045942              -0.384513888               0.000000000               0.100236753              -0.407611111               0.000000000               0.106427565              -0.430708333               0.000000000               0.112618377              -0.453805555               0.000000000               0.118809188              -0.476902778               0.000000000               0.125000000              -0.500000000               0.000000000               0.013036280              -0.132359569               0.000000000               0.016127762              -0.155337096               0.000000000               0.019219245              -0.178314623               0.000000000               0.022310727              -0.201292150               0.000000000               0.025402210              -0.224269676               0.000000000               0.028493692              -0.247247203               0.000000000               0.031585175              -0.270224730               0.000000000               0.034676657              -0.293202257               0.000000000               0.037768140              -0.316179784               0.000000000               0.040859622              -0.339157311               0.000000000               0.043951105              -0.362134838               0.000000000               0.047042587              -0.385112365               0.000000000               0.050134070              -0.408089892               0.000000000               0.053225552              -0.431067419               0.000000000               0.056317035              -0.454044946               0.000000000               0.059408517              -0.477022473               0.000000000               0.062500000              -0.500000000               0.000000000               0.000000000              -0.133000000               0.000000000               0.000000000              -0.155937500               0.000000000               0.000000000              -0.178875000               0.000000000               0.000000000              -0.201812500               0.000000000               0.000000000              -0.224750000               0.000000000               0.000000000              -0.247687500               0.000000000               0.000000000              -0.270625000               0.000000000               0.000000000              -0.293562500               0.000000000               0.000000000              -0.316500000               0.000000000               0.000000000              -0.339437500               0.000000000               0.000000000              -0.362375000               0.000000000               0.000000000              -0.385312500               0.000000000               0.000000000              -0.408250000               0.000000000               0.000000000              -0.431187500               0.000000000               0.000000000              -0.454125000               0.000000000               0.000000000              -0.477062500               0.000000000               0.000000000              -0.500000000               0.000000000              -0.133000000               0.000000000               0.000000000              -0.155937500               0.000000000               0.000000000              -0.178875000               0.000000000               0.000000000              -0.201812500               0.000000000               0.000000000              -0.224750000               0.000000000               0.000000000              -0.247687500               0.000000000               0.000000000              -0.270625000               0.000000000               0.000000000              -0.293562500               0.000000000               0.000000000              -0.316500000               0.000000000               0.000000000              -0.339437500               0.000000000               0.000000000              -0.362375000               0.000000000               0.000000000              -0.385312500               0.000000000               0.000000000              -0.408250000               0.000000000               0.000000000              -0.431187500               0.000000000               0.000000000              -0.454125000               0.000000000               0.000000000              -0.477062500               0.000000000               0.000000000              -0.500000000               0.000000000               0.000000000              -0.132359569              -0.013036280               0.000000000              -0.155337096              -0.016127762               0.000000000              -0.178314623              -0.019219245               0.000000000              -0.201292150              -0.022310727               0.000000000              -0.224269676              -0.025402210               0.000000000              -0.247247203              -0.028493692               0.000000000              -0.270224730              -0.031585175               0.000000000              -0.293202257              -0.034676657               0.000000000              -0.316179784              -0.037768140               0.000000000              -0.339157311              -0.040859622               0.000000000              -0.362134838              -0.043951105               0.000000000              -0.385112365              -0.047042587               0.000000000              -0.408089892              -0.050134070               0.000000000              -0.431067419              -0.053225552               0.000000000              -0.454044946              -0.056317035               0.000000000              -0.477022473              -0.059408517               0.000000000              -0.500000000              -0.062500000               0.000000000              -0.130444442              -0.025947013               0.000000000              -0.153541665              -0.032137825               0.000000000              -0.176638887              -0.038328636               0.000000000              -0.199736109              -0.044519448               0.000000000              -0.222833332              -0.050710260               0.000000000              -0.245930554              -0.056901071               0.000000000              -0.269027776              -0.063091883               0.000000000              -0.292124999              -0.069282695               0.000000000              -0.315222221              -0.075473506               0.000000000              -0.338319444              -0.081664318               0.000000000              -0.361416666              -0.087855130               0.000000000              -0.384513888              -0.094045942               0.000000000              -0.407611111              -0.100236753               0.000000000              -0.430708333              -0.106427565               0.000000000              -0.453805555              -0.112618377               0.000000000              -0.476902778              -0.118809188               0.000000000              -0.500000000              -0.125000000               0.000000000              -0.127273065              -0.038607862               0.000000000              -0.150568498              -0.047913621               0.000000000              -0.173863932              -0.057219379               0.000000000              -0.197159365              -0.066525138               0.000000000              -0.220454798              -0.075830897               0.000000000              -0.243750232              -0.085136655               0.000000000              -0.267045665              -0.094442414               0.000000000              -0.290341099              -0.103748172               0.000000000              -0.313636532              -0.113053931               0.000000000              -0.336931966              -0.122359690               0.000000000              -0.360227399              -0.131665448               0.000000000              -0.383522833              -0.140971207               0.000000000              -0.406818266              -0.150276966               0.000000000              -0.430113700              -0.159582724               0.000000000              -0.453409133              -0.168888483               0.000000000              -0.476704567              -0.178194241               0.000000000              -0.500000000              -0.187500000               0.000000000              -0.122875978              -0.050896897               0.000000000              -0.146446229              -0.063340840               0.000000000              -0.170016481              -0.075784784               0.000000000              -0.193586732              -0.088228728               0.000000000              -0.217156983              -0.100672672               0.000000000              -0.240727235              -0.113116616               0.000000000              -0.264297486              -0.125560560               0.000000000              -0.287867738              -0.138004504               0.000000000              -0.311437989              -0.150448448               0.000000000              -0.335008240              -0.162892392               0.000000000              -0.358578492              -0.175336336               0.000000000              -0.382148743              -0.187780280               0.000000000              -0.405718994              -0.200224224               0.000000000              -0.429289246              -0.212668168               0.000000000              -0.452859497              -0.225112112               0.000000000              -0.476429749              -0.237556056               0.000000000              -0.500000000              -0.250000000               0.000000000              -0.117295528              -0.062695766               0.000000000              -0.141214558              -0.078308531               0.000000000              -0.165133587              -0.093921295               0.000000000              -0.189052617              -0.109534060               0.000000000              -0.212971646              -0.125146824               0.000000000              -0.236890676              -0.140759589               0.000000000              -0.260809705              -0.156372354               0.000000000              -0.284728735              -0.171985118               0.000000000              -0.308647764              -0.187597883               0.000000000              -0.332566794              -0.203210648               0.000000000              -0.356485823              -0.218823412               0.000000000              -0.380404853              -0.234436177               0.000000000              -0.404323882              -0.250048941               0.000000000              -0.428242912              -0.265661706               0.000000000              -0.452161941              -0.281274471               0.000000000              -0.476080971              -0.296887235               0.000000000              -0.500000000              -0.312500000               0.000000000              -0.110585458              -0.073890841               0.000000000              -0.134923867              -0.092710163               0.000000000              -0.159262276              -0.111529486               0.000000000              -0.183600685              -0.130348808               0.000000000              -0.207939094              -0.149168131               0.000000000              -0.232277503              -0.167987453               0.000000000              -0.256615912              -0.186806776               0.000000000              -0.280954320              -0.205626098               0.000000000              -0.305292729              -0.224445420               0.000000000              -0.329631138              -0.243264743               0.000000000              -0.353969547              -0.262084065               0.000000000              -0.378307956              -0.280903388               0.000000000              -0.402646365              -0.299722710               0.000000000              -0.426984773              -0.318542033               0.000000000              -0.451323182              -0.337361355               0.000000000              -0.475661591              -0.356180678               0.000000000              -0.500000000              -0.375000000               0.000000000              -0.102810390              -0.084374307               0.000000000              -0.127634741              -0.106444663               0.000000000              -0.152459092              -0.128515018               0.000000000              -0.177283442              -0.150585374               0.000000000              -0.202107793              -0.172655730               0.000000000              -0.226932143              -0.194726086               0.000000000              -0.251756494              -0.216796442               0.000000000              -0.276580845              -0.238866798               0.000000000              -0.301405195              -0.260937153               0.000000000              -0.326229546              -0.283007509               0.000000000              -0.351053896              -0.305077865               0.000000000              -0.375878247              -0.327148221               0.000000000              -0.400702598              -0.349218577               0.000000000              -0.425526948              -0.371288933               0.000000000              -0.450351299              -0.393359288               0.000000000              -0.475175649              -0.415429644               0.000000000              -0.500000000              -0.437500000               0.000000000              -0.094045202              -0.094045202               0.000000000              -0.119417377              -0.119417377               0.000000000              -0.144789552              -0.144789552               0.000000000              -0.170161727              -0.170161727               0.000000000              -0.195533901              -0.195533901               0.000000000              -0.220906076              -0.220906076               0.000000000              -0.246278251              -0.246278251               0.000000000              -0.271650426              -0.271650426               0.000000000              -0.297022601              -0.297022601               0.000000000              -0.322394776              -0.322394776               0.000000000              -0.347766951              -0.347766951               0.000000000              -0.373139126              -0.373139126               0.000000000              -0.398511300              -0.398511300               0.000000000              -0.423883475              -0.423883475               0.000000000              -0.449255650              -0.449255650               0.000000000              -0.474627825              -0.474627825               0.000000000              -0.500000000              -0.500000000               0.000000000              -0.084374307              -0.102810390               0.000000000              -0.106444663              -0.127634741               0.000000000              -0.128515018              -0.152459092               0.000000000              -0.150585374              -0.177283442               0.000000000              -0.172655730              -0.202107793               0.000000000              -0.194726086              -0.226932143               0.000000000              -0.216796442              -0.251756494               0.000000000              -0.238866798              -0.276580845               0.000000000              -0.260937153              -0.301405195               0.000000000              -0.283007509              -0.326229546               0.000000000              -0.305077865              -0.351053896               0.000000000              -0.327148221              -0.375878247               0.000000000              -0.349218577              -0.400702598               0.000000000              -0.371288933              -0.425526948               0.000000000              -0.393359288              -0.450351299               0.000000000              -0.415429644              -0.475175649               0.000000000              -0.437500000              -0.500000000               0.000000000              -0.073890841              -0.110585458               0.000000000              -0.092710163              -0.134923867               0.000000000              -0.111529486              -0.159262276               0.000000000              -0.130348808              -0.183600685               0.000000000              -0.149168131              -0.207939094               0.000000000              -0.167987453              -0.232277503               0.000000000              -0.186806776              -0.256615912               0.000000000              -0.205626098              -0.280954320               0.000000000              -0.224445420              -0.305292729               0.000000000              -0.243264743              -0.329631138               0.000000000              -0.262084065              -0.353969547               0.000000000              -0.280903388              -0.378307956               0.000000000              -0.299722710              -0.402646365               0.000000000              -0.318542033              -0.426984773               0.000000000              -0.337361355              -0.451323182               0.000000000              -0.356180678              -0.475661591               0.000000000              -0.375000000              -0.500000000               0.000000000              -0.062695766              -0.117295528               0.000000000              -0.078308531              -0.141214558               0.000000000              -0.093921295              -0.165133587               0.000000000              -0.109534060              -0.189052617               0.000000000              -0.125146824              -0.212971646               0.000000000              -0.140759589              -0.236890676               0.000000000              -0.156372354              -0.260809705               0.000000000              -0.171985118              -0.284728735               0.000000000              -0.187597883              -0.308647764               0.000000000              -0.203210648              -0.332566794               0.000000000              -0.218823412              -0.356485823               0.000000000              -0.234436177              -0.380404853               0.000000000              -0.250048941              -0.404323882               0.000000000              -0.265661706              -0.428242912               0.000000000              -0.281274471              -0.452161941               0.000000000              -0.296887235              -0.476080971               0.000000000              -0.312500000              -0.500000000               0.000000000              -0.050896897              -0.122875978               0.000000000              -0.063340840              -0.146446229               0.000000000              -0.075784784              -0.170016481               0.000000000              -0.088228728              -0.193586732               0.000000000              -0.100672672              -0.217156983               0.000000000              -0.113116616              -0.240727235               0.000000000              -0.125560560              -0.264297486               0.000000000              -0.138004504              -0.287867738               0.000000000              -0.150448448              -0.311437989               0.000000000              -0.162892392              -0.335008240               0.000000000              -0.175336336              -0.358578492               0.000000000              -0.187780280              -0.382148743               0.000000000              -0.200224224              -0.405718994               0.000000000              -0.212668168              -0.429289246               0.000000000              -0.225112112              -0.452859497               0.000000000              -0.237556056              -0.476429749               0.000000000              -0.250000000              -0.500000000               0.000000000              -0.038607862              -0.127273065               0.000000000              -0.047913621              -0.150568498               0.000000000              -0.057219379              -0.173863932               0.000000000              -0.066525138              -0.197159365               0.000000000              -0.075830897              -0.220454798               0.000000000              -0.085136655              -0.243750232               0.000000000              -0.094442414              -0.267045665               0.000000000              -0.103748172              -0.290341099               0.000000000              -0.113053931              -0.313636532               0.000000000              -0.122359690              -0.336931966               0.000000000              -0.131665448              -0.360227399               0.000000000              -0.140971207              -0.383522833               0.000000000              -0.150276966              -0.406818266               0.000000000              -0.159582724              -0.430113700               0.000000000              -0.168888483              -0.453409133               0.000000000              -0.178194241              -0.476704567               0.000000000              -0.187500000              -0.500000000               0.000000000              -0.025947013              -0.130444442               0.000000000              -0.032137825              -0.153541665               0.000000000              -0.038328636              -0.176638887               0.000000000              -0.044519448              -0.199736109               0.000000000              -0.050710260              -0.222833332               0.000000000              -0.056901071              -0.245930554               0.000000000              -0.063091883              -0.269027776               0.000000000              -0.069282695              -0.292124999               0.000000000              -0.075473506              -0.315222221               0.000000000              -0.081664318              -0.338319444               0.000000000              -0.087855130              -0.361416666               0.000000000              -0.094045942              -0.384513888               0.000000000              -0.100236753              -0.407611111               0.000000000              -0.106427565              -0.430708333               0.000000000              -0.112618377              -0.453805555               0.000000000              -0.118809188              -0.476902778               0.000000000              -0.125000000              -0.500000000               0.000000000              -0.013036280              -0.132359569               0.000000000              -0.016127762              -0.155337096               0.000000000              -0.019219245              -0.178314623               0.000000000              -0.022310727              -0.201292150               0.000000000              -0.025402210              -0.224269676               0.000000000              -0.028493692              -0.247247203               0.000000000              -0.031585175              -0.270224730               0.000000000              -0.034676657              -0.293202257               0.000000000              -0.037768140              -0.316179784               0.000000000              -0.040859622              -0.339157311               0.000000000              -0.043951105              -0.362134838               0.000000000              -0.047042587              -0.385112365               0.000000000              -0.050134070              -0.408089892               0.000000000              -0.053225552              -0.431067419               0.000000000              -0.056317035              -0.454044946               0.000000000              -0.059408517              -0.477022473               0.000000000              -0.062500000              -0.500000000               0.000000000               0.000000000              -0.133000000               0.000000000               0.000000000              -0.155937500               0.000000000               0.000000000              -0.178875000               0.000000000               0.000000000              -0.201812500               0.000000000               0.000000000              -0.224750000               0.000000000               0.000000000              -0.247687500               0.000000000               0.000000000              -0.270625000               0.000000000               0.000000000              -0.293562500               0.000000000               0.000000000              -0.316500000               0.000000000               0.000000000              -0.339437500               0.000000000               0.000000000              -0.362375000               0.000000000               0.000000000              -0.385312500               0.000000000               0.000000000              -0.408250000               0.000000000               0.000000000              -0.431187500               0.000000000               0.000000000              -0.454125000               0.000000000               0.000000000              -0.477062500               0.000000000               0.000000000              -0.500000000               0.000000000              -0.133000000               0.000000000               0.000000000              -0.155937500               0.000000000               0.000000000              -0.178875000               0.000000000               0.000000000              -0.201812500               0.000000000               0.000000000              -0.224750000               0.000000000               0.000000000              -0.247687500               0.000000000               0.000000000              -0.270625000               0.000000000               0.000000000              -0.293562500               0.000000000               0.000000000              -0.316500000               0.000000000               0.000000000              -0.339437500               0.000000000               0.000000000              -0.362375000               0.000000000               0.000000000              -0.385312500               0.000000000               0.000000000              -0.408250000               0.000000000               0.000000000              -0.431187500               0.000000000               0.000000000              -0.454125000               0.000000000               0.000000000              -0.477062500               0.000000000               0.000000000              -0.500000000               0.000000000               0.000000000              -0.132359569               0.013036280               0.000000000              -0.155337096               0.016127762               0.000000000              -0.178314623               0.019219245               0.000000000              -0.201292150               0.022310727               0.000000000              -0.224269676               0.025402210               0.000000000              -0.247247203               0.028493692               0.000000000              -0.270224730               0.031585175               0.000000000              -0.293202257               0.034676657               0.000000000              -0.316179784               0.037768140               0.000000000              -0.339157311               0.040859622               0.000000000              -0.362134838               0.043951105               0.000000000              -0.385112365               0.047042587               0.000000000              -0.408089892               0.050134070               0.000000000              -0.431067419               0.053225552               0.000000000              -0.454044946               0.056317035               0.000000000              -0.477022473               0.059408517               0.000000000              -0.500000000               0.062500000               0.000000000              -0.130444442               0.025947013               0.000000000              -0.153541665               0.032137825               0.000000000              -0.176638887               0.038328636               0.000000000              -0.199736109               0.044519448               0.000000000              -0.222833332               0.050710260               0.000000000              -0.245930554               0.056901071               0.000000000              -0.269027776               0.063091883               0.000000000              -0.292124999               0.069282695               0.000000000              -0.315222221               0.075473506               0.000000000              -0.338319444               0.081664318               0.000000000              -0.361416666               0.087855130               0.000000000              -0.384513888               0.094045942               0.000000000              -0.407611111               0.100236753               0.000000000              -0.430708333               0.106427565               0.000000000              -0.453805555               0.112618377               0.000000000              -0.476902778               0.118809188               0.000000000              -0.500000000               0.125000000               0.000000000              -0.127273065               0.038607862               0.000000000              -0.150568498               0.047913621               0.000000000              -0.173863932               0.057219379               0.000000000              -0.197159365               0.066525138               0.000000000              -0.220454798               0.075830897               0.000000000              -0.243750232               0.085136655               0.000000000              -0.267045665               0.094442414               0.000000000              -0.290341099               0.103748172               0.000000000              -0.313636532               0.113053931               0.000000000              -0.336931966               0.122359690               0.000000000              -0.360227399               0.131665448               0.000000000              -0.383522833               0.140971207               0.000000000              -0.406818266               0.150276966               0.000000000              -0.430113700               0.159582724               0.000000000              -0.453409133               0.168888483               0.000000000              -0.476704567               0.178194241               0.000000000              -0.500000000               0.187500000               0.000000000              -0.122875978               0.050896897               0.000000000              -0.146446229               0.063340840               0.000000000              -0.170016481               0.075784784               0.000000000              -0.193586732               0.088228728               0.000000000              -0.217156983               0.100672672               0.000000000              -0.240727235               0.113116616               0.000000000              -0.264297486               0.125560560               0.000000000              -0.287867738               0.138004504               0.000000000              -0.311437989               0.150448448               0.000000000              -0.335008240               0.162892392               0.000000000              -0.358578492               0.175336336               0.000000000              -0.382148743               0.187780280               0.000000000              -0.405718994               0.200224224               0.000000000              -0.429289246               0.212668168               0.000000000              -0.452859497               0.225112112               0.000000000              -0.476429749               0.237556056               0.000000000              -0.500000000               0.250000000               0.000000000              -0.117295528               0.062695766               0.000000000              -0.141214558               0.078308531               0.000000000              -0.165133587               0.093921295               0.000000000              -0.189052617               0.109534060               0.000000000              -0.212971646               0.125146824               0.000000000              -0.236890676               0.140759589               0.000000000              -0.260809705               0.156372354               0.000000000              -0.284728735               0.171985118               0.000000000              -0.308647764               0.187597883               0.000000000              -0.332566794               0.203210648               0.000000000              -0.356485823               0.218823412               0.000000000              -0.380404853               0.234436177               0.000000000              -0.404323882               0.250048941               0.000000000              -0.428242912               0.265661706               0.000000000              -0.452161941               0.281274471               0.000000000              -0.476080971               0.296887235               0.000000000              -0.500000000               0.312500000               0.000000000              -0.110585458               0.073890841               0.000000000              -0.134923867               0.092710163               0.000000000              -0.159262276               0.111529486               0.000000000              -0.183600685               0.130348808               0.000000000              -0.207939094               0.149168131               0.000000000              -0.232277503               0.167987453               0.000000000              -0.256615912               0.186806776               0.000000000              -0.280954320               0.205626098               0.000000000              -0.305292729               0.224445420               0.000000000              -0.329631138               0.243264743               0.000000000              -0.353969547               0.262084065               0.000000000              -0.378307956               0.280903388               0.000000000              -0.402646365               0.299722710               0.000000000              -0.426984773               0.318542033               0.000000000              -0.451323182               0.337361355               0.000000000              -0.475661591               0.356180678               0.000000000              -0.500000000               0.375000000               0.000000000              -0.102810390               0.084374307               0.000000000              -0.127634741               0.106444663               0.000000000              -0.152459092               0.128515018               0.000000000              -0.177283442               0.150585374               0.000000000              -0.202107793               0.172655730               0.000000000              -0.226932143               0.194726086               0.000000000              -0.251756494               0.216796442               0.000000000              -0.276580845               0.238866798               0.000000000              -0.301405195               0.260937153               0.000000000              -0.326229546               0.283007509               0.000000000              -0.351053896               0.305077865               0.000000000              -0.375878247               0.327148221               0.000000000              -0.400702598               0.349218577               0.000000000              -0.425526948               0.371288933               0.000000000              -0.450351299               0.393359288               0.000000000              -0.475175649               0.415429644               0.000000000              -0.500000000               0.437500000               0.000000000              -0.094045202               0.094045202               0.000000000              -0.119417377               0.119417377               0.000000000              -0.144789552               0.144789552               0.000000000              -0.170161727               0.170161727               0.000000000              -0.195533901               0.195533901               0.000000000              -0.220906076               0.220906076               0.000000000              -0.246278251               0.246278251               0.000000000              -0.271650426               0.271650426               0.000000000              -0.297022601               0.297022601               0.000000000              -0.322394776               0.322394776               0.000000000              -0.347766951               0.347766951               0.000000000              -0.373139126               0.373139126               0.000000000              -0.398511300               0.398511300               0.000000000              -0.423883475               0.423883475               0.000000000              -0.449255650               0.449255650               0.000000000              -0.474627825               0.474627825               0.000000000              -0.500000000               0.500000000               0.000000000              -0.084374307               0.102810390               0.000000000              -0.106444663               0.127634741               0.000000000              -0.128515018               0.152459092               0.000000000              -0.150585374               0.177283442               0.000000000              -0.172655730               0.202107793               0.000000000              -0.194726086               0.226932143               0.000000000              -0.216796442               0.251756494               0.000000000              -0.238866798               0.276580845               0.000000000              -0.260937153               0.301405195               0.000000000              -0.283007509               0.326229546               0.000000000              -0.305077865               0.351053896               0.000000000              -0.327148221               0.375878247               0.000000000              -0.349218577               0.400702598               0.000000000              -0.371288933               0.425526948               0.000000000              -0.393359288               0.450351299               0.000000000              -0.415429644               0.475175649               0.000000000              -0.437500000               0.500000000               0.000000000              -0.073890841               0.110585458               0.000000000              -0.092710163               0.134923867               0.000000000              -0.111529486               0.159262276               0.000000000              -0.130348808               0.183600685               0.000000000              -0.149168131               0.207939094               0.000000000              -0.167987453               0.232277503               0.000000000              -0.186806776               0.256615912               0.000000000              -0.205626098               0.280954320               0.000000000              -0.224445420               0.305292729               0.000000000              -0.243264743               0.329631138               0.000000000              -0.262084065               0.353969547               0.000000000              -0.280903388               0.378307956               0.000000000              -0.299722710               0.402646365               0.000000000              -0.318542033               0.426984773               0.000000000              -0.337361355               0.451323182               0.000000000              -0.356180678               0.475661591               0.000000000              -0.375000000               0.500000000               0.000000000              -0.062695766               0.117295528               0.000000000              -0.078308531               0.141214558               0.000000000              -0.093921295               0.165133587               0.000000000              -0.109534060               0.189052617               0.000000000              -0.125146824               0.212971646               0.000000000              -0.140759589               0.236890676               0.000000000              -0.156372354               0.260809705               0.000000000              -0.171985118               0.284728735               0.000000000              -0.187597883               0.308647764               0.000000000              -0.203210648               0.332566794               0.000000000              -0.218823412               0.356485823               0.000000000              -0.234436177               0.380404853               0.000000000              -0.250048941               0.404323882               0.000000000              -0.265661706               0.428242912               0.000000000              -0.281274471               0.452161941               0.000000000              -0.296887235               0.476080971               0.000000000              -0.312500000               0.500000000               0.000000000              -0.050896897               0.122875978               0.000000000              -0.063340840               0.146446229               0.000000000              -0.075784784               0.170016481               0.000000000              -0.088228728               0.193586732               0.000000000              -0.100672672               0.217156983               0.000000000              -0.113116616               0.240727235               0.000000000              -0.125560560               0.264297486               0.000000000              -0.138004504               0.287867738               0.000000000              -0.150448448               0.311437989               0.000000000              -0.162892392               0.335008240               0.000000000              -0.175336336               0.358578492               0.000000000              -0.187780280               0.382148743               0.000000000              -0.200224224               0.405718994               0.000000000              -0.212668168               0.429289246               0.000000000              -0.225112112               0.452859497               0.000000000              -0.237556056               0.476429749               0.000000000              -0.250000000               0.500000000               0.000000000              -0.038607862               0.127273065               0.000000000              -0.047913621               0.150568498               0.000000000              -0.057219379               0.173863932               0.000000000              -0.066525138               0.197159365               0.000000000              -0.075830897               0.220454798               0.000000000              -0.085136655               0.243750232               0.000000000              -0.094442414               0.267045665               0.000000000              -0.103748172               0.290341099               0.000000000              -0.113053931               0.313636532               0.000000000              -0.122359690               0.336931966               0.000000000              -0.131665448               0.360227399               0.000000000              -0.140971207               0.383522833               0.000000000              -0.150276966               0.406818266               0.000000000              -0.159582724               0.430113700               0.000000000              -0.168888483               0.453409133               0.000000000              -0.178194241               0.476704567               0.000000000              -0.187500000               0.500000000               0.000000000              -0.025947013               0.130444442               0.000000000              -0.032137825               0.153541665               0.000000000              -0.038328636               0.176638887               0.000000000              -0.044519448               0.199736109               0.000000000              -0.050710260               0.222833332               0.000000000              -0.056901071               0.245930554               0.000000000              -0.063091883               0.269027776               0.000000000              -0.069282695               0.292124999               0.000000000              -0.075473506               0.315222221               0.000000000              -0.081664318               0.338319444               0.000000000              -0.087855130               0.361416666               0.000000000              -0.094045942               0.384513888               0.000000000              -0.100236753               0.407611111               0.000000000              -0.106427565               0.430708333               0.000000000              -0.112618377               0.453805555               0.000000000              -0.118809188               0.476902778               0.000000000              -0.125000000               0.500000000               0.000000000              -0.013036280               0.132359569               0.000000000              -0.016127762               0.155337096               0.000000000              -0.019219245               0.178314623               0.000000000              -0.022310727               0.201292150               0.000000000              -0.025402210               0.224269676               0.000000000              -0.028493692               0.247247203               0.000000000              -0.031585175               0.270224730               0.000000000              -0.034676657               0.293202257               0.000000000              -0.037768140               0.316179784               0.000000000              -0.040859622               0.339157311               0.000000000              -0.043951105               0.362134838               0.000000000              -0.047042587               0.385112365               0.000000000              -0.050134070               0.408089892               0.000000000              -0.053225552               0.431067419               0.000000000              -0.056317035               0.454044946               0.000000000              -0.059408517               0.477022473               0.000000000              -0.062500000               0.500000000               0.000000000               0.000000000               0.133000000               0.000000000               0.000000000               0.155937500               0.000000000               0.000000000               0.178875000               0.000000000               0.000000000               0.201812500               0.000000000               0.000000000               0.224750000               0.000000000               0.000000000               0.247687500               0.000000000               0.000000000               0.270625000               0.000000000               0.000000000               0.293562500               0.000000000               0.000000000               0.316500000               0.000000000               0.000000000               0.339437500               0.000000000               0.000000000               0.362375000               0.000000000               0.000000000               0.385312500               0.000000000               0.000000000               0.408250000               0.000000000               0.000000000               0.431187500               0.000000000               0.000000000               0.454125000               0.000000000               0.000000000               0.477062500               0.000000000               0.000000000               0.500000000               0.000000000 </DataArray>
</Points>
<Cells>
<DataArray type="Int32"                                    Name="connectivity"                                                      NumberOfComponents=" 1" format="ascii">
         0          1         18         17          1          2         19         18          2          3         20         19          3          4         21         20          4          5         22         21          5          6         23         22          6          7         24         23          7          8         25         24          8          9         26         25          9         10         27         26         10         11         28         27         11         12         29         28         12         13         30         29         13         14         31         30         14         15         32         31         15         16         33         32         17         18         35         34         18         19         36         35         19         20         37         36         20         21         38         37         21         22         39         38         22         23         40         39         23         24         41         40         24         25         42         41         25         26         43         42         26         27         44         43         27         28         45         44         28         29         46         45         29         30         47         46         30         31         48         47         31         32         49         48         32         33         50         49         34         35         52         51         35         36         53         52         36         37         54         53         37         38         55         54         38         39         56         55         39         40         57         56         40         41         58         57         41         42         59         58         42         43         60         59         43         44         61         60         44         45         62         61         45         46         63         62         46         47         64         63         47         48         65         64         48         49         66         65         49         50         67         66         51         52         69         68         52         53         70         69         53         54         71         70         54         55         72         71         55         56         73         72         56         57         74         73         57         58         75         74         58         59         76         75         59         60         77         76         60         61         78         77         61         62         79         78         62         63         80         79         63         64         81         80         64         65         82         81         65         66         83         82         66         67         84         83         68         69         86         85         69         70         87         86         70         71         88         87         71         72         89         88         72         73         90         89         73         74         91         90         74         75         92         91         75         76         93         92         76         77         94         93         77         78         95         94         78         79         96         95         79         80         97         96         80         81         98         97         81         82         99         98         82         83        100         99         83         84        101        100         85         86        103        102         86         87        104        103         87         88        105        104         88         89        106        105         89         90        107        106         90         91        108        107         91         92        109        108         92         93        110        109         93         94        111        110         94         95        112        111         95         96        113        112         96         97        114        113         97         98        115        114         98         99        116        115         99        100        117        116        100        101        118        117        102        103        120        119        103        104        121        120        104        105        122        121        105        106        123        122        106        107        124        123        107        108        125        124        108        109        126        125        109        110        127        126        110        111        128        127        111        112        129        128        112        113        130        129        113        114        131        130        114        115        132        131        115        116        133        132        116        117        134        133        117        118        135        134        119        120        137        136        120        121        138        137        121        122        139        138        122        123        140        139        123        124        141        140        124        125        142        141        125        126        143        142        126        127        144        143        127        128        145        144        128        129        146        145        129        130        147        146        130        131        148        147        131        132        149        148        132        133        150        149        133        134        151        150        134        135        152        151        136        137        154        153        137        138        155        154        138        139        156        155        139        140        157        156        140        141        158        157        141        142        159        158        142        143        160        159        143        144        161        160        144        145        162        161        145        146        163        162        146        147        164        163        147        148        165        164        148        149        166        165        149        150        167        166        150        151        168        167        151        152        169        168        153        154        171        170        154        155        172        171        155        156        173        172        156        157        174        173        157        158        175        174        158        159        176        175        159        160        177        176        160        161        178        177        161        162        179        178        162        163        180        179        163        164        181        180        164        165        182        181        165        166        183        182        166        167        184        183        167        168        185        184        168        169        186        185        170        171        188        187        171        172        189        188        172        173        190        189        173        174        191        190        174        175        192        191        175        176        193        192        176        177        194        193        177        178        195        194        178        179        196        195        179        180        197        196        180        181        198        197        181        182        199        198        182        183        200        199        183        184        201        200        184        185        202        201        185        186        203        202        187        188        205        204        188        189        206        205        189        190        207        206        190        191        208        207        191        192        209        208        192        193        210        209        193        194        211        210        194        195        212        211        195        196        213        212        196        197        214        213        197        198        215        214        198        199        216        215        199        200        217        216        200        201        218        217        201        202        219        218        202        203        220        219        204        205        222        221        205        206        223        222        206        207        224        223        207        208        225        224        208        209        226        225        209        210        227        226        210        211        228        227        211        212        229        228        212        213        230        229        213        214        231        230        214        215        232        231        215        216        233        232        216        217        234        233        217        218        235        234        218        219        236        235        219        220        237        236        221        222        239        238        222        223        240        239        223        224        241        240        224        225        242        241        225        226        243        242        226        227        244        243        227        228        245        244        228        229        246        245        229        230        247        246        230        231        248        247        231        232        249        248        232        233        250        249        233        234        251        250        234        235        252        251        235        236        253        252        236        237        254        253        238        239        256        255        239        240        257        256        240        241        258        257        241        242        259        258        242        243        260        259        243        244        261        260        244        245        262        261        245        246        263        262        246        247        264        263        247        248        265        264        248        249        266        265        249        250        267        266        250        251        268        267        251        252        269        268        252        253        270        269        253        254        271        270        255        256        273        272        256        257        274        273        257        258        275        274        258        259        276        275        259        260        277        276        260        261        278        277        261        262        279        278        262        263        280        279        263        264        281        280        264        265        282        281        265        266        283        282        266        267        284        283        267        268        285        284        268        269        286        285        269        270        287        286        270        271        288        287        306        307          1          0        307        308          2          1        308        309          3          2        309        310          4          3        310        311          5          4        311        312          6          5        312        313          7          6        313        314          8          7        314        315          9          8        315        316         10          9        316        317         11         10        317        318         12         11        318        319         13         12        319        320         14         13        320        321         15         14        321        322         16         15        323        324        307        306        324        325        308        307        325        326        309        308        326        327        310        309        327        328        311        310        328        329        312        311        329        330        313        312        330        331        314        313        331        332        315        314        332        333        316        315        333        334        317        316        334        335        318        317        335        336        319        318        336        337        320        319        337        338        321        320        338        339        322        321        340        341        324        323        341        342        325        324        342        343        326        325        343        344        327        326        344        345        328        327        345        346        329        328        346        347        330        329        347        348        331        330        348        349        332        331        349        350        333        332        350        351        334        333        351        352        335        334        352        353        336        335        353        354        337        336        354        355        338        337        355        356        339        338        357        358        341        340        358        359        342        341        359        360        343        342        360        361        344        343        361        362        345        344        362        363        346        345        363        364        347        346        364        365        348        347        365        366        349        348        366        367        350        349        367        368        351        350        368        369        352        351        369        370        353        352        370        371        354        353        371        372        355        354        372        373        356        355        374        375        358        357        375        376        359        358        376        377        360        359        377        378        361        360        378        379        362        361        379        380        363        362        380        381        364        363        381        382        365        364        382        383        366        365        383        384        367        366        384        385        368        367        385        386        369        368        386        387        370        369        387        388        371        370        388        389        372        371        389        390        373        372        391        392        375        374        392        393        376        375        393        394        377        376        394        395        378        377        395        396        379        378        396        397        380        379        397        398        381        380        398        399        382        381        399        400        383        382        400        401        384        383        401        402        385        384        402        403        386        385        403        404        387        386        404        405        388        387        405        406        389        388        406        407        390        389        408        409        392        391        409        410        393        392        410        411        394        393        411        412        395        394        412        413        396        395        413        414        397        396        414        415        398        397        415        416        399        398        416        417        400        399        417        418        401        400        418        419        402        401        419        420        403        402        420        421        404        403        421        422        405        404        422        423        406        405        423        424        407        406        425        426        409        408        426        427        410        409        427        428        411        410        428        429        412        411        429        430        413        412        430        431        414        413        431        432        415        414        432        433        416        415        433        434        417        416        434        435        418        417        435        436        419        418        436        437        420        419        437        438        421        420        438        439        422        421        439        440        423        422        440        441        424        423        442        443        426        425        443        444        427        426        444        445        428        427        445        446        429        428        446        447        430        429        447        448        431        430        448        449        432        431        449        450        433        432        450        451        434        433        451        452        435        434        452        453        436        435        453        454        437        436        454        455        438        437        455        456        439        438        456        457        440        439        457        458        441        440        459        460        443        442        460        461        444        443        461        462        445        444        462        463        446        445        463        464        447        446        464        465        448        447        465        466        449        448        466        467        450        449        467        468        451        450        468        469        452        451        469        470        453        452        470        471        454        453        471        472        455        454        472        473        456        455        473        474        457        456        474        475        458        457        476        477        460        459        477        478        461        460        478        479        462        461        479        480        463        462        480        481        464        463        481        482        465        464        482        483        466        465        483        484        467        466        484        485        468        467        485        486        469        468        486        487        470        469        487        488        471        470        488        489        472        471        489        490        473        472        490        491        474        473        491        492        475        474        493        494        477        476        494        495        478        477        495        496        479        478        496        497        480        479        497        498        481        480        498        499        482        481        499        500        483        482        500        501        484        483        501        502        485        484        502        503        486        485        503        504        487        486        504        505        488        487        505        506        489        488        506        507        490        489        507        508        491        490        508        509        492        491        510        511        494        493        511        512        495        494        512        513        496        495        513        514        497        496        514        515        498        497        515        516        499        498        516        517        500        499        517        518        501        500        518        519        502        501        519        520        503        502        520        521        504        503        521        522        505        504        522        523        506        505        523        524        507        506        524        525        508        507        525        526        509        508        527        528        511        510        528        529        512        511        529        530        513        512        530        531        514        513        531        532        515        514        532        533        516        515        533        534        517        516        534        535        518        517        535        536        519        518        536        537        520        519        537        538        521        520        538        539        522        521        539        540        523        522        540        541        524        523        541        542        525        524        542        543        526        525        544        545        528        527        545        546        529        528        546        547        530        529        547        548        531        530        548        549        532        531        549        550        533        532        550        551        534        533        551        552        535        534        552        553        536        535        553        554        537        536        554        555        538        537        555        556        539        538        556        557        540        539        557        558        541        540        558        559        542        541        559        560        543        542        561        562        545        544        562        563        546        545        563        564        547        546        564        565        548        547        565        566        549        548        566        567        550        549        567        568        551        550        568        569        552        551        569        570        553        552        570        571        554        553        571        572        555        554        572        573        556        555        573        574        557        556        574        575        558        557        575        576        559        558        576        577        560        559        578        579        596        595        579        580        597        596        580        581        598        597        581        582        599        598        582        583        600        599        583        584        601        600        584        585        602        601        585        586        603        602        586        587        604        603        587        588        605        604        588        589        606        605        589        590        607        606        590        591        608        607        591        592        609        608        592        593        610        609        593        594        611        610        595        596        613        612        596        597        614        613        597        598        615        614        598        599        616        615        599        600        617        616        600        601        618        617        601        602        619        618        602        603        620        619        603        604        621        620        604        605        622        621        605        606        623        622        606        607        624        623        607        608        625        624        608        609        626        625        609        610        627        626        610        611        628        627        612        613        630        629        613        614        631        630        614        615        632        631        615        616        633        632        616        617        634        633        617        618        635        634        618        619        636        635        619        620        637        636        620        621        638        637        621        622        639        638        622        623        640        639        623        624        641        640        624        625        642        641        625        626        643        642        626        627        644        643        627        628        645        644        629        630        647        646        630        631        648        647        631        632        649        648        632        633        650        649        633        634        651        650        634        635        652        651        635        636        653        652        636        637        654        653        637        638        655        654        638        639        656        655        639        640        657        656        640        641        658        657        641        642        659        658        642        643        660        659        643        644        661        660        644        645        662        661        646        647        664        663        647        648        665        664        648        649        666        665        649        650        667        666        650        651        668        667        651        652        669        668        652        653        670        669        653        654        671        670        654        655        672        671        655        656        673        672        656        657        674        673        657        658        675        674        658        659        676        675        659        660        677        676        660        661        678        677        661        662        679        678        663        664        681        680        664        665        682        681        665        666        683        682        666        667        684        683        667        668        685        684        668        669        686        685        669        670        687        686        670        671        688        687        671        672        689        688        672        673        690        689        673        674        691        690        674        675        692        691        675        676        693        692        676        677        694        693        677        678        695        694        678        679        696        695        680        681        698        697        681        682        699        698        682        683        700        699        683        684        701        700        684        685        702        701        685        686        703        702        686        687        704        703        687        688        705        704        688        689        706        705        689        690        707        706        690        691        708        707        691        692        709        708        692        693        710        709        693        694        711        710        694        695        712        711        695        696        713        712        697        698        715        714        698        699        716        715        699        700        717        716        700        701        718        717        701        702        719        718        702        703        720        719        703        704        721        720        704        705        722        721        705        706        723        722        706        707        724        723        707        708        725        724        708        709        726        725        709        710        727        726        710        711        728        727        711        712        729        728        712        713        730        729        714        715        732        731        715        716        733        732        716        717        734        733        717        718        735        734        718        719        736        735        719        720        737        736        720        721        738        737        721        722        739        738        722        723        740        739        723        724        741        740        724        725        742        741        725        726        743        742        726        727        744        743        727        728        745        744        728        729        746        745        729        730        747        746        731        732        749        748        732        733        750        749        733        734        751        750        734        735        752        751        735        736        753        752        736        737        754        753        737        738        755        754        738        739        756        755        739        740        757        756        740        741        758        757        741        742        759        758        742        743        760        759        743        744        761        760        744        745        762        761        745        746        763        762        746        747        764        763        748        749        766        765        749        750        767        766        750        751        768        767        751        752        769        768        752        753        770        769        753        754        771        770        754        755        772        771        755        756        773        772        756        757        774        773        757        758        775        774        758        759        776        775        759        760        777        776        760        761        778        777        761        762        779        778        762        763        780        779        763        764        781        780        765        766        783        782        766        767        784        783        767        768        785        784        768        769        786        785        769        770        787        786        770        771        788        787        771        772        789        788        772        773        790        789        773        774        791        790        774        775        792        791        775        776        793        792        776        777        794        793        777        778        795        794        778        779        796        795        779        780        797        796        780        781        798        797        782        783        800        799        783        784        801        800        784        785        802        801        785        786        803        802        786        787        804        803        787        788        805        804        788        789        806        805        789        790        807        806        790        791        808        807        791        792        809        808        792        793        810        809        793        794        811        810        794        795        812        811        795        796        813        812        796        797        814        813        797        798        815        814        799        800        817        816        800        801        818        817        801        802        819        818        802        803        820        819        803        804        821        820        804        805        822        821        805        806        823        822        806        807        824        823        807        808        825        824        808        809        826        825        809        810        827        826        810        811        828        827        811        812        829        828        812        813        830        829        813        814        831        830        814        815        832        831        816        817        834        833        817        818        835        834        818        819        836        835        819        820        837        836        820        821        838        837        821        822        839        838        822        823        840        839        823        824        841        840        824        825        842        841        825        826        843        842        826        827        844        843        827        828        845        844        828        829        846        845        829        830        847        846        830        831        848        847        831        832        849        848        833        834        562        561        834        835        563        562        835        836        564        563        836        837        565        564        837        838        566        565        838        839        567        566        839        840        568        567        840        841        569        568        841        842        570        569        842        843        571        570        843        844        572        571        844        845        573        572        845        846        574        573        846        847        575        574        847        848        576        575        848        849        577        576        884        885        579        578        885        886        580        579        886        887        581        580        887        888        582        581        888        889        583        582        889        890        584        583        890        891        585        584        891        892        586        585        892        893        587        586        893        894        588        587        894        895        589        588        895        896        590        589        896        897        591        590        897        898        592        591        898        899        593        592        899        900        594        593        901        902        885        884        902        903        886        885        903        904        887        886        904        905        888        887        905        906        889        888        906        907        890        889        907        908        891        890        908        909        892        891        909        910        893        892        910        911        894        893        911        912        895        894        912        913        896        895        913        914        897        896        914        915        898        897        915        916        899        898        916        917        900        899        918        919        902        901        919        920        903        902        920        921        904        903        921        922        905        904        922        923        906        905        923        924        907        906        924        925        908        907        925        926        909        908        926        927        910        909        927        928        911        910        928        929        912        911        929        930        913        912        930        931        914        913        931        932        915        914        932        933        916        915        933        934        917        916        935        936        919        918        936        937        920        919        937        938        921        920        938        939        922        921        939        940        923        922        940        941        924        923        941        942        925        924        942        943        926        925        943        944        927        926        944        945        928        927        945        946        929        928        946        947        930        929        947        948        931        930        948        949        932        931        949        950        933        932        950        951        934        933        952        953        936        935        953        954        937        936        954        955        938        937        955        956        939        938        956        957        940        939        957        958        941        940        958        959        942        941        959        960        943        942        960        961        944        943        961        962        945        944        962        963        946        945        963        964        947        946        964        965        948        947        965        966        949        948        966        967        950        949        967        968        951        950        969        970        953        952        970        971        954        953        971        972        955        954        972        973        956        955        973        974        957        956        974        975        958        957        975        976        959        958        976        977        960        959        977        978        961        960        978        979        962        961        979        980        963        962        980        981        964        963        981        982        965        964        982        983        966        965        983        984        967        966        984        985        968        967        986        987        970        969        987        988        971        970        988        989        972        971        989        990        973        972        990        991        974        973        991        992        975        974        992        993        976        975        993        994        977        976        994        995        978        977        995        996        979        978        996        997        980        979        997        998        981        980        998        999        982        981        999       1000        983        982       1000       1001        984        983       1001       1002        985        984       1003       1004        987        986       1004       1005        988        987       1005       1006        989        988       1006       1007        990        989       1007       1008        991        990       1008       1009        992        991       1009       1010        993        992       1010       1011        994        993       1011       1012        995        994       1012       1013        996        995       1013       1014        997        996       1014       1015        998        997       1015       1016        999        998       1016       1017       1000        999       1017       1018       1001       1000       1018       1019       1002       1001       1020       1021       1004       1003       1021       1022       1005       1004       1022       1023       1006       1005       1023       1024       1007       1006       1024       1025       1008       1007       1025       1026       1009       1008       1026       1027       1010       1009       1027       1028       1011       1010       1028       1029       1012       1011       1029       1030       1013       1012       1030       1031       1014       1013       1031       1032       1015       1014       1032       1033       1016       1015       1033       1034       1017       1016       1034       1035       1018       1017       1035       1036       1019       1018       1037       1038       1021       1020       1038       1039       1022       1021       1039       1040       1023       1022       1040       1041       1024       1023       1041       1042       1025       1024       1042       1043       1026       1025       1043       1044       1027       1026       1044       1045       1028       1027       1045       1046       1029       1028       1046       1047       1030       1029       1047       1048       1031       1030       1048       1049       1032       1031       1049       1050       1033       1032       1050       1051       1034       1033       1051       1052       1035       1034       1052       1053       1036       1035       1054       1055       1038       1037       1055       1056       1039       1038       1056       1057       1040       1039       1057       1058       1041       1040       1058       1059       1042       1041       1059       1060       1043       1042       1060       1061       1044       1043       1061       1062       1045       1044       1062       1063       1046       1045       1063       1064       1047       1046       1064       1065       1048       1047       1065       1066       1049       1048       1066       1067       1050       1049       1067       1068       1051       1050       1068       1069       1052       1051       1069       1070       1053       1052       1071       1072       1055       1054       1072       1073       1056       1055       1073       1074       1057       1056       1074       1075       1058       1057       1075       1076       1059       1058       1076       1077       1060       1059       1077       1078       1061       1060       1078       1079       1062       1061       1079       1080       1063       1062       1080       1081       1064       1063       1081       1082       1065       1064       1082       1083       1066       1065       1083       1084       1067       1066       1084       1085       1068       1067       1085       1086       1069       1068       1086       1087       1070       1069       1088       1089       1072       1071       1089       1090       1073       1072       1090       1091       1074       1073       1091       1092       1075       1074       1092       1093       1076       1075       1093       1094       1077       1076       1094       1095       1078       1077       1095       1096       1079       1078       1096       1097       1080       1079       1097       1098       1081       1080       1098       1099       1082       1081       1099       1100       1083       1082       1100       1101       1084       1083       1101       1102       1085       1084       1102       1103       1086       1085       1103       1104       1087       1086       1105       1106       1089       1088       1106       1107       1090       1089       1107       1108       1091       1090       1108       1109       1092       1091       1109       1110       1093       1092       1110       1111       1094       1093       1111       1112       1095       1094       1112       1113       1096       1095       1113       1114       1097       1096       1114       1115       1098       1097       1115       1116       1099       1098       1116       1117       1100       1099       1117       1118       1101       1100       1118       1119       1102       1101       1119       1120       1103       1102       1120       1121       1104       1103       1122       1123       1106       1105       1123       1124       1107       1106       1124       1125       1108       1107       1125       1126       1109       1108       1126       1127       1110       1109       1127       1128       1111       1110       1128       1129       1112       1111       1129       1130       1113       1112       1130       1131       1114       1113       1131       1132       1115       1114       1132       1133       1116       1115       1133       1134       1117       1116       1134       1135       1118       1117       1135       1136       1119       1118       1136       1137       1120       1119       1137       1138       1121       1120        272        273       1123       1122        273        274       1124       1123        274        275       1125       1124        275        276       1126       1125        276        277       1127       1126        277        278       1128       1127        278        279       1129       1128        279        280       1130       1129        280        281       1131       1130        281        282       1132       1131        282        283       1133       1132        283        284       1134       1133        284        285       1135       1134        285        286       1136       1135        286        287       1137       1136        287        288       1138       1137 </DataArray>
<DataArray type="Int32"                                    Name="offsets"                                                      NumberOfComponents=" 1" format="ascii">
         4          8         12         16         20         24         28         32         36         40         44         48         52         56         60         64         68         72         76         80         84         88         92         96        100        104        108        112        116        120        124        128        132        136        140        144        148        152        156        160        164        168        172        176        180        184        188        192        196        200        204        208        212        216        220        224        228        232        236        240        244        248        252        256        260        264        268        272        276        280        284        288        292        296        300        304        308        312        316        320        324        328        332        336        340        344        348        352        356        360        364        368        372        376        380        384        388        392        396        400        404        408        412        416        420        424        428        432        436        440        444        448        452        456        460        464        468        472        476        480        484        488        492        496        500        504        508        512        516        520        524        528        532        536        540        544        548        552        556        560        564        568        572        576        580        584        588        592        596        600        604        608        612        616        620        624        628        632        636        640        644        648        652        656        660        664        668        672        676        680        684        688        692        696        700        704        708        712        716        720        724        728        732        736        740        744        748        752        756        760        764        768        772        776        780        784        788        792        796        800        804        808        812        816        820        824        828        832        836        840        844        848        852        856        860        864        868        872        876        880        884        888        892        896        900        904        908        912        916        920        924        928        932        936        940        944        948        952        956        960        964        968        972        976        980        984        988        992        996       1000       1004       1008       1012       1016       1020       1024       1028       1032       1036       1040       1044       1048       1052       1056       1060       1064       1068       1072       1076       1080       1084       1088       1092       1096       1100       1104       1108       1112       1116       1120       1124       1128       1132       1136       1140       1144       1148       1152       1156       1160       1164       1168       1172       1176       1180       1184       1188       1192       1196       1200       1204       1208       1212       1216       1220       1224       1228       1232       1236       1240       1244       1248       1252       1256       1260       1264       1268       1272       1276       1280       1284       1288       1292       1296       1300       1304       1308       1312       1316       1320       1324       1328       1332       1336       1340       1344       1348       1352       1356       1360       1364       1368       1372       1376       1380       1384       1388       1392       1396       1400       1404       1408       1412       1416       1420       1424       1428       1432       1436       1440       1444       1448       1452       1456       1460       1464       1468       1472       1476       1480       1484       1488       1492       1496       1500       1504       1508       1512       1516       1520       1524       1528       1532       1536       1540       1544       1548       1552       1556       1560       1564       1568       1572       1576       1580       1584       1588       1592       1596       1600       1604       1608       1612       1616       1620       1624       1628       1632       1636       1640       1644       1648       1652       1656       1660       1664       1668       1672       1676       1680       1684       1688       1692       1696       1700       1704       1708       1712       1716       1720       1724       1728       1732       1736       1740       1744       1748       1752       1756       1760       1764       1768       1772       1776       1780       1784       1788       1792       1796       1800       1804       1808       1812       1816       1820       1824       1828       1832       1836       1840       1844       1848       1852       1856       1860       1864       1868       1872       1876       1880       1884       1888       1892       1896       1900       1904       1908       1912       1916       1920       1924       1928       1932       1936       1940       1944       1948       1952       1956       1960       1964       1968       1972       1976       1980       1984       1988       1992       1996       2000       2004       2008       2012       2016       2020       2024       2028       2032       2036       2040       2044       2048       2052       2056       2060       2064       2068       2072       2076       2080       2084       2088       2092       2096       2100       2104       2108       2112       2116       2120       2124       2128       2132       2136       2140       2144       2148       2152       2156       2160       2164       2168       2172       2176       2180       2184       2188       2192       2196       2200       2204       2208       2212       2216       2220       2224       2228       2232       2236       2240       2244       2248       2252       2256       2260       2264       2268       2272       2276       2280       2284       2288       2292       2296       2300       2304       2308       2312       2316       2320       2324       2328       2332       2336       2340       2344       2348       2352       2356       2360       2364       2368       2372       2376       2380       2384       2388       2392       2396       2400       2404       2408       2412       2416       2420       2424       2428       2432       2436       2440       2444       2448       2452       2456       2460       2464       2468       2472       2476       2480       2484       2488       2492       2496       2500       2504       2508       2512       2516       2520       2524       2528       2532       2536       2540       2544       2548       2552       2556       2560       2564       2568       2572       2576       2580       2584       2588       2592       2596       2600       2604       2608       2612       2616       2620       2624       2628       2632       2636       2640       2644       2648       2652       2656       2660       2664       2668       2672       2676       2680       2684       2688       2692       2696       2700       2704       2708       2712       2716       2720       2724       2728       2732       2736       2740       2744       2748       2752       2756       2760       2764       2768       2772       2776       2780       2784       2788       2792       2796       2800       2804       2808       2812       2816       2820       2824       2828       2832       2836       2840       2844       2848       2852       2856       2860       2864       2868       2872       2876       2880       2884       2888       2892       2896       2900       2904       2908       2912       2916       2920       2924       2928       2932       2936       2940       2944       2948       2952       2956       2960       2964       2968       2972       2976       2980       2984       2988       2992       2996       3000       3004       3008       3012       3016       3020       3024       3028       3032       3036       3040       3044       3048       3052       3056       3060       3064       3068       3072       3076       3080       3084       3088       3092       3096       3100       3104       3108       3112       3116       3120       3124       3128       3132       3136       3140       3144       3148       3152       3156       3160       3164       3168       3172       3176       3180       3184       3188       3192       3196       3200       3204       3208       3212       3216       3220       3224       3228       3232       3236       3240       3244       3248       3252       3256       3260       3264       3268       3272       3276       3280       3284       3288       3292       3296       3300       3304       3308       3312       3316       3320       3324       3328       3332       3336       3340       3344       3348       3352       3356       3360       3364       3368       3372       3376       3380       3384       3388       3392       3396       3400       3404       3408       3412       3416       3420       3424       3428       3432       3436       3440       3444       3448       3452       3456       3460       3464       3468       3472       3476       3480       3484       3488       3492       3496       3500       3504       3508       3512       3516       3520       3524       3528       3532       3536       3540       3544       3548       3552       3556       3560       3564       3568       3572       3576       3580       3584       3588       3592       3596       3600       3604       3608       3612       3616       3620       3624       3628       3632       3636       3640       3644       3648       3652       3656       3660       3664       3668       3672       3676       3680       3684       3688       3692       3696       3700       3704       3708       3712       3716       3720       3724       3728       3732       3736       3740       3744       3748       3752       3756       3760       3764       3768       3772       3776       3780       3784       3788       3792       3796       3800       3804       3808       3812       3816       3820       3824       3828       3832       3836       3840       3844       3848       3852       3856       3860       3864       3868       3872       3876       3880       3884       3888       3892       3896       3900       3904       3908       3912       3916       3920       3924       3928       3932       3936       3940       3944       3948       3952       3956       3960       3964       3968       3972       3976       3980       3984       3988       3992       3996       4000       4004       4008       4012       4016       4020       4024       4028       4032       4036       4040       4044       4048       4052       4056       4060       4064       4068       4072       4076       4080       4084       4088       4092       4096 </DataArray>
<DataArray type="UInt8"                                    Name="types"                                                      NumberOfComponents=" 1" format="ascii">
         9          9          9          9          9          9          9          9          9          9          9          9          9          9          9          9          9          9          9          9          9          9          9          9          9          9          9          9          9          9          9          9          9          9          9          9          9          9          9          9          9          9          9          9          9          9          9          9          9          9          9          9          9          9          9          9          9          9          9          9          9          9          9          9          9          9          9          9          9          9          9          9          9          9          9          9          9          9          9          9          9          9          9          9          9          9          9          9          9          9          9          9          9          9          9          9          9          9          9          9          9          9          9          9          9          9          9          9          9          9          9          9          9          9          9          9          9          9          9          9          9          9          9          9          9          9          9          9          9          9          9          9          9          9          9          9          9          9          9          9          9          9          9          9          9          9          9          9          9          9          9          9          9          9          9          9          9          9          9          9          9          9          9          9          9          9          9          9          9          9          9          9          9          9          9          9          9          9          9          9          9          9          9          9          9          9          9          9          9          9          9          9          9          9          9          9          9          9          9          9          9          9          9          9          9          9          9          9          9          9          9          9          9          9          9          9          9          9          9          9          9          9          9          9          9          9          9          9          9          9          9          9          9          9          9          9          9          9          9          9          9          9          9          9          9          9          9          9          9          9          9          9          9          9          9          9          9          9          9          9          9          9          9          9          9          9          9          9          9          9          9          9          9          9          9          9          9          9          9          9          9          9          9          9          9          9          9          9          9          9          9          9          9          9          9          9          9          9          9          9          9          9          9          9          9          9          9          9          9          9          9          9          9          9          9          9          9          9          9          9          9          9          9          9          9          9          9          9          9          9          9          9          9          9          9          9          9          9          9          9          9          9          9          9          9          9          9          9          9          9          9          9          9          9          9          9          9          9          9          9          9          9          9          9          9          9          9          9          9          9          9          9          9          9          9          9          9          9          9          9          9          9          9          9          9          9          9          9          9          9          9          9          9          9          9          9          9          9          9          9          9          9          9          9          9          9          9          9          9          9          9          9          9          9          9          9          9          9          9          9          9          9          9          9          9          9          9          9          9          9          9          9          9          9          9          9          9          9          9          9          9          9          9          9          9          9          9          9          9          9          9          9          9          9          9          9          9          9          9          9          9          9          9          9          9          9          9          9          9          9          9          9          9          9          9          9          9          9          9          9          9          9          9          9          9          9          9          9          9          9          9          9          9          9          9          9          9          9          9          9          9          9          9          9          9          9          9          9          9          9          9          9          9          9          9          9          9          9          9          9          9          9          9          9          9          9          9          9          9          9          9          9          9          9          9          9          9          9          9          9          9          9          9          9          9          9          9          9          9          9          9          9          9          9          9          9          9          9          9          9          9          9          9          9          9          9          9          9          9          9          9          9          9          9          9          9          9          9          9          9          9          9          9          9          9          9          9          9          9          9          9          9          9          9          9          9          9          9          9          9          9          9          9          9          9          9          9          9          9          9          9          9          9          9          9          9          9          9          9          9          9          9          9          9          9          9          9          9          9          9          9          9          9          9          9          9          9          9          9          9          9          9          9          9          9          9          9          9          9          9          9          9          9          9          9          9          9          9          9          9          9          9          9          9          9          9          9          9          9          9          9          9          9          9          9          9          9          9          9          9          9          9          9          9          9          9          9          9          9          9          9          9          9          9          9          9          9          9          9          9          9          9          9          9          9          9          9          9          9          9          9          9          9          9          9          9          9          9          9          9          9          9          9          9          9          9          9          9          9          9          9          9          9          9          9          9          9          9          9          9          9          9          9          9          9          9          9          9          9          9          9          9          9          9          9          9          9          9          9          9          9          9          9          9          9          9          9          9          9          9          9          9          9          9          9          9          9          9          9          9          9          9          9          9          9          9          9          9          9          9          9          9          9          9          9          9          9          9          9          9          9          9          9          9          9          9          9          9          9          9          9          9          9          9          9          9          9          9          9          9          9          9          9          9          9          9          9          9          9          9          9          9          9          9          9          9          9          9          9          9          9          9          9          9          9          9          9          9          9          9          9          9          9          9          9          9          9          9          9          9          9          9          9          9          9          9          9          9          9          9          9          9          9          9          9          9          9          9          9          9          9          9          9          9          9          9          9          9          9          9          9          9          9          9          9          9          9          9          9          9          9          9          9          9          9          9          9          9          9          9          9          9          9          9          9          9          9          9          9          9          9          9          9          9          9          9          9          9          9          9          9          9          9          9          9          9          9          9          9          9          9          9          9          9          9          9          9          9          9          9          9          9          9          9          9          9          9          9          9          9          9          9          9          9          9          9          9          9          9          9          9          9          9          9          9          9          9          9          9          9          9          9          9          9          9          9          9          9          9          9          9          9          9          9          9          9          9          9          9          9          9          9          9          9          9          9          9          9          9          9          9          9          9          9          9          9          9          9          9          9          9          9          9          9 </DataArray>
</Cells>
<CellData>
<DataArray type="Int32"                                    Name="material"                                                      NumberOfComponents=" 1" format="ascii">
         1          1          1          1          1          1          1          1          1          1          1          1          1          1          1          1          1          1          1          1          1          1          1          1          1          1          1          1          1          1          1          1          1          1          1          1          1          1          1          1          1          1          1          1          1          1          1          1          1          1          1          1          1          1          1          1          1          1          1          1          1          1          1          1          1          1          1          1          1          1          1          1          1          1          1          1          1          1          1          1          1          1          1          1          1          1          1          1          1          1          1          1          1          1          1          1          1          1          1          1          1          1          1          1          1          1          1          1          1          1          1          1          1          1          1          1          1          1          1          1          1          1          1          1          1          1          1          1          1          1          1          1          1          1          1          1          1          1          1          1          1          1          1          1          1          1          1          1          1          1          1          1          1          1          1          1          1          1          1          1          1          1          1          1          1          1          1          1          1          1          1          1          1          1          1          1          1          1          1          1          1          1          1          1          1          1          1          1          1          1          1          1          1          1          1          1          1          1          1          1          1          1          1          1          1          1          1          1          1          1          1          1          1          1          1          1          1          1          1          1          1          1          1          1          1          1          1          1          1          1          1          1          1          1          1          1          1          1          1          1          1          1          1          1          1          1          1          1          1          1          1          1          1          1          1          1          1          1          1          1          1          1          1          1          1          1          1          1          1          1          1          1          1          1          1          1          1          1          1          1          1          1          1          1          1          1          1          1          1          1          1          1          1          1          1          1          1          1          1          1          1          1          1          1          1          1          1          1          1          1          1          1          1          1          1          1          1          1          1          1          1          1          1          1          1          1          1          1          1          1          1          1          1          1          1          1          1          1          1          1          1          1          1          1          1          1          1          1          1          1          1          1          1          1          1          1          1          1          1          1          1          1          1          1          1          1          1          1          1          1          1          1          1          1          1          1          1          1          1          1          1          1          1          1          1          1          1          1          1          1          1          1          1          1          1          1          1          1          1          1          1          1          1          1          1          1          1          1          1          1          1          1          1          1          1          1          1          1          1          1          1          1          1          1          1          1          1          1          1          1          1          1          1          1          1          1          1          1          1          1          1          1          1          1          1          1          1          1          1          1          1          1          1          1          1          1          1          1          1          1          1          1          1          1          1          1          1          1          1          1          1          1          1          1          1          1          1          1          1          1          1          1          1          1          1          1          1          1          1          1          1          1          1          1          1          1          1          1          1          1          1          1          1          1          1          1          1          1          1          1          1          1          1          1          1          1          1          1          1          1          1          1          1          1          1          1          1          1          1          1          1          1          1          1          1          1          1          1          1          1          1          1          1          1          1          1          1          1          1          1          1          1          1          1          1          1          1          1          1          1          1          1          1          1          1          1          1          1          1          1          1          1          1          1          1          1          1          1          1          1          1          1          1          1          1          1          1          1          1          1          1          1          1          1          1          1          1          1          1          1          1          1          1          1          1          1          1          1          1          1          1          1          1          1          1          1          1          1          1          1          1          1          1          1          1          1          1          1          1          1          1          1          1          1          1          1          1          1          1          1          1          1          1          1          1          1          1          1          1          1          1          1          1          1          1          1          1          1          1          1          1          1          1          1          1          1          1          1          1          1          1          1          1          1          1          1          1          1          1          1          1          1          1          1          1          1          1          1          1          1          1          1          1          1          1          1          1          1          1          1          1          1          1          1          1          1          1          1          1          1          1          1          1          1          1          1          1          1          1          1          1          1          1          1          1          1          1          1          1          1          1          1          1          1          1          1          1          1          1          1          1          1          1          1          1          1          1          1          1          1          1          1          1          1          1          1          1          1          1          1          1          1          1          1          1          1          1          1          1          1          1          1          1          1          1          1          1          1          1          1          1          1          1          1          1          1          1          1          1          1          1          1          1          1          1          1          1          1          1          1          1          1          1          1          1          1          1          1          1          1          1          1          1          1          1          1          1          1          1          1          1          1          1          1          1          1          1          1          1          1          1          1          1          1          1          1          1          1          1          1          1          1          1          1          1          1          1          1          1          1          1          1          1          1          1          1          1          1          1          1          1          1          1          1          1          1          1          1          1          1          1          1          1          1          1          1          1          1          1          1          1          1          1          1          1          1          1          1          1          1          1          1          1          1          1          1          1          1          1          1          1          1          1          1          1          1          1          1          1          1          1          1          1          1          1          1          1          1          1          1          1          1          1          1          1          1          1          1          1          1          1          1          1          1          1          1          1          1          1          1          1          1          1          1          1          1          1          1          1          1          1          1          1          1          1          1          1          1          1          1          1          1          1          1          1          1          1          1          1          1          1          1          1          1          1          1          1          1          1          1          1          1          1          1          1          1          1          1          1          1          1          1          1          1          1          1          1          1          1          1          1          1          1          1          1          1          1          1          1          1          1          1          1          1          1          1          1          1          1          1          1          1          1          1 </DataArray>
</CellData>
<PointData>
<DataArray type="Float64"                                    Name="u"                                                      NumberOfComponents=" 3" format="ascii">
             -0.000008283               0.000000000               0.999999997              -0.000021868              -0.000000000               0.999999997              -0.000028709              -0.000000000               0.999999997              -0.000032975              -0.000000000               0.999999997              -0.000036395               0.000000000               0.999999997              -0.000039764              -0.000000000               0.999999997              -0.000043468               0.000000000               0.999999997              -0.000047577               0.000000000               0.999999997              -0.000052133              -0.000000000               0.999999997              -0.000057195              -0.000000000               0.999999997              -0.000062733               0.000000000               0.999999997              -0.000068761              -0.000000000               0.999999997              -0.000075295              -0.000000000               0.999999997              -0.000082389               0.000000000               0.999999997              -0.000090054               0.000000000               0.999999997              -0.000098297               0.000000000               0.999999997              -0.000107087               0.000000000               0.999999997              -0.000008237               0.000033437               0.999999997              -0.000021301               0.000029873               0.999999997              -0.000027857               0.000029113               0.999999997              -0.000032010               0.000029886               0.999999997              -0.000035430               0.000031554               0.999999997              -0.000038841               0.000033863               0.999999997              -0.000042558               0.000036602               0.999999997              -0.000046726               0.000039639               0.999999997              -0.000051377               0.000042899               0.999999997              -0.000056572               0.000046404               0.999999997              -0.000062259               0.000050086               0.999999997              -0.000068407               0.000053864               0.999999997              -0.000075057               0.000057856               0.999999997              -0.000082251               0.000061919               0.999999997              -0.000090007               0.000066036               0.999999997              -0.000098330               0.000070086               0.999999997              -0.000107217               0.000074078               0.999999997              -0.000008156               0.000066510               0.999999997              -0.000019699               0.000059435               0.999999997              -0.000025432               0.000058048               0.999999997              -0.000029251               0.000059668               0.999999997              -0.000032585               0.000063158               0.999999997              -0.000036073               0.000067822               0.999999997              -0.000040006               0.000073335               0.999999997              -0.000044496               0.000079476               0.999999997              -0.000049556               0.000086054               0.999999997              -0.000055150               0.000093151               0.999999997              -0.000061228               0.000100437               0.999999997              -0.000067810               0.000108020               0.999999997              -0.000074886               0.000115964               0.999999997              -0.000082472               0.000124194               0.999999997              -0.000090621               0.000132501               0.999999997              -0.000099325               0.000140896               0.999999997              -0.000108597               0.000149248               0.999999997              -0.000008071               0.000098867               0.999999997              -0.000017172               0.000088319               0.999999997              -0.000021683               0.000086546               0.999999997              -0.000025074               0.000089269               0.999999997              -0.000028423               0.000094678               0.999999997              -0.000032171               0.000101817               0.999999997              -0.000036578               0.000110223               0.999999997              -0.000041633               0.000119507               0.999999997              -0.000047279               0.000129446               0.999999997              -0.000053558               0.000140038               0.999999997              -0.000060412               0.000151096               0.999999997              -0.000067796               0.000162443               0.999999997              -0.000075684               0.000174298               0.999999997              -0.000084038               0.000186624               0.999999997              -0.000092906               0.000199289               0.999999997              -0.000102311               0.000212160               0.999999997              -0.000112240               0.000225294               0.999999997              -0.000007868               0.000130183               0.999999997              -0.000013798               0.000116290               0.999999997              -0.000017022               0.000114404               0.999999997              -0.000020055               0.000118444               0.999999997              -0.000023632               0.000125894               0.999999997              -0.000027985               0.000135635               0.999999997              -0.000033094               0.000147002               0.999999997              -0.000038967               0.000159484               0.999999997              -0.000045552               0.000172823               0.999999997              -0.000052804               0.000186911               0.999999997              -0.000060714               0.000201644               0.999999997              -0.000069250               0.000216737               0.999999997              -0.000078283               0.000232410               0.999999997              -0.000087785               0.000248728               0.999999997              -0.000097753               0.000265618               0.999999997              -0.000108195               0.000283108               0.999999997              -0.000119145               0.000301104               0.999999997              -0.000007598               0.000160094               0.999999997              -0.000009810               0.000143172               0.999999997              -0.000011861               0.000141468               0.999999997              -0.000014869               0.000146976               0.999999997              -0.000018956               0.000156664               0.999999997              -0.000024091               0.000169107               0.999999997              -0.000030196               0.000183409               0.999999997              -0.000037196               0.000199099               0.999999997              -0.000045014               0.000215767               0.999999997              -0.000053625               0.000233278               0.999999997              -0.000062899               0.000251646               0.999999997              -0.000072728               0.000270582               0.999999997              -0.000083070               0.000290063               0.999999997              -0.000093844               0.000310416               0.999999997              -0.000105108               0.000331680               0.999999997              -0.000116862               0.000353794               0.999999997              -0.000129018               0.000376594               0.999999997              -0.000007299               0.000188281               0.999999997              -0.000005479               0.000168811               0.999999997              -0.000006700               0.000167553               0.999999997              -0.000010055               0.000174742               0.999999997              -0.000014956               0.000186661               0.999999997              -0.000021170               0.000201777               0.999999997              -0.000028543               0.000219012               0.999999997              -0.000036922               0.000237876               0.999999997              -0.000046204               0.000257991               0.999999997              -0.000056181               0.000279014               0.999999997              -0.000066792               0.000301106               0.999999997              -0.000077936               0.000323955               0.999999997              -0.000089630               0.000347430               0.999999997              -0.000101841               0.000371982               0.999999997              -0.000114564               0.000397640               0.999999997              -0.000127688               0.000424119               0.999999997              -0.000141001               0.000451124               0.999999997              -0.000006881               0.000214505               0.999999997              -0.000001114               0.000193161               0.999999997              -0.000001965               0.000192562               0.999999997              -0.000005988               0.000201419               0.999999997              -0.000011940               0.000215582               0.999999997              -0.000019500               0.000233385               0.999999997              -0.000028358               0.000253547               0.999999997              -0.000038233               0.000275738               0.999999997              -0.000048955               0.000299327               0.999999997              -0.000060337               0.000324037               0.999999997              -0.000072380               0.000349853               0.999999997              -0.000084913               0.000376711               0.999999997              -0.000097976               0.000404427               0.999999997              -0.000111526               0.000433327               0.999999997              -0.000125470               0.000463207               0.999999997              -0.000139503               0.000493656               0.999999997              -0.000153391               0.000524061               0.999999997              -0.000006567               0.000238280               0.999999997               0.000003027               0.000216228               0.999999997               0.000002057               0.000216361               0.999999997              -0.000002879               0.000226808               0.999999997              -0.000010153               0.000243253               0.999999997              -0.000019134               0.000263769               0.999999997              -0.000029490               0.000287040               0.999999997              -0.000040826               0.000312565               0.999999997              -0.000053004               0.000339704               0.999999997              -0.000065825               0.000368238               0.999999997              -0.000079086               0.000398119               0.999999997              -0.000092745               0.000429180               0.999999997              -0.000106851               0.000461374               0.999999997              -0.000121348               0.000494540               0.999999997              -0.000135910               0.000528361               0.999999997              -0.000150341               0.000562343               0.999999997              -0.000164625               0.000596202               0.999999997              -0.000006631               0.000260412               0.999999997               0.000005802               0.000240197               0.999999997               0.000006233               0.000237978               0.999999997               0.000002197               0.000245670               0.999999997              -0.000004112               0.000259428               0.999999997              -0.000012058               0.000277280               0.999999997              -0.000021215               0.000298059               0.999999997              -0.000031388               0.000321129               0.999999997              -0.000042393               0.000346006               0.999999997              -0.000053871               0.000372343               0.999999997              -0.000065662               0.000399983               0.999999997              -0.000077550               0.000428781               0.999999997              -0.000089612               0.000458625               0.999999997              -0.000101988               0.000489345               0.999999997              -0.000114637               0.000520832               0.999999997              -0.000127355               0.000552813               0.999999997              -0.000140174               0.000585059               0.999999997              -0.000006382               0.000280360               0.999999997               0.000007510               0.000263028               0.999999997               0.000009335               0.000259800               0.999999997               0.000006419               0.000265307               0.999999997               0.000001180               0.000276682               0.999999997              -0.000005584               0.000292130               0.999999997              -0.000013485               0.000310548               0.999999997              -0.000022455               0.000331317               0.999999997              -0.000032242               0.000353929               0.999999997              -0.000042365               0.000378129               0.999999997              -0.000052605               0.000403630               0.999999997              -0.000062818               0.000430283               0.999999997              -0.000073098               0.000457816               0.999999997              -0.000083433               0.000486249               0.999999997              -0.000093865               0.000515449               0.999999997              -0.000104408               0.000545282               0.999999997              -0.000115085               0.000575575               0.999999997              -0.000005881               0.000297767               0.999999997               0.000008192               0.000284188               0.999999997               0.000011100               0.000280988               0.999999997               0.000009393               0.000285106               0.999999997               0.000005265               0.000294600               0.999999997              -0.000000149               0.000308017               0.999999997              -0.000006755               0.000324340               0.999999997              -0.000014315               0.000343040               0.999999997              -0.000022699               0.000363716               0.999999997              -0.000031412               0.000385968               0.999999997              -0.000040094               0.000409604               0.999999997              -0.000048677               0.000434333               0.999999997              -0.000057114               0.000459967               0.999999997              -0.000065547               0.000486284               0.999999997              -0.000073796               0.000513235               0.999999997              -0.000081859               0.000540917               0.999999997              -0.000089737               0.000569209               0.999999997              -0.000005112               0.000312394               0.999999997               0.000007891               0.000302952               0.999999997               0.000011383               0.000300599               0.999999997               0.000010714               0.000304046               0.999999997               0.000007817               0.000312286               0.999999997               0.000003653               0.000324148               0.999999997              -0.000001471               0.000338873               0.999999997              -0.000007513               0.000355843               0.999999997              -0.000014325               0.000374822               0.999999997              -0.000021527               0.000395515               0.999999997              -0.000028615               0.000417673               0.999999997              -0.000035457               0.000440902               0.999999997              -0.000042200               0.000465014               0.999999997              -0.000048687               0.000489787               0.999999997              -0.000054767               0.000515112               0.999999997              -0.000060329               0.000540967               0.999999997              -0.000065231               0.000567458               0.999999997              -0.000004077               0.000324058               0.999999997               0.000006716               0.000318512               0.999999997               0.000010178               0.000317486               0.999999997               0.000010236               0.000320978               0.999999997               0.000008433               0.000328456               0.999999997               0.000005511               0.000339323               0.999999997               0.000001829               0.000352779               0.999999997              -0.000002664               0.000368439               0.999999997              -0.000007831               0.000386088               0.999999997              -0.000013337               0.000405533               0.999999997              -0.000018839               0.000426485               0.999999997              -0.000024096               0.000448585               0.999999997              -0.000029054               0.000471637               0.999999997              -0.000033722               0.000495456               0.999999997              -0.000037930               0.000519877               0.999999997              -0.000041258               0.000544692               0.999999997              -0.000043359               0.000569988               0.999999997              -0.000002830               0.000332531               0.999999997               0.000004895               0.000330248               0.999999997               0.000007646               0.000330551               0.999999997               0.000007980               0.000334364               0.999999997               0.000007042               0.000341531               0.999999997               0.000005274               0.000351712               0.999999997               0.000002871               0.000364367               0.999999997              -0.000000079               0.000379191               0.999999997              -0.000003451               0.000395922               0.999999997              -0.000007236               0.000414416               0.999999997              -0.000011200               0.000434430               0.999999997              -0.000014731               0.000455765               0.999999997              -0.000017796               0.000478234               0.999999997              -0.000020756               0.000501574               0.999999997              -0.000023419               0.000525592               0.999999997              -0.000025150               0.000550131               0.999999997              -0.000025435               0.000574970               0.999999997              -0.000001449               0.000337648               0.999999997               0.000002591               0.000337501               0.999999997               0.000004091               0.000338849               0.999999997               0.000004386               0.000343027               0.999999997               0.000004016               0.000350097               0.999999997               0.000003218               0.000359889               0.999999997               0.000002002               0.000372155               0.999999997               0.000000527               0.000386558               0.999999997              -0.000001059               0.000402741               0.999999997              -0.000003032               0.000420600               0.999999997              -0.000005117               0.000440100               0.999999997              -0.000006803               0.000461109               0.999999997              -0.000008300               0.000483331               0.999999997              -0.000009726               0.000506519               0.999999997              -0.000010922               0.000530435               0.999999997              -0.000011642               0.000554907               0.999999997              -0.000011565               0.000579633               0.999999997               0.000000000               0.000339402               0.999999997              -0.000000000               0.000339972               0.999999997               0.000000000               0.000341688               0.999999997              -0.000000000               0.000345998               0.999999997               0.000000000               0.000353007               0.999999997               0.000000000               0.000362719               0.999999997              -0.000000000               0.000374942               0.999999997              -0.000000000               0.000389203               0.999999997               0.000000000               0.000405191               0.999999997               0.000000000               0.000422828               0.999999997              -0.000000000               0.000442171               0.999999997              -0.000000000               0.000463105               0.999999997              -0.000000000               0.000485218               0.999999997               0.000000000               0.000508374               0.999999997               0.000000000               0.000532306               0.999999997               0.000000000               0.000556731               0.999999997               0.000000000               0.000581434               0.999999997              -0.000008283               0.000000000               0.999999997              -0.000021868              -0.000000000               0.999999997              -0.000028709              -0.000000000               0.999999997              -0.000032975              -0.000000000               0.999999997              -0.000036395               0.000000000               0.999999997              -0.000039764              -0.000000000               0.999999997              -0.000043468               0.000000000               0.999999997              -0.000047577               0.000000000               0.999999997              -0.000052133              -0.000000000               0.999999997              -0.000057195              -0.000000000               0.999999997              -0.000062733               0.000000000               0.999999997              -0.000068761              -0.000000000               0.999999997              -0.000075295              -0.000000000               0.999999997              -0.000082389               0.000000000               0.999999997              -0.000090054               0.000000000               0.999999997              -0.000098297               0.000000000               0.999999997              -0.000107087               0.000000000               0.999999997              -0.000008237              -0.000033437               0.999999997              -0.000021301              -0.000029873               0.999999997              -0.000027857              -0.000029113               0.999999997              -0.000032010              -0.000029886               0.999999997              -0.000035430              -0.000031554               0.999999997              -0.000038841              -0.000033863               0.999999997              -0.000042558              -0.000036602               0.999999997              -0.000046726              -0.000039639               0.999999997              -0.000051377              -0.000042899               0.999999997              -0.000056572              -0.000046404               0.999999997              -0.000062259              -0.000050086               0.999999997              -0.000068407              -0.000053864               0.999999997              -0.000075057              -0.000057856               0.999999997              -0.000082251              -0.000061919               0.999999997              -0.000090007              -0.000066036               0.999999997              -0.000098330              -0.000070086               0.999999997              -0.000107217              -0.000074078               0.999999997              -0.000008156              -0.000066510               0.999999997              -0.000019699              -0.000059435               0.999999997              -0.000025432              -0.000058048               0.999999997              -0.000029251              -0.000059668               0.999999997              -0.000032585              -0.000063158               0.999999997              -0.000036073              -0.000067822               0.999999997              -0.000040006              -0.000073335               0.999999997              -0.000044496              -0.000079476               0.999999997              -0.000049556              -0.000086054               0.999999997              -0.000055150              -0.000093151               0.999999997              -0.000061228              -0.000100437               0.999999997              -0.000067810              -0.000108020               0.999999997              -0.000074886              -0.000115964               0.999999997              -0.000082472              -0.000124194               0.999999997              -0.000090621              -0.000132501               0.999999997              -0.000099325              -0.000140896               0.999999997              -0.000108597              -0.000149248               0.999999997              -0.000008071              -0.000098867               0.999999997              -0.000017172              -0.000088319               0.999999997              -0.000021683              -0.000086546               0.999999997              -0.000025074              -0.000089269               0.999999997              -0.000028423              -0.000094678               0.999999997              -0.000032171              -0.000101817               0.999999997              -0.000036578              -0.000110223               0.999999997              -0.000041633              -0.000119507               0.999999997              -0.000047279              -0.000129446               0.999999997              -0.000053558              -0.000140038               0.999999997              -0.000060412              -0.000151096               0.999999997              -0.000067796              -0.000162443               0.999999997              -0.000075684              -0.000174298               0.999999997              -0.000084038              -0.000186624               0.999999997              -0.000092906              -0.000199289               0.999999997              -0.000102311              -0.000212160               0.999999997              -0.000112240              -0.000225294               0.999999997              -0.000007868              -0.000130183               0.999999997              -0.000013798              -0.000116290               0.999999997              -0.000017022              -0.000114404               0.999999997              -0.000020055              -0.000118444               0.999999997              -0.000023632              -0.000125894               0.999999997              -0.000027985              -0.000135635               0.999999997              -0.000033094              -0.000147002               0.999999997              -0.000038967              -0.000159484               0.999999997              -0.000045552              -0.000172823               0.999999997              -0.000052804              -0.000186911               0.999999997              -0.000060714              -0.000201644               0.999999997              -0.000069250              -0.000216737               0.999999997              -0.000078283              -0.000232410               0.999999997              -0.000087785              -0.000248728               0.999999997              -0.000097753              -0.000265618               0.999999997              -0.000108195              -0.000283108               0.999999997              -0.000119145              -0.000301104               0.999999997              -0.000007598              -0.000160094               0.999999997              -0.000009810              -0.000143172               0.999999997              -0.000011861              -0.000141468               0.999999997              -0.000014869              -0.000146976               0.999999997              -0.000018956              -0.000156664               0.999999997              -0.000024091              -0.000169107               0.999999997              -0.000030196              -0.000183409               0.999999997              -0.000037196              -0.000199099               0.999999997              -0.000045014              -0.000215767               0.999999997              -0.000053625              -0.000233278               0.999999997              -0.000062899              -0.000251646               0.999999997              -0.000072728              -0.000270582               0.999999997              -0.000083070              -0.000290063               0.999999997              -0.000093844              -0.000310416               0.999999997              -0.000105108              -0.000331680               0.999999997              -0.000116862              -0.000353794               0.999999997              -0.000129018              -0.000376594               0.999999997              -0.000007299              -0.000188281               0.999999997              -0.000005479              -0.000168811               0.999999997              -0.000006700              -0.000167553               0.999999997              -0.000010055              -0.000174742               0.999999997              -0.000014956              -0.000186661               0.999999997              -0.000021170              -0.000201777               0.999999997              -0.000028543              -0.000219012               0.999999997              -0.000036922              -0.000237876               0.999999997              -0.000046204              -0.000257991               0.999999997              -0.000056181              -0.000279014               0.999999997              -0.000066792              -0.000301106               0.999999997              -0.000077936              -0.000323955               0.999999997              -0.000089630              -0.000347430               0.999999997              -0.000101841              -0.000371982               0.999999997              -0.000114564              -0.000397640               0.999999997              -0.000127688              -0.000424119               0.999999997              -0.000141001              -0.000451124               0.999999997              -0.000006881              -0.000214505               0.999999997              -0.000001114              -0.000193161               0.999999997              -0.000001965              -0.000192562               0.999999997              -0.000005988              -0.000201419               0.999999997              -0.000011940              -0.000215582               0.999999997              -0.000019500              -0.000233385               0.999999997              -0.000028358              -0.000253547               0.999999997              -0.000038233              -0.000275738               0.999999997              -0.000048955              -0.000299327               0.999999997              -0.000060337              -0.000324037               0.999999997              -0.000072380              -0.000349853               0.999999997              -0.000084913              -0.000376711               0.999999997              -0.000097976              -0.000404427               0.999999997              -0.000111526              -0.000433327               0.999999997              -0.000125470              -0.000463207               0.999999997              -0.000139503              -0.000493656               0.999999997              -0.000153391              -0.000524061               0.999999997              -0.000006567              -0.000238280               0.999999997               0.000003027              -0.000216228               0.999999997               0.000002057              -0.000216361               0.999999997              -0.000002879              -0.000226808               0.999999997              -0.000010153              -0.000243253               0.999999997              -0.000019134              -0.000263769               0.999999997              -0.000029490              -0.000287040               0.999999997              -0.000040826              -0.000312565               0.999999997              -0.000053004              -0.000339704               0.999999997              -0.000065825              -0.000368238               0.999999997              -0.000079086              -0.000398119               0.999999997              -0.000092745              -0.000429180               0.999999997              -0.000106851              -0.000461374               0.999999997              -0.000121348              -0.000494540               0.999999997              -0.000135910              -0.000528361               0.999999997              -0.000150341              -0.000562343               0.999999997              -0.000164625              -0.000596202               0.999999997              -0.000006631              -0.000260412               0.999999997               0.000005802              -0.000240197               0.999999997               0.000006233              -0.000237978               0.999999997               0.000002197              -0.000245670               0.999999997              -0.000004112              -0.000259428               0.999999997              -0.000012058              -0.000277280               0.999999997              -0.000021215              -0.000298059               0.999999997              -0.000031388              -0.000321129               0.999999997              -0.000042393              -0.000346006               0.999999997              -0.000053871              -0.000372343               0.999999997              -0.000065662              -0.000399983               0.999999997              -0.000077550              -0.000428781               0.999999997              -0.000089612              -0.000458625               0.999999997              -0.000101988              -0.000489345               0.999999997              -0.000114637              -0.000520832               0.999999997              -0.000127355              -0.000552813               0.999999997              -0.000140174              -0.000585059               0.999999997              -0.000006382              -0.000280360               0.999999997               0.000007510              -0.000263028               0.999999997               0.000009335              -0.000259800               0.999999997               0.000006419              -0.000265307               0.999999997               0.000001180              -0.000276682               0.999999997              -0.000005584              -0.000292130               0.999999997              -0.000013485              -0.000310548               0.999999997              -0.000022455              -0.000331317               0.999999997              -0.000032242              -0.000353929               0.999999997              -0.000042365              -0.000378129               0.999999997              -0.000052605              -0.000403630               0.999999997              -0.000062818              -0.000430283               0.999999997              -0.000073098              -0.000457816               0.999999997              -0.000083433              -0.000486249               0.999999997              -0.000093865              -0.000515449               0.999999997              -0.000104408              -0.000545282               0.999999997              -0.000115085              -0.000575575               0.999999997              -0.000005881              -0.000297767               0.999999997               0.000008192              -0.000284188               0.999999997               0.000011100              -0.000280988               0.999999997               0.000009393              -0.000285106               0.999999997               0.000005265              -0.000294600               0.999999997              -0.000000149              -0.000308017               0.999999997              -0.000006755              -0.000324340               0.999999997              -0.000014315              -0.000343040               0.999999997              -0.000022699              -0.000363716               0.999999997              -0.000031412              -0.000385968               0.999999997              -0.000040094              -0.000409604               0.999999997              -0.000048677              -0.000434333               0.999999997              -0.000057114              -0.000459967               0.999999997              -0.000065547              -0.000486284               0.999999997              -0.000073796              -0.000513235               0.999999997              -0.000081859              -0.000540917               0.999999997              -0.000089737              -0.000569209               0.999999997              -0.000005112              -0.000312394               0.999999997               0.000007891              -0.000302952               0.999999997               0.000011383              -0.000300599               0.999999997               0.000010714              -0.000304046               0.999999997               0.000007817              -0.000312286               0.999999997               0.000003653              -0.000324148               0.999999997              -0.000001471              -0.000338873               0.999999997              -0.000007513              -0.000355843               0.999999997              -0.000014325              -0.000374822               0.999999997              -0.000021527              -0.000395515               0.999999997              -0.000028615              -0.000417673               0.999999997              -0.000035457              -0.000440902               0.999999997              -0.000042200              -0.000465014               0.999999997              -0.000048687              -0.000489787               0.999999997              -0.000054767              -0.000515112               0.999999997              -0.000060329              -0.000540967               0.999999997              -0.000065231              -0.000567458               0.999999997              -0.000004077              -0.000324058               0.999999997               0.000006716              -0.000318512               0.999999997               0.000010178              -0.000317486               0.999999997               0.000010236              -0.000320978               0.999999997               0.000008433              -0.000328456               0.999999997               0.000005511              -0.000339323               0.999999997               0.000001829              -0.000352779               0.999999997              -0.000002664              -0.000368439               0.999999997              -0.000007831              -0.000386088               0.999999997              -0.000013337              -0.000405533               0.999999997              -0.000018839              -0.000426485               0.999999997              -0.000024096              -0.000448585               0.999999997              -0.000029054              -0.000471637               0.999999997              -0.000033722              -0.000495456               0.999999997              -0.000037930              -0.000519877               0.999999997              -0.000041258              -0.000544692               0.999999997              -0.000043359              -0.000569988               0.999999997              -0.000002830              -0.000332531               0.999999997               0.000004895              -0.000330248               0.999999997               0.000007646              -0.000330551               0.999999997               0.000007980              -0.000334364               0.999999997               0.000007042              -0.000341531               0.999999997               0.000005274              -0.000351712               0.999999997               0.000002871              -0.000364367               0.999999997              -0.000000079              -0.000379191               0.999999997              -0.000003451              -0.000395922               0.999999997              -0.000007236              -0.000414416               0.999999997              -0.000011200              -0.000434430               0.999999997              -0.000014731              -0.000455765               0.999999997              -0.000017796              -0.000478234               0.999999997              -0.000020756              -0.000501574               0.999999997              -0.000023419              -0.000525592               0.999999997              -0.000025150              -0.000550131               0.999999997              -0.000025435              -0.000574970               0.999999997              -0.000001449              -0.000337648               0.999999997               0.000002591              -0.000337501               0.999999997               0.000004091              -0.000338849               0.999999997               0.000004386              -0.000343027               0.999999997               0.000004016              -0.000350097               0.999999997               0.000003218              -0.000359889               0.999999997               0.000002002              -0.000372155               0.999999997               0.000000527              -0.000386558               0.999999997              -0.000001059              -0.000402741               0.999999997              -0.000003032              -0.000420600               0.999999997              -0.000005117              -0.000440100               0.999999997              -0.000006803              -0.000461109               0.999999997              -0.000008300              -0.000483331               0.999999997              -0.000009726              -0.000506519               0.999999997              -0.000010922              -0.000530435               0.999999997              -0.000011642              -0.000554907               0.999999997              -0.000011565              -0.000579633               0.999999997              -0.000000000              -0.000339402               0.999999997               0.000000000              -0.000339972               0.999999997              -0.000000000              -0.000341688               0.999999997              -0.000000000              -0.000345998               0.999999997               0.000000000              -0.000353007               0.999999997               0.000000000              -0.000362719               0.999999997              -0.000000000              -0.000374942               0.999999997              -0.000000000              -0.000389203               0.999999997               0.000000000              -0.000405191               0.999999997               0.000000000              -0.000422828               0.999999997              -0.000000000              -0.000442171               0.999999997               0.000000000              -0.000463105               0.999999997               0.000000000              -0.000485218               0.999999997              -0.000000000              -0.000508374               0.999999997               0.000000000              -0.000532306               0.999999997               0.000000000              -0.000556731               0.999999997               0.000000000              -0.000581434               0.999999997               0.000008283              -0.000000000               0.999999997               0.000021868              -0.000000000               0.999999997               0.000028709              -0.000000000               0.999999997               0.000032975              -0.000000000               0.999999997               0.000036395              -0.000000000               0.999999997               0.000039764              -0.000000000               0.999999997               0.000043468               0.000000000               0.999999997               0.000047577              -0.000000000               0.999999997               0.000052133               0.000000000               0.999999997               0.000057195               0.000000000               0.999999997               0.000062733               0.000000000               0.999999997               0.000068761               0.000000000               0.999999997               0.000075295               0.000000000               0.999999997               0.000082389               0.000000000               0.999999997               0.000090054               0.000000000               0.999999997               0.000098297               0.000000000               0.999999997               0.000107087               0.000000000               0.999999997               0.000008237              -0.000033437               0.999999997               0.000021301              -0.000029873               0.999999997               0.000027857              -0.000029113               0.999999997               0.000032010              -0.000029886               0.999999997               0.000035430              -0.000031554               0.999999997               0.000038841              -0.000033863               0.999999997               0.000042558              -0.000036602               0.999999997               0.000046726              -0.000039639               0.999999997               0.000051377              -0.000042899               0.999999997               0.000056572              -0.000046404               0.999999997               0.000062259              -0.000050086               0.999999997               0.000068407              -0.000053864               0.999999997               0.000075057              -0.000057856               0.999999997               0.000082251              -0.000061919               0.999999997               0.000090007              -0.000066036               0.999999997               0.000098330              -0.000070086               0.999999997               0.000107217              -0.000074078               0.999999997               0.000008156              -0.000066510               0.999999997               0.000019699              -0.000059435               0.999999997               0.000025432              -0.000058048               0.999999997               0.000029251              -0.000059668               0.999999997               0.000032585              -0.000063158               0.999999997               0.000036073              -0.000067822               0.999999997               0.000040006              -0.000073335               0.999999997               0.000044496              -0.000079476               0.999999997               0.000049556              -0.000086054               0.999999997               0.000055150              -0.000093151               0.999999997               0.000061228              -0.000100437               0.999999997               0.000067810              -0.000108020               0.999999997               0.000074886              -0.000115964               0.999999997               0.000082472              -0.000124194               0.999999997               0.000090621              -0.000132501               0.999999997               0.000099325              -0.000140896               0.999999997               0.000108597              -0.000149248               0.999999997               0.000008071              -0.000098867               0.999999997               0.000017172              -0.000088319               0.999999997               0.000021683              -0.000086546               0.999999997               0.000025074              -0.000089269               0.999999997               0.000028423              -0.000094678               0.999999997               0.000032171              -0.000101817               0.999999997               0.000036578              -0.000110223               0.999999997               0.000041633              -0.000119507               0.999999997               0.000047279              -0.000129446               0.999999997               0.000053558              -0.000140038               0.999999997               0.000060412              -0.000151096               0.999999997               0.000067796              -0.000162443               0.999999997               0.000075684              -0.000174298               0.999999997               0.000084038              -0.000186624               0.999999997               0.000092906              -0.000199289               0.999999997               0.000102311              -0.000212160               0.999999997               0.000112240              -0.000225294               0.999999997               0.000007868              -0.000130183               0.999999997               0.000013798              -0.000116290               0.999999997               0.000017022              -0.000114404               0.999999997               0.000020055              -0.000118444               0.999999997               0.000023632              -0.000125894               0.999999997               0.000027985              -0.000135635               0.999999997               0.000033094              -0.000147002               0.999999997               0.000038967              -0.000159484               0.999999997               0.000045552              -0.000172823               0.999999997               0.000052804              -0.000186911               0.999999997               0.000060714              -0.000201644               0.999999997               0.000069250              -0.000216737               0.999999997               0.000078283              -0.000232410               0.999999997               0.000087785              -0.000248728               0.999999997               0.000097753              -0.000265618               0.999999997               0.000108195              -0.000283108               0.999999997               0.000119145              -0.000301104               0.999999997               0.000007598              -0.000160094               0.999999997               0.000009810              -0.000143172               0.999999997               0.000011861              -0.000141468               0.999999997               0.000014869              -0.000146976               0.999999997               0.000018956              -0.000156664               0.999999997               0.000024091              -0.000169107               0.999999997               0.000030196              -0.000183409               0.999999997               0.000037196              -0.000199099               0.999999997               0.000045014              -0.000215767               0.999999997               0.000053625              -0.000233278               0.999999997               0.000062899              -0.000251646               0.999999997               0.000072728              -0.000270582               0.999999997               0.000083070              -0.000290063               0.999999997               0.000093844              -0.000310416               0.999999997               0.000105108              -0.000331680               0.999999997               0.000116862              -0.000353794               0.999999997               0.000129018              -0.000376594               0.999999997               0.000007299              -0.000188281               0.999999997               0.000005479              -0.000168811               0.999999997               0.000006700              -0.000167553               0.999999997               0.000010055              -0.000174742               0.999999997               0.000014956              -0.000186661               0.999999997               0.000021170              -0.000201777               0.999999997               0.000028543              -0.000219012               0.999999997               0.000036922              -0.000237876               0.999999997               0.000046204              -0.000257991               0.999999997               0.000056181              -0.000279014               0.999999997               0.000066792              -0.000301106               0.999999997               0.000077936              -0.000323955               0.999999997               0.000089630              -0.000347430               0.999999997               0.000101841              -0.000371982               0.999999997               0.000114564              -0.000397640               0.999999997               0.000127688              -0.000424119               0.999999997               0.000141001              -0.000451124               0.999999997               0.000006881              -0.000214505               0.999999997               0.000001114              -0.000193161               0.999999997               0.000001965              -0.000192562               0.999999997               0.000005988              -0.000201419               0.999999997               0.000011940              -0.000215582               0.999999997               0.000019500              -0.000233385               0.999999997               0.000028358              -0.000253547               0.999999997               0.000038233              -0.000275738               0.999999997               0.000048955              -0.000299327               0.999999997               0.000060337              -0.000324037               0.999999997               0.000072380              -0.000349853               0.999999997               0.000084913              -0.000376711               0.999999997               0.000097976              -0.000404427               0.999999997               0.000111526              -0.000433327               0.999999997               0.000125470              -0.000463207               0.999999997               0.000139503              -0.000493656               0.999999997               0.000153391              -0.000524061               0.999999997               0.000006567              -0.000238280               0.999999997              -0.000003027              -0.000216228               0.999999997              -0.000002057              -0.000216361               0.999999997               0.000002879              -0.000226808               0.999999997               0.000010153              -0.000243253               0.999999997               0.000019134              -0.000263769               0.999999997               0.000029490              -0.000287040               0.999999997               0.000040826              -0.000312565               0.999999997               0.000053004              -0.000339704               0.999999997               0.000065825              -0.000368238               0.999999997               0.000079086              -0.000398119               0.999999997               0.000092745              -0.000429180               0.999999997               0.000106851              -0.000461374               0.999999997               0.000121348              -0.000494540               0.999999997               0.000135910              -0.000528361               0.999999997               0.000150341              -0.000562343               0.999999997               0.000164625              -0.000596202               0.999999997               0.000006631              -0.000260412               0.999999997              -0.000005802              -0.000240197               0.999999997              -0.000006233              -0.000237978               0.999999997              -0.000002197              -0.000245670               0.999999997               0.000004112              -0.000259428               0.999999997               0.000012058              -0.000277280               0.999999997               0.000021215              -0.000298059               0.999999997               0.000031388              -0.000321129               0.999999997               0.000042393              -0.000346006               0.999999997               0.000053871              -0.000372343               0.999999997               0.000065662              -0.000399983               0.999999997               0.000077550              -0.000428781               0.999999997               0.000089612              -0.000458625               0.999999997               0.000101988              -0.000489345               0.999999997               0.000114637              -0.000520832               0.999999997               0.000127355              -0.000552813               0.999999997               0.000140174              -0.000585059               0.999999997               0.000006382              -0.000280360               0.999999997              -0.000007510              -0.000263028               0.999999997              -0.000009335              -0.000259800               0.999999997              -0.000006419              -0.000265307               0.999999997              -0.000001180              -0.000276682               0.999999997               0.000005584              -0.000292130               0.999999997               0.000013485              -0.000310548               0.999999997               0.000022455              -0.000331317               0.999999997               0.000032242              -0.000353929               0.999999997               0.000042365              -0.000378129               0.999999997               0.000052605              -0.000403630               0.999999997               0.000062818              -0.000430283               0.999999997               0.000073098              -0.000457816               0.999999997               0.000083433              -0.000486249               0.999999997               0.000093865              -0.000515449               0.999999997               0.000104408              -0.000545282               0.999999997               0.000115085              -0.000575575               0.999999997               0.000005881              -0.000297767               0.999999997              -0.000008192              -0.000284188               0.999999997              -0.000011100              -0.000280988               0.999999997              -0.000009393              -0.000285106               0.999999997              -0.000005265              -0.000294600               0.999999997               0.000000149              -0.000308017               0.999999997               0.000006755              -0.000324340               0.999999997               0.000014315              -0.000343040               0.999999997               0.000022699              -0.000363716               0.999999997               0.000031412              -0.000385968               0.999999997               0.000040094              -0.000409604               0.999999997               0.000048677              -0.000434333               0.999999997               0.000057114              -0.000459967               0.999999997               0.000065547              -0.000486284               0.999999997               0.000073796              -0.000513235               0.999999997               0.000081859              -0.000540917               0.999999997               0.000089737              -0.000569209               0.999999997               0.000005112              -0.000312394               0.999999997              -0.000007891              -0.000302952               0.999999997              -0.000011383              -0.000300599               0.999999997              -0.000010714              -0.000304046               0.999999997              -0.000007817              -0.000312286               0.999999997              -0.000003653              -0.000324148               0.999999997               0.000001471              -0.000338873               0.999999997               0.000007513              -0.000355843               0.999999997               0.000014325              -0.000374822               0.999999997               0.000021527              -0.000395515               0.999999997               0.000028615              -0.000417673               0.999999997               0.000035457              -0.000440902               0.999999997               0.000042200              -0.000465014               0.999999997               0.000048687              -0.000489787               0.999999997               0.000054767              -0.000515112               0.999999997               0.000060329              -0.000540967               0.999999997               0.000065231              -0.000567458               0.999999997               0.000004077              -0.000324058               0.999999997              -0.000006716              -0.000318512               0.999999997              -0.000010178              -0.000317486               0.999999997              -0.000010236              -0.000320978               0.999999997              -0.000008433              -0.000328456               0.999999997              -0.000005511              -0.000339323               0.999999997              -0.000001829              -0.000352779               0.999999997               0.000002664              -0.000368439               0.999999997               0.000007831              -0.000386088               0.999999997               0.000013337              -0.000405533               0.999999997               0.000018839              -0.000426485               0.999999997               0.000024096              -0.000448585               0.999999997               0.000029054              -0.000471637               0.999999997               0.000033722              -0.000495456               0.999999997               0.000037930              -0.000519877               0.999999997               0.000041258              -0.000544692               0.999999997               0.000043359              -0.000569988               0.999999997               0.000002830              -0.000332531               0.999999997              -0.000004895              -0.000330248               0.999999997              -0.000007646              -0.000330551               0.999999997              -0.000007980              -0.000334364               0.999999997              -0.000007042              -0.000341531               0.999999997              -0.000005274              -0.000351712               0.999999997              -0.000002871              -0.000364367               0.999999997               0.000000079              -0.000379191               0.999999997               0.000003451              -0.000395922               0.999999997               0.000007236              -0.000414416               0.999999997               0.000011200              -0.000434430               0.999999997               0.000014731              -0.000455765               0.999999997               0.000017796              -0.000478234               0.999999997               0.000020756              -0.000501574               0.999999997               0.000023419              -0.000525592               0.999999997               0.000025150              -0.000550131               0.999999997               0.000025435              -0.000574970               0.999999997               0.000001449              -0.000337648               0.999999997              -0.000002591              -0.000337501               0.999999997              -0.000004091              -0.000338849               0.999999997              -0.000004386              -0.000343027               0.999999997              -0.000004016              -0.000350097               0.999999997              -0.000003218              -0.000359889               0.999999997              -0.000002002              -0.000372155               0.999999997              -0.000000527              -0.000386558               0.999999997               0.000001059              -0.000402741               0.999999997               0.000003032              -0.000420600               0.999999997               0.000005117              -0.000440100               0.999999997               0.000006803              -0.000461109               0.999999997               0.000008300              -0.000483331               0.999999997               0.000009726              -0.000506519               0.999999997               0.000010922              -0.000530435               0.999999997               0.000011642              -0.000554907               0.999999997               0.000011565              -0.000579633               0.999999997              -0.000000000              -0.000339402               0.999999997               0.000000000              -0.000339972               0.999999997              -0.000000000              -0.000341688               0.999999997              -0.000000000              -0.000345998               0.999999997               0.000000000              -0.000353007               0.999999997               0.000000000              -0.000362719               0.999999997              -0.000000000              -0.000374942               0.999999997              -0.000000000              -0.000389203               0.999999997               0.000000000              -0.000405191               0.999999997               0.000000000              -0.000422828               0.999999997              -0.000000000              -0.000442171               0.999999997               0.000000000              -0.000463105               0.999999997               0.000000000              -0.000485218               0.999999997              -0.000000000              -0.000508374               0.999999997               0.000000000              -0.000532306               0.999999997               0.000000000              -0.000556731               0.999999997               0.000000000              -0.000581434               0.999999997               0.000008283              -0.000000000               0.999999997               0.000021868              -0.000000000               0.999999997               0.000028709              -0.000000000               0.999999997               0.000032975              -0.000000000               0.999999997               0.000036395              -0.000000000               0.999999997               0.000039764              -0.000000000               0.999999997               0.000043468               0.000000000               0.999999997               0.000047577              -0.000000000               0.999999997               0.000052133               0.000000000               0.999999997               0.000057195               0.000000000               0.999999997               0.000062733               0.000000000               0.999999997               0.000068761               0.000000000               0.999999997               0.000075295               0.000000000               0.999999997               0.000082389               0.000000000               0.999999997               0.000090054               0.000000000               0.999999997               0.000098297               0.000000000               0.999999997               0.000107087               0.000000000               0.999999997               0.000008237               0.000033437               0.999999997               0.000021301               0.000029873               0.999999997               0.000027857               0.000029113               0.999999997               0.000032010               0.000029886               0.999999997               0.000035430               0.000031554               0.999999997               0.000038841               0.000033863               0.999999997               0.000042558               0.000036602               0.999999997               0.000046726               0.000039639               0.999999997               0.000051377               0.000042899               0.999999997               0.000056572               0.000046404               0.999999997               0.000062259               0.000050086               0.999999997               0.000068407               0.000053864               0.999999997               0.000075057               0.000057856               0.999999997               0.000082251               0.000061919               0.999999997               0.000090007               0.000066036               0.999999997               0.000098330               0.000070086               0.999999997               0.000107217               0.000074078               0.999999997               0.000008156               0.000066510               0.999999997               0.000019699               0.000059435               0.999999997               0.000025432               0.000058048               0.999999997               0.000029251               0.000059668               0.999999997               0.000032585               0.000063158               0.999999997               0.000036073               0.000067822               0.999999997               0.000040006               0.000073335               0.999999997               0.000044496               0.000079476               0.999999997               0.000049556               0.000086054               0.999999997               0.000055150               0.000093151               0.999999997               0.000061228               0.000100437               0.999999997               0.000067810               0.000108020               0.999999997               0.000074886               0.000115964               0.999999997               0.000082472               0.000124194               0.999999997               0.000090621               0.000132501               0.999999997               0.000099325               0.000140896               0.999999997               0.000108597               0.000149248               0.999999997               0.000008071               0.000098867               0.999999997               0.000017172               0.000088319               0.999999997               0.000021683               0.000086546               0.999999997               0.000025074               0.000089269               0.999999997               0.000028423               0.000094678               0.999999997               0.000032171               0.000101817               0.999999997               0.000036578               0.000110223               0.999999997               0.000041633               0.000119507               0.999999997               0.000047279               0.000129446               0.999999997               0.000053558               0.000140038               0.999999997               0.000060412               0.000151096               0.999999997               0.000067796               0.000162443               0.999999997               0.000075684               0.000174298               0.999999997               0.000084038               0.000186624               0.999999997               0.000092906               0.000199289               0.999999997               0.000102311               0.000212160               0.999999997               0.000112240               0.000225294               0.999999997               0.000007868               0.000130183               0.999999997               0.000013798               0.000116290               0.999999997               0.000017022               0.000114404               0.999999997               0.000020055               0.000118444               0.999999997               0.000023632               0.000125894               0.999999997               0.000027985               0.000135635               0.999999997               0.000033094               0.000147002               0.999999997               0.000038967               0.000159484               0.999999997               0.000045552               0.000172823               0.999999997               0.000052804               0.000186911               0.999999997               0.000060714               0.000201644               0.999999997               0.000069250               0.000216737               0.999999997               0.000078283               0.000232410               0.999999997               0.000087785               0.000248728               0.999999997               0.000097753               0.000265618               0.999999997               0.000108195               0.000283108               0.999999997               0.000119145               0.000301104               0.999999997               0.000007598               0.000160094               0.999999997               0.000009810               0.000143172               0.999999997               0.000011861               0.000141468               0.999999997               0.000014869               0.000146976               0.999999997               0.000018956               0.000156664               0.999999997               0.000024091               0.000169107               0.999999997               0.000030196               0.000183409               0.999999997               0.000037196               0.000199099               0.999999997               0.000045014               0.000215767               0.999999997               0.000053625               0.000233278               0.999999997               0.000062899               0.000251646               0.999999997               0.000072728               0.000270582               0.999999997               0.000083070               0.000290063               0.999999997               0.000093844               0.000310416               0.999999997               0.000105108               0.000331680               0.999999997               0.000116862               0.000353794               0.999999997               0.000129018               0.000376594               0.999999997               0.000007299               0.000188281               0.999999997               0.000005479               0.000168811               0.999999997               0.000006700               0.000167553               0.999999997               0.000010055               0.000174742               0.999999997               0.000014956               0.000186661               0.999999997               0.000021170               0.000201777               0.999999997               0.000028543               0.000219012               0.999999997               0.000036922               0.000237876               0.999999997               0.000046204               0.000257991               0.999999997               0.000056181               0.000279014               0.999999997               0.000066792               0.000301106               0.999999997               0.000077936               0.000323955               0.999999997               0.000089630               0.000347430               0.999999997               0.000101841               0.000371982               0.999999997               0.000114564               0.000397640               0.999999997               0.000127688               0.000424119               0.999999997               0.000141001               0.000451124               0.999999997               0.000006881               0.000214505               0.999999997               0.000001114               0.000193161               0.999999997               0.000001965               0.000192562               0.999999997               0.000005988               0.000201419               0.999999997               0.000011940               0.000215582               0.999999997               0.000019500               0.000233385               0.999999997               0.000028358               0.000253547               0.999999997               0.000038233               0.000275738               0.999999997               0.000048955               0.000299327               0.999999997               0.000060337               0.000324037               0.999999997               0.000072380               0.000349853               0.999999997               0.000084913               0.000376711               0.999999997               0.000097976               0.000404427               0.999999997               0.000111526               0.000433327               0.999999997               0.000125470               0.000463207               0.999999997               0.000139503               0.000493656               0.999999997               0.000153391               0.000524061               0.999999997               0.000006567               0.000238280               0.999999997              -0.000003027               0.000216228               0.999999997              -0.000002057               0.000216361               0.999999997               0.000002879               0.000226808               0.999999997               0.000010153               0.000243253               0.999999997               0.000019134               0.000263769               0.999999997               0.000029490               0.000287040               0.999999997               0.000040826               0.000312565               0.999999997               0.000053004               0.000339704               0.999999997               0.000065825               0.000368238               0.999999997               0.000079086               0.000398119               0.999999997               0.000092745               0.000429180               0.999999997               0.000106851               0.000461374               0.999999997               0.000121348               0.000494540               0.999999997               0.000135910               0.000528361               0.999999997               0.000150341               0.000562343               0.999999997               0.000164625               0.000596202               0.999999997               0.000006631               0.000260412               0.999999997              -0.000005802               0.000240197               0.999999997              -0.000006233               0.000237978               0.999999997              -0.000002197               0.000245670               0.999999997               0.000004112               0.000259428               0.999999997               0.000012058               0.000277280               0.999999997               0.000021215               0.000298059               0.999999997               0.000031388               0.000321129               0.999999997               0.000042393               0.000346006               0.999999997               0.000053871               0.000372343               0.999999997               0.000065662               0.000399983               0.999999997               0.000077550               0.000428781               0.999999997               0.000089612               0.000458625               0.999999997               0.000101988               0.000489345               0.999999997               0.000114637               0.000520832               0.999999997               0.000127355               0.000552813               0.999999997               0.000140174               0.000585059               0.999999997               0.000006382               0.000280360               0.999999997              -0.000007510               0.000263028               0.999999997              -0.000009335               0.000259800               0.999999997              -0.000006419               0.000265307               0.999999997              -0.000001180               0.000276682               0.999999997               0.000005584               0.000292130               0.999999997               0.000013485               0.000310548               0.999999997               0.000022455               0.000331317               0.999999997               0.000032242               0.000353929               0.999999997               0.000042365               0.000378129               0.999999997               0.000052605               0.000403630               0.999999997               0.000062818               0.000430283               0.999999997               0.000073098               0.000457816               0.999999997               0.000083433               0.000486249               0.999999997               0.000093865               0.000515449               0.999999997               0.000104408               0.000545282               0.999999997               0.000115085               0.000575575               0.999999997               0.000005881               0.000297767               0.999999997              -0.000008192               0.000284188               0.999999997              -0.000011100               0.000280988               0.999999997              -0.000009393               0.000285106               0.999999997              -0.000005265               0.000294600               0.999999997               0.000000149               0.000308017               0.999999997               0.000006755               0.000324340               0.999999997               0.000014315               0.000343040               0.999999997               0.000022699               0.000363716               0.999999997               0.000031412               0.000385968               0.999999997               0.000040094               0.000409604               0.999999997               0.000048677               0.000434333               0.999999997               0.000057114               0.000459967               0.999999997               0.000065547               0.000486284               0.999999997               0.000073796               0.000513235               0.999999997               0.000081859               0.000540917               0.999999997               0.000089737               0.000569209               0.999999997               0.000005112               0.000312394               0.999999997              -0.000007891               0.000302952               0.999999997              -0.000011383               0.000300599               0.999999997              -0.000010714               0.000304046               0.999999997              -0.000007817               0.000312286               0.999999997              -0.000003653               0.000324148               0.999999997               0.000001471               0.000338873               0.999999997               0.000007513               0.000355843               0.999999997               0.000014325               0.000374822               0.999999997               0.000021527               0.000395515               0.999999997               0.000028615               0.000417673               0.999999997               0.000035457               0.000440902               0.999999997               0.000042200               0.000465014               0.999999997               0.000048687               0.000489787               0.999999997               0.000054767               0.000515112               0.999999997               0.000060329               0.000540967               0.999999997               0.000065231               0.000567458               0.999999997               0.000004077               0.000324058               0.999999997              -0.000006716               0.000318512               0.999999997              -0.000010178               0.000317486               0.999999997              -0.000010236               0.000320978               0.999999997              -0.000008433               0.000328456               0.999999997              -0.000005511               0.000339323               0.999999997              -0.000001829               0.000352779               0.999999997               0.000002664               0.000368439               0.999999997               0.000007831               0.000386088               0.999999997               0.000013337               0.000405533               0.999999997               0.000018839               0.000426485               0.999999997               0.000024096               0.000448585               0.999999997               0.000029054               0.000471637               0.999999997               0.000033722               0.000495456               0.999999997               0.000037930               0.000519877               0.999999997               0.000041258               0.000544692               0.999999997               0.000043359               0.000569988               0.999999997               0.000002830               0.000332531               0.999999997              -0.000004895               0.000330248               0.999999997              -0.000007646               0.000330551               0.999999997              -0.000007980               0.000334364               0.999999997              -0.000007042               0.000341531               0.999999997              -0.000005274               0.000351712               0.999999997              -0.000002871               0.000364367               0.999999997               0.000000079               0.000379191               0.999999997               0.000003451               0.000395922               0.999999997               0.000007236               0.000414416               0.999999997               0.000011200               0.000434430               0.999999997               0.000014731               0.000455765               0.999999997               0.000017796               0.000478234               0.999999997               0.000020756               0.000501574               0.999999997               0.000023419               0.000525592               0.999999997               0.000025150               0.000550131               0.999999997               0.000025435               0.000574970               0.999999997               0.000001449               0.000337648               0.999999997              -0.000002591               0.000337501               0.999999997              -0.000004091               0.000338849               0.999999997              -0.000004386               0.000343027               0.999999997              -0.000004016               0.000350097               0.999999997              -0.000003218               0.000359889               0.999999997              -0.000002002               0.000372155               0.999999997              -0.000000527               0.000386558               0.999999997               0.000001059               0.000402741               0.999999997               0.000003032               0.000420600               0.999999997               0.000005117               0.000440100               0.999999997               0.000006803               0.000461109               0.999999997               0.000008300               0.000483331               0.999999997               0.000009726               0.000506519               0.999999997               0.000010922               0.000530435               0.999999997               0.000011642               0.000554907               0.999999997               0.000011565               0.000579633               0.999999997               0.000000000               0.000339402               0.999999997              -0.000000000               0.000339972               0.999999997               0.000000000               0.000341688               0.999999997              -0.000000000               0.000345998               0.999999997               0.000000000               0.000353007               0.999999997               0.000000000               0.000362719               0.999999997              -0.000000000               0.000374942               0.999999997              -0.000000000               0.000389203               0.999999997               0.000000000               0.000405191               0.999999997               0.000000000               0.000422828               0.999999997              -0.000000000               0.000442171               0.999999997              -0.000000000               0.000463105               0.999999997              -0.000000000               0.000485218               0.999999997               0.000000000               0.000508374               0.999999997               0.000000000               0.000532306               0.999999997               0.000000000               0.000556731               0.999999997               0.000000000               0.000581434               0.999999997 </DataArray>
<DataArray type="Float64"                                    Name="defo"                                                      NumberOfComponents=" 3" format="ascii">
             -0.000008283               0.000000000               0.999999997              -0.000021868              -0.000000000               0.999999997              -0.000028709              -0.000000000               0.999999997              -0.000032975              -0.000000000               0.999999997              -0.000036395               0.000000000               0.999999997              -0.000039764              -0.000000000               0.999999997              -0.000043468               0.000000000               0.999999997              -0.000047577               0.000000000               0.999999997              -0.000052133              -0.000000000               0.999999997              -0.000057195              -0.000000000               0.999999997              -0.000062733               0.000000000               0.999999997              -0.000068761              -0.000000000               0.999999997              -0.000075295              -0.000000000               0.999999997              -0.000082389               0.000000000               0.999999997              -0.000090054               0.000000000               0.999999997              -0.000098297               0.000000000               0.999999997              -0.000107087               0.000000000               0.999999997              -0.000008237               0.000033437               0.999999997              -0.000021301               0.000029873               0.999999997              -0.000027857               0.000029113               0.999999997              -0.000032010               0.000029886               0.999999997              -0.000035430               0.000031554               0.999999997              -0.000038841               0.000033863               0.999999997              -0.000042558               0.000036602               0.999999997              -0.000046726               0.000039639               0.999999997              -0.000051377               0.000042899               0.999999997              -0.000056572               0.000046404               0.999999997              -0.000062259               0.000050086               0.999999997              -0.000068407               0.000053864               0.999999997              -0.000075057               0.000057856               0.999999997              -0.000082251               0.000061919               0.999999997              -0.000090007               0.000066036               0.999999997              -0.000098330               0.000070086               0.999999997              -0.000107217               0.000074078               0.999999997              -0.000008156               0.000066510               0.999999997              -0.000019699               0.000059435               0.999999997              -0.000025432               0.000058048               0.999999997              -0.000029251               0.000059668               0.999999997              -0.000032585               0.000063158               0.999999997              -0.000036073               0.000067822               0.999999997              -0.000040006               0.000073335               0.999999997              -0.000044496               0.000079476               0.999999997              -0.000049556               0.000086054               0.999999997              -0.000055150               0.000093151               0.999999997              -0.000061228               0.000100437               0.999999997              -0.000067810               0.000108020               0.999999997              -0.000074886               0.000115964               0.999999997              -0.000082472               0.000124194               0.999999997              -0.000090621               0.000132501               0.999999997              -0.000099325               0.000140896               0.999999997              -0.000108597               0.000149248               0.999999997              -0.000008071               0.000098867               0.999999997              -0.000017172               0.000088319               0.999999997              -0.000021683               0.000086546               0.999999997              -0.000025074               0.000089269               0.999999997              -0.000028423               0.000094678               0.999999997              -0.000032171               0.000101817               0.999999997              -0.000036578               0.000110223               0.999999997              -0.000041633               0.000119507               0.999999997              -0.000047279               0.000129446               0.999999997              -0.000053558               0.000140038               0.999999997              -0.000060412               0.000151096               0.999999997              -0.000067796               0.000162443               0.999999997              -0.000075684               0.000174298               0.999999997              -0.000084038               0.000186624               0.999999997              -0.000092906               0.000199289               0.999999997              -0.000102311               0.000212160               0.999999997              -0.000112240               0.000225294               0.999999997              -0.000007868               0.000130183               0.999999997              -0.000013798               0.000116290               0.999999997              -0.000017022               0.000114404               0.999999997              -0.000020055               0.000118444               0.999999997              -0.000023632               0.000125894               0.999999997              -0.000027985               0.000135635               0.999999997              -0.000033094               0.000147002               0.999999997              -0.000038967               0.000159484               0.999999997              -0.000045552               0.000172823               0.999999997              -0.000052804               0.000186911               0.999999997              -0.000060714               0.000201644               0.999999997              -0.000069250               0.000216737               0.999999997              -0.000078283               0.000232410               0.999999997              -0.000087785               0.000248728               0.999999997              -0.000097753               0.000265618               0.999999997              -0.000108195               0.000283108               0.999999997              -0.000119145               0.000301104               0.999999997              -0.000007598               0.000160094               0.999999997              -0.000009810               0.000143172               0.999999997              -0.000011861               0.000141468               0.999999997              -0.000014869               0.000146976               0.999999997              -0.000018956               0.000156664               0.999999997              -0.000024091               0.000169107               0.999999997              -0.000030196               0.000183409               0.999999997              -0.000037196               0.000199099               0.999999997              -0.000045014               0.000215767               0.999999997              -0.000053625               0.000233278               0.999999997              -0.000062899               0.000251646               0.999999997              -0.000072728               0.000270582               0.999999997              -0.000083070               0.000290063               0.999999997              -0.000093844               0.000310416               0.999999997              -0.000105108               0.000331680               0.999999997              -0.000116862               0.000353794               0.999999997              -0.000129018               0.000376594               0.999999997              -0.000007299               0.000188281               0.999999997              -0.000005479               0.000168811               0.999999997              -0.000006700               0.000167553               0.999999997              -0.000010055               0.000174742               0.999999997              -0.000014956               0.000186661               0.999999997              -0.000021170               0.000201777               0.999999997              -0.000028543               0.000219012               0.999999997              -0.000036922               0.000237876               0.999999997              -0.000046204               0.000257991               0.999999997              -0.000056181               0.000279014               0.999999997              -0.000066792               0.000301106               0.999999997              -0.000077936               0.000323955               0.999999997              -0.000089630               0.000347430               0.999999997              -0.000101841               0.000371982               0.999999997              -0.000114564               0.000397640               0.999999997              -0.000127688               0.000424119               0.999999997              -0.000141001               0.000451124               0.999999997              -0.000006881               0.000214505               0.999999997              -0.000001114               0.000193161               0.999999997              -0.000001965               0.000192562               0.999999997              -0.000005988               0.000201419               0.999999997              -0.000011940               0.000215582               0.999999997              -0.000019500               0.000233385               0.999999997              -0.000028358               0.000253547               0.999999997              -0.000038233               0.000275738               0.999999997              -0.000048955               0.000299327               0.999999997              -0.000060337               0.000324037               0.999999997              -0.000072380               0.000349853               0.999999997              -0.000084913               0.000376711               0.999999997              -0.000097976               0.000404427               0.999999997              -0.000111526               0.000433327               0.999999997              -0.000125470               0.000463207               0.999999997              -0.000139503               0.000493656               0.999999997              -0.000153391               0.000524061               0.999999997              -0.000006567               0.000238280               0.999999997               0.000003027               0.000216228               0.999999997               0.000002057               0.000216361               0.999999997              -0.000002879               0.000226808               0.999999997              -0.000010153               0.000243253               0.999999997              -0.000019134               0.000263769               0.999999997              -0.000029490               0.000287040               0.999999997              -0.000040826               0.000312565               0.999999997              -0.000053004               0.000339704               0.999999997              -0.000065825               0.000368238               0.999999997              -0.000079086               0.000398119               0.999999997              -0.000092745               0.000429180               0.999999997              -0.000106851               0.000461374               0.999999997              -0.000121348               0.000494540               0.999999997              -0.000135910               0.000528361               0.999999997              -0.000150341               0.000562343               0.999999997              -0.000164625               0.000596202               0.999999997              -0.000006631               0.000260412               0.999999997               0.000005802               0.000240197               0.999999997               0.000006233               0.000237978               0.999999997               0.000002197               0.000245670               0.999999997              -0.000004112               0.000259428               0.999999997              -0.000012058               0.000277280               0.999999997              -0.000021215               0.000298059               0.999999997              -0.000031388               0.000321129               0.999999997              -0.000042393               0.000346006               0.999999997              -0.000053871               0.000372343               0.999999997              -0.000065662               0.000399983               0.999999997              -0.000077550               0.000428781               0.999999997              -0.000089612               0.000458625               0.999999997              -0.000101988               0.000489345               0.999999997              -0.000114637               0.000520832               0.999999997              -0.000127355               0.000552813               0.999999997              -0.000140174               0.000585059               0.999999997              -0.000006382               0.000280360               0.999999997               0.000007510               0.000263028               0.999999997               0.000009335               0.000259800               0.999999997               0.000006419               0.000265307               0.999999997               0.000001180               0.000276682               0.999999997              -0.000005584               0.000292130               0.999999997              -0.000013485               0.000310548               0.999999997              -0.000022455               0.000331317               0.999999997              -0.000032242               0.000353929               0.999999997              -0.000042365               0.000378129               0.999999997              -0.000052605               0.000403630               0.999999997              -0.000062818               0.000430283               0.999999997              -0.000073098               0.000457816               0.999999997              -0.000083433               0.000486249               0.999999997              -0.000093865               0.000515449               0.999999997              -0.000104408               0.000545282               0.999999997              -0.000115085               0.000575575               0.999999997              -0.000005881               0.000297767               0.999999997               0.000008192               0.000284188               0.999999997               0.000011100               0.000280988               0.999999997               0.000009393               0.000285106               0.999999997               0.000005265               0.000294600               0.999999997              -0.000000149               0.000308017               0.999999997              -0.000006755               0.000324340               0.999999997              -0.000014315               0.000343040               0.999999997              -0.000022699               0.000363716               0.999999997              -0.000031412               0.000385968               0.999999997              -0.000040094               0.000409604               0.999999997              -0.000048677               0.000434333               0.999999997              -0.000057114               0.000459967               0.999999997              -0.000065547               0.000486284               0.999999997              -0.000073796               0.000513235               0.999999997              -0.000081859               0.000540917               0.999999997              -0.000089737               0.000569209               0.999999997              -0.000005112               0.000312394               0.999999997               0.000007891               0.000302952               0.999999997               0.000011383               0.000300599               0.999999997               0.000010714               0.000304046               0.999999997               0.000007817               0.000312286               0.999999997               0.000003653               0.000324148               0.999999997              -0.000001471               0.000338873               0.999999997              -0.000007513               0.000355843               0.999999997              -0.000014325               0.000374822               0.999999997              -0.000021527               0.000395515               0.999999997              -0.000028615               0.000417673               0.999999997              -0.000035457               0.000440902               0.999999997              -0.000042200               0.000465014               0.999999997              -0.000048687               0.000489787               0.999999997              -0.000054767               0.000515112               0.999999997              -0.000060329               0.000540967               0.999999997              -0.000065231               0.000567458               0.999999997              -0.000004077               0.000324058               0.999999997               0.000006716               0.000318512               0.999999997               0.000010178               0.000317486               0.999999997               0.000010236               0.000320978               0.999999997               0.000008433               0.000328456               0.999999997               0.000005511               0.000339323               0.999999997               0.000001829               0.000352779               0.999999997              -0.000002664               0.000368439               0.999999997              -0.000007831               0.000386088               0.999999997              -0.000013337               0.000405533               0.999999997              -0.000018839               0.000426485               0.999999997              -0.000024096               0.000448585               0.999999997              -0.000029054               0.000471637               0.999999997              -0.000033722               0.000495456               0.999999997              -0.000037930               0.000519877               0.999999997              -0.000041258               0.000544692               0.999999997              -0.000043359               0.000569988               0.999999997              -0.000002830               0.000332531               0.999999997               0.000004895               0.000330248               0.999999997               0.000007646               0.000330551               0.999999997               0.000007980               0.000334364               0.999999997               0.000007042               0.000341531               0.999999997               0.000005274               0.000351712               0.999999997               0.000002871               0.000364367               0.999999997              -0.000000079               0.000379191               0.999999997              -0.000003451               0.000395922               0.999999997              -0.000007236               0.000414416               0.999999997              -0.000011200               0.000434430               0.999999997              -0.000014731               0.000455765               0.999999997              -0.000017796               0.000478234               0.999999997              -0.000020756               0.000501574               0.999999997              -0.000023419               0.000525592               0.999999997              -0.000025150               0.000550131               0.999999997              -0.000025435               0.000574970               0.999999997              -0.000001449               0.000337648               0.999999997               0.000002591               0.000337501               0.999999997               0.000004091               0.000338849               0.999999997               0.000004386               0.000343027               0.999999997               0.000004016               0.000350097               0.999999997               0.000003218               0.000359889               0.999999997               0.000002002               0.000372155               0.999999997               0.000000527               0.000386558               0.999999997              -0.000001059               0.000402741               0.999999997              -0.000003032               0.000420600               0.999999997              -0.000005117               0.000440100               0.999999997              -0.000006803               0.000461109               0.999999997              -0.000008300               0.000483331               0.999999997              -0.000009726               0.000506519               0.999999997              -0.000010922               0.000530435               0.999999997              -0.000011642               0.000554907               0.999999997              -0.000011565               0.000579633               0.999999997               0.000000000               0.000339402               0.999999997              -0.000000000               0.000339972               0.999999997               0.000000000               0.000341688               0.999999997              -0.000000000               0.000345998               0.999999997               0.000000000               0.000353007               0.999999997               0.000000000               0.000362719               0.999999997              -0.000000000               0.000374942               0.999999997              -0.000000000               0.000389203               0.999999997               0.000000000               0.000405191               0.999999997               0.000000000               0.000422828               0.999999997              -0.000000000               0.000442171               0.999999997              -0.000000000               0.000463105               0.999999997              -0.000000000               0.000485218               0.999999997               0.000000000               0.000508374               0.999999997               0.000000000               0.000532306               0.999999997               0.000000000               0.000556731               0.999999997               0.000000000               0.000581434               0.999999997              -0.000008283               0.000000000               0.999999997              -0.000021868              -0.000000000               0.999999997              -0.000028709              -0.000000000               0.999999997              -0.000032975              -0.000000000               0.999999997              -0.000036395               0.000000000               0.999999997              -0.000039764              -0.000000000               0.999999997              -0.000043468               0.000000000               0.999999997              -0.000047577               0.000000000               0.999999997              -0.000052133              -0.000000000               0.999999997              -0.000057195              -0.000000000               0.999999997              -0.000062733               0.000000000               0.999999997              -0.000068761              -0.000000000               0.999999997              -0.000075295              -0.000000000               0.999999997              -0.000082389               0.000000000               0.999999997              -0.000090054               0.000000000               0.999999997              -0.000098297               0.000000000               0.999999997              -0.000107087               0.000000000               0.999999997              -0.000008237              -0.000033437               0.999999997              -0.000021301              -0.000029873               0.999999997              -0.000027857              -0.000029113               0.999999997              -0.000032010              -0.000029886               0.999999997              -0.000035430              -0.000031554               0.999999997              -0.000038841              -0.000033863               0.999999997              -0.000042558              -0.000036602               0.999999997              -0.000046726              -0.000039639               0.999999997              -0.000051377              -0.000042899               0.999999997              -0.000056572              -0.000046404               0.999999997              -0.000062259              -0.000050086               0.999999997              -0.000068407              -0.000053864               0.999999997              -0.000075057              -0.000057856               0.999999997              -0.000082251              -0.000061919               0.999999997              -0.000090007              -0.000066036               0.999999997              -0.000098330              -0.000070086               0.999999997              -0.000107217              -0.000074078               0.999999997              -0.000008156              -0.000066510               0.999999997              -0.000019699              -0.000059435               0.999999997              -0.000025432              -0.000058048               0.999999997              -0.000029251              -0.000059668               0.999999997              -0.000032585              -0.000063158               0.999999997              -0.000036073              -0.000067822               0.999999997              -0.000040006              -0.000073335               0.999999997              -0.000044496              -0.000079476               0.999999997              -0.000049556              -0.000086054               0.999999997              -0.000055150              -0.000093151               0.999999997              -0.000061228              -0.000100437               0.999999997              -0.000067810              -0.000108020               0.999999997              -0.000074886              -0.000115964               0.999999997              -0.000082472              -0.000124194               0.999999997              -0.000090621              -0.000132501               0.999999997              -0.000099325              -0.000140896               0.999999997              -0.000108597              -0.000149248               0.999999997              -0.000008071              -0.000098867               0.999999997              -0.000017172              -0.000088319               0.999999997              -0.000021683              -0.000086546               0.999999997              -0.000025074              -0.000089269               0.999999997              -0.000028423              -0.000094678               0.999999997              -0.000032171              -0.000101817               0.999999997              -0.000036578              -0.000110223               0.999999997              -0.000041633              -0.000119507               0.999999997              -0.000047279              -0.000129446               0.999999997              -0.000053558              -0.000140038               0.999999997              -0.000060412              -0.000151096               0.999999997              -0.000067796              -0.000162443               0.999999997              -0.000075684              -0.000174298               0.999999997              -0.000084038              -0.000186624               0.999999997              -0.000092906              -0.000199289               0.999999997              -0.000102311              -0.000212160               0.999999997              -0.000112240              -0.000225294               0.999999997              -0.000007868              -0.000130183               0.999999997              -0.000013798              -0.000116290               0.999999997              -0.000017022              -0.000114404               0.999999997              -0.000020055              -0.000118444               0.999999997              -0.000023632              -0.000125894               0.999999997              -0.000027985              -0.000135635               0.999999997              -0.000033094              -0.000147002               0.999999997              -0.000038967              -0.000159484               0.999999997              -0.000045552              -0.000172823               0.999999997              -0.000052804              -0.000186911               0.999999997              -0.000060714              -0.000201644               0.999999997              -0.000069250              -0.000216737               0.999999997              -0.000078283              -0.000232410               0.999999997              -0.000087785              -0.000248728               0.999999997              -0.000097753              -0.000265618               0.999999997              -0.000108195              -0.000283108               0.999999997              -0.000119145              -0.000301104               0.999999997              -0.000007598              -0.000160094               0.999999997              -0.000009810              -0.000143172               0.999999997              -0.000011861              -0.000141468               0.999999997              -0.000014869              -0.000146976               0.999999997              -0.000018956              -0.000156664               0.999999997              -0.000024091              -0.000169107               0.999999997              -0.000030196              -0.000183409               0.999999997              -0.000037196              -0.000199099               0.999999997              -0.000045014              -0.000215767               0.999999997              -0.000053625              -0.000233278               0.999999997              -0.000062899              -0.000251646               0.999999997              -0.000072728              -0.000270582               0.999999997              -0.000083070              -0.000290063               0.999999997              -0.000093844              -0.000310416               0.999999997              -0.000105108              -0.000331680               0.999999997              -0.000116862              -0.000353794               0.999999997              -0.000129018              -0.000376594               0.999999997              -0.000007299              -0.000188281               0.999999997              -0.000005479              -0.000168811               0.999999997              -0.000006700              -0.000167553               0.999999997              -0.000010055              -0.000174742               0.999999997              -0.000014956              -0.000186661               0.999999997              -0.000021170              -0.000201777               0.999999997              -0.000028543              -0.000219012               0.999999997              -0.000036922              -0.000237876               0.999999997              -0.000046204              -0.000257991               0.999999997              -0.000056181              -0.000279014               0.999999997              -0.000066792              -0.000301106               0.999999997              -0.000077936              -0.000323955               0.999999997              -0.000089630              -0.000347430               0.999999997              -0.000101841              -0.000371982               0.999999997              -0.000114564              -0.000397640               0.999999997              -0.000127688              -0.000424119               0.999999997              -0.000141001              -0.000451124               0.999999997              -0.000006881              -0.000214505               0.999999997              -0.000001114              -0.000193161               0.999999997              -0.000001965              -0.000192562               0.999999997              -0.000005988              -0.000201419               0.999999997              -0.000011940              -0.000215582               0.999999997              -0.000019500              -0.000233385               0.999999997              -0.000028358              -0.000253547               0.999999997              -0.000038233              -0.000275738               0.999999997              -0.000048955              -0.000299327               0.999999997              -0.000060337              -0.000324037               0.999999997              -0.000072380              -0.000349853               0.999999997              -0.000084913              -0.000376711               0.999999997              -0.000097976              -0.000404427               0.999999997              -0.000111526              -0.000433327               0.999999997              -0.000125470              -0.000463207               0.999999997              -0.000139503              -0.000493656               0.999999997              -0.000153391              -0.000524061               0.999999997              -0.000006567              -0.000238280               0.999999997               0.000003027              -0.000216228               0.999999997               0.000002057              -0.000216361               0.999999997              -0.000002879              -0.000226808               0.999999997              -0.000010153              -0.000243253               0.999999997              -0.000019134              -0.000263769               0.999999997              -0.000029490              -0.000287040               0.999999997              -0.000040826              -0.000312565               0.999999997              -0.000053004              -0.000339704               0.999999997              -0.000065825              -0.000368238               0.999999997              -0.000079086              -0.000398119               0.999999997              -0.000092745              -0.000429180               0.999999997              -0.000106851              -0.000461374               0.999999997              -0.000121348              -0.000494540               0.999999997              -0.000135910              -0.000528361               0.999999997              -0.000150341              -0.000562343               0.999999997              -0.000164625              -0.000596202               0.999999997              -0.000006631              -0.000260412               0.999999997               0.000005802              -0.000240197               0.999999997               0.000006233              -0.000237978               0.999999997               0.000002197              -0.000245670               0.999999997              -0.000004112              -0.000259428               0.999999997              -0.000012058              -0.000277280               0.999999997              -0.000021215              -0.000298059               0.999999997              -0.000031388              -0.000321129               0.999999997              -0.000042393              -0.000346006               0.999999997              -0.000053871              -0.000372343               0.999999997              -0.000065662              -0.000399983               0.999999997              -0.000077550              -0.000428781               0.999999997              -0.000089612              -0.000458625               0.999999997              -0.000101988              -0.000489345               0.999999997              -0.000114637              -0.000520832               0.999999997              -0.000127355              -0.000552813               0.999999997              -0.000140174              -0.000585059               0.999999997              -0.000006382              -0.000280360               0.999999997               0.000007510              -0.000263028               0.999999997               0.000009335              -0.000259800               0.999999997               0.000006419              -0.000265307               0.999999997               0.000001180              -0.000276682               0.999999997              -0.000005584              -0.000292130               0.999999997              -0.000013485              -0.000310548               0.999999997              -0.000022455              -0.000331317               0.999999997              -0.000032242              -0.000353929               0.999999997              -0.000042365              -0.000378129               0.999999997              -0.000052605              -0.000403630               0.999999997              -0.000062818              -0.000430283               0.999999997              -0.000073098              -0.000457816               0.999999997              -0.000083433              -0.000486249               0.999999997              -0.000093865              -0.000515449               0.999999997              -0.000104408              -0.000545282               0.999999997              -0.000115085              -0.000575575               0.999999997              -0.000005881              -0.000297767               0.999999997               0.000008192              -0.000284188               0.999999997               0.000011100              -0.000280988               0.999999997               0.000009393              -0.000285106               0.999999997               0.000005265              -0.000294600               0.999999997              -0.000000149              -0.000308017               0.999999997              -0.000006755              -0.000324340               0.999999997              -0.000014315              -0.000343040               0.999999997              -0.000022699              -0.000363716               0.999999997              -0.000031412              -0.000385968               0.999999997              -0.000040094              -0.000409604               0.999999997              -0.000048677              -0.000434333               0.999999997              -0.000057114              -0.000459967               0.999999997              -0.000065547              -0.000486284               0.999999997              -0.000073796              -0.000513235               0.999999997              -0.000081859              -0.000540917               0.999999997              -0.000089737              -0.000569209               0.999999997              -0.000005112              -0.000312394               0.999999997               0.000007891              -0.000302952               0.999999997               0.000011383              -0.000300599               0.999999997               0.000010714              -0.000304046               0.999999997               0.000007817              -0.000312286               0.999999997               0.000003653              -0.000324148               0.999999997              -0.000001471              -0.000338873               0.999999997              -0.000007513              -0.000355843               0.999999997              -0.000014325              -0.000374822               0.999999997              -0.000021527              -0.000395515               0.999999997              -0.000028615              -0.000417673               0.999999997              -0.000035457              -0.000440902               0.999999997              -0.000042200              -0.000465014               0.999999997              -0.000048687              -0.000489787               0.999999997              -0.000054767              -0.000515112               0.999999997              -0.000060329              -0.000540967               0.999999997              -0.000065231              -0.000567458               0.999999997              -0.000004077              -0.000324058               0.999999997               0.000006716              -0.000318512               0.999999997               0.000010178              -0.000317486               0.999999997               0.000010236              -0.000320978               0.999999997               0.000008433              -0.000328456               0.999999997               0.000005511              -0.000339323               0.999999997               0.000001829              -0.000352779               0.999999997              -0.000002664              -0.000368439               0.999999997              -0.000007831              -0.000386088               0.999999997              -0.000013337              -0.000405533               0.999999997              -0.000018839              -0.000426485               0.999999997              -0.000024096              -0.000448585               0.999999997              -0.000029054              -0.000471637               0.999999997              -0.000033722              -0.000495456               0.999999997              -0.000037930              -0.000519877               0.999999997              -0.000041258              -0.000544692               0.999999997              -0.000043359              -0.000569988               0.999999997              -0.000002830              -0.000332531               0.999999997               0.000004895              -0.000330248               0.999999997               0.000007646              -0.000330551               0.999999997               0.000007980              -0.000334364               0.999999997               0.000007042              -0.000341531               0.999999997               0.000005274              -0.000351712               0.999999997               0.000002871              -0.000364367               0.999999997              -0.000000079              -0.000379191               0.999999997              -0.000003451              -0.000395922               0.999999997              -0.000007236              -0.000414416               0.999999997              -0.000011200              -0.000434430               0.999999997              -0.000014731              -0.000455765               0.999999997              -0.000017796              -0.000478234               0.999999997              -0.000020756              -0.000501574               0.999999997              -0.000023419              -0.000525592               0.999999997              -0.000025150              -0.000550131               0.999999997              -0.000025435              -0.000574970               0.999999997              -0.000001449              -0.000337648               0.999999997               0.000002591              -0.000337501               0.999999997               0.000004091              -0.000338849               0.999999997               0.000004386              -0.000343027               0.999999997               0.000004016              -0.000350097               0.999999997               0.000003218              -0.000359889               0.999999997               0.000002002              -0.000372155               0.999999997               0.000000527              -0.000386558               0.999999997              -0.000001059              -0.000402741               0.999999997              -0.000003032              -0.000420600               0.999999997              -0.000005117              -0.000440100               0.999999997              -0.000006803              -0.000461109               0.999999997              -0.000008300              -0.000483331               0.999999997              -0.000009726              -0.000506519               0.999999997              -0.000010922              -0.000530435               0.999999997              -0.000011642              -0.000554907               0.999999997              -0.000011565              -0.000579633               0.999999997              -0.000000000              -0.000339402               0.999999997               0.000000000              -0.000339972               0.999999997              -0.000000000              -0.000341688               0.999999997              -0.000000000              -0.000345998               0.999999997               0.000000000              -0.000353007               0.999999997               0.000000000              -0.000362719               0.999999997              -0.000000000              -0.000374942               0.999999997              -0.000000000              -0.000389203               0.999999997               0.000000000              -0.000405191               0.999999997               0.000000000              -0.000422828               0.999999997              -0.000000000              -0.000442171               0.999999997               0.000000000              -0.000463105               0.999999997               0.000000000              -0.000485218               0.999999997              -0.000000000              -0.000508374               0.999999997               0.000000000              -0.000532306               0.999999997               0.000000000              -0.000556731               0.999999997               0.000000000              -0.000581434               0.999999997               0.000008283              -0.000000000               0.999999997               0.000021868              -0.000000000               0.999999997               0.000028709              -0.000000000               0.999999997               0.000032975              -0.000000000               0.999999997               0.000036395              -0.000000000               0.999999997               0.000039764              -0.000000000               0.999999997               0.000043468               0.000000000               0.999999997               0.000047577              -0.000000000               0.999999997               0.000052133               0.000000000               0.999999997               0.000057195               0.000000000               0.999999997               0.000062733               0.000000000               0.999999997               0.000068761               0.000000000               0.999999997               0.000075295               0.000000000               0.999999997               0.000082389               0.000000000               0.999999997               0.000090054               0.000000000               0.999999997               0.000098297               0.000000000               0.999999997               0.000107087               0.000000000               0.999999997               0.000008237              -0.000033437               0.999999997               0.000021301              -0.000029873               0.999999997               0.000027857              -0.000029113               0.999999997               0.000032010              -0.000029886               0.999999997               0.000035430              -0.000031554               0.999999997               0.000038841              -0.000033863               0.999999997               0.000042558              -0.000036602               0.999999997               0.000046726              -0.000039639               0.999999997               0.000051377              -0.000042899               0.999999997               0.000056572              -0.000046404               0.999999997               0.000062259              -0.000050086               0.999999997               0.000068407              -0.000053864               0.999999997               0.000075057              -0.000057856               0.999999997               0.000082251              -0.000061919               0.999999997               0.000090007              -0.000066036               0.999999997               0.000098330              -0.000070086               0.999999997               0.000107217              -0.000074078               0.999999997               0.000008156              -0.000066510               0.999999997               0.000019699              -0.000059435               0.999999997               0.000025432              -0.000058048               0.999999997               0.000029251              -0.000059668               0.999999997               0.000032585              -0.000063158               0.999999997               0.000036073              -0.000067822               0.999999997               0.000040006              -0.000073335               0.999999997               0.000044496              -0.000079476               0.999999997               0.000049556              -0.000086054               0.999999997               0.000055150              -0.000093151               0.999999997               0.000061228              -0.000100437               0.999999997               0.000067810              -0.000108020               0.999999997               0.000074886              -0.000115964               0.999999997               0.000082472              -0.000124194               0.999999997               0.000090621              -0.000132501               0.999999997               0.000099325              -0.000140896               0.999999997               0.000108597              -0.000149248               0.999999997               0.000008071              -0.000098867               0.999999997               0.000017172              -0.000088319               0.999999997               0.000021683              -0.000086546               0.999999997               0.000025074              -0.000089269               0.999999997               0.000028423              -0.000094678               0.999999997               0.000032171              -0.000101817               0.999999997               0.000036578              -0.000110223               0.999999997               0.000041633              -0.000119507               0.999999997               0.000047279              -0.000129446               0.999999997               0.000053558              -0.000140038               0.999999997               0.000060412              -0.000151096               0.999999997               0.000067796              -0.000162443               0.999999997               0.000075684              -0.000174298               0.999999997               0.000084038              -0.000186624               0.999999997               0.000092906              -0.000199289               0.999999997               0.000102311              -0.000212160               0.999999997               0.000112240              -0.000225294               0.999999997               0.000007868              -0.000130183               0.999999997               0.000013798              -0.000116290               0.999999997               0.000017022              -0.000114404               0.999999997               0.000020055              -0.000118444               0.999999997               0.000023632              -0.000125894               0.999999997               0.000027985              -0.000135635               0.999999997               0.000033094              -0.000147002               0.999999997               0.000038967              -0.000159484               0.999999997               0.000045552              -0.000172823               0.999999997               0.000052804              -0.000186911               0.999999997               0.000060714              -0.000201644               0.999999997               0.000069250              -0.000216737               0.999999997               0.000078283              -0.000232410               0.999999997               0.000087785              -0.000248728               0.999999997               0.000097753              -0.000265618               0.999999997               0.000108195              -0.000283108               0.999999997               0.000119145              -0.000301104               0.999999997               0.000007598              -0.000160094               0.999999997               0.000009810              -0.000143172               0.999999997               0.000011861              -0.000141468               0.999999997               0.000014869              -0.000146976               0.999999997               0.000018956              -0.000156664               0.999999997               0.000024091              -0.000169107               0.999999997               0.000030196              -0.000183409               0.999999997               0.000037196              -0.000199099               0.999999997               0.000045014              -0.000215767               0.999999997               0.000053625              -0.000233278               0.999999997               0.000062899              -0.000251646               0.999999997               0.000072728              -0.000270582               0.999999997               0.000083070              -0.000290063               0.999999997               0.000093844              -0.000310416               0.999999997               0.000105108              -0.000331680               0.999999997               0.000116862              -0.000353794               0.999999997               0.000129018              -0.000376594               0.999999997               0.000007299              -0.000188281               0.999999997               0.000005479              -0.000168811               0.999999997               0.000006700              -0.000167553               0.999999997               0.000010055              -0.000174742               0.999999997               0.000014956              -0.000186661               0.999999997               0.000021170              -0.000201777               0.999999997               0.000028543              -0.000219012               0.999999997               0.000036922              -0.000237876               0.999999997               0.000046204              -0.000257991               0.999999997               0.000056181              -0.000279014               0.999999997               0.000066792              -0.000301106               0.999999997               0.000077936              -0.000323955               0.999999997               0.000089630              -0.000347430               0.999999997               0.000101841              -0.000371982               0.999999997               0.000114564              -0.000397640               0.999999997               0.000127688              -0.000424119               0.999999997               0.000141001              -0.000451124               0.999999997               0.000006881              -0.000214505               0.999999997               0.000001114              -0.000193161               0.999999997               0.000001965              -0.000192562               0.999999997               0.000005988              -0.000201419               0.999999997               0.000011940              -0.000215582               0.999999997               0.000019500              -0.000233385               0.999999997               0.000028358              -0.000253547               0.999999997               0.000038233              -0.000275738               0.999999997               0.000048955              -0.000299327               0.999999997               0.000060337              -0.000324037               0.999999997               0.000072380              -0.000349853               0.999999997               0.000084913              -0.000376711               0.999999997               0.000097976              -0.000404427               0.999999997               0.000111526              -0.000433327               0.999999997               0.000125470              -0.000463207               0.999999997               0.000139503              -0.000493656               0.999999997               0.000153391              -0.000524061               0.999999997               0.000006567              -0.000238280               0.999999997              -0.000003027              -0.000216228               0.999999997              -0.000002057              -0.000216361               0.999999997               0.000002879              -0.000226808               0.999999997               0.000010153              -0.000243253               0.999999997               0.000019134              -0.000263769               0.999999997               0.000029490              -0.000287040               0.999999997               0.000040826              -0.000312565               0.999999997               0.000053004              -0.000339704               0.999999997               0.000065825              -0.000368238               0.999999997               0.000079086              -0.000398119               0.999999997               0.000092745              -0.000429180               0.999999997               0.000106851              -0.000461374               0.999999997               0.000121348              -0.000494540               0.999999997               0.000135910              -0.000528361               0.999999997               0.000150341              -0.000562343               0.999999997               0.000164625              -0.000596202               0.999999997               0.000006631              -0.000260412               0.999999997              -0.000005802              -0.000240197               0.999999997              -0.000006233              -0.000237978               0.999999997              -0.000002197              -0.000245670               0.999999997               0.000004112              -0.000259428               0.999999997               0.000012058              -0.000277280               0.999999997               0.000021215              -0.000298059               0.999999997               0.000031388              -0.000321129               0.999999997               0.000042393              -0.000346006               0.999999997               0.000053871              -0.000372343               0.999999997               0.000065662              -0.000399983               0.999999997               0.000077550              -0.000428781               0.999999997               0.000089612              -0.000458625               0.999999997               0.000101988              -0.000489345               0.999999997               0.000114637              -0.000520832               0.999999997               0.000127355              -0.000552813               0.999999997               0.000140174              -0.000585059               0.999999997               0.000006382              -0.000280360               0.999999997              -0.000007510              -0.000263028               0.999999997              -0.000009335              -0.000259800               0.999999997              -0.000006419              -0.000265307               0.999999997              -0.000001180              -0.000276682               0.999999997               0.000005584              -0.000292130               0.999999997               0.000013485              -0.000310548               0.999999997               0.000022455              -0.000331317               0.999999997               0.000032242              -0.000353929               0.999999997               0.000042365              -0.000378129               0.999999997               0.000052605              -0.000403630               0.999999997               0.000062818              -0.000430283               0.999999997               0.000073098              -0.000457816               0.999999997               0.000083433              -0.000486249               0.999999997               0.000093865              -0.000515449               0.999999997               0.000104408              -0.000545282               0.999999997               0.000115085              -0.000575575               0.999999997               0.000005881              -0.000297767               0.999999997              -0.000008192              -0.000284188               0.999999997              -0.000011100              -0.000280988               0.999999997              -0.000009393              -0.000285106               0.999999997              -0.000005265              -0.000294600               0.999999997               0.000000149              -0.000308017               0.999999997               0.000006755              -0.000324340               0.999999997               0.000014315              -0.000343040               0.999999997               0.000022699              -0.000363716               0.999999997               0.000031412              -0.000385968               0.999999997               0.000040094              -0.000409604               0.999999997               0.000048677              -0.000434333               0.999999997               0.000057114              -0.000459967               0.999999997               0.000065547              -0.000486284               0.999999997               0.000073796              -0.000513235               0.999999997               0.000081859              -0.000540917               0.999999997               0.000089737              -0.000569209               0.999999997               0.000005112              -0.000312394               0.999999997              -0.000007891              -0.000302952               0.999999997              -0.000011383              -0.000300599               0.999999997              -0.000010714              -0.000304046               0.999999997              -0.000007817              -0.000312286               0.999999997              -0.000003653              -0.000324148               0.999999997               0.000001471              -0.000338873               0.999999997               0.000007513              -0.000355843               0.999999997               0.000014325              -0.000374822               0.999999997               0.000021527              -0.000395515               0.999999997               0.000028615              -0.000417673               0.999999997               0.000035457              -0.000440902               0.999999997               0.000042200              -0.000465014               0.999999997               0.000048687              -0.000489787               0.999999997               0.000054767              -0.000515112               0.999999997               0.000060329              -0.000540967               0.999999997               0.000065231              -0.000567458               0.999999997               0.000004077              -0.000324058               0.999999997              -0.000006716              -0.000318512               0.999999997              -0.000010178              -0.000317486               0.999999997              -0.000010236              -0.000320978               0.999999997              -0.000008433              -0.000328456               0.999999997              -0.000005511              -0.000339323               0.999999997              -0.000001829              -0.000352779               0.999999997               0.000002664              -0.000368439               0.999999997               0.000007831              -0.000386088               0.999999997               0.000013337              -0.000405533               0.999999997               0.000018839              -0.000426485               0.999999997               0.000024096              -0.000448585               0.999999997               0.000029054              -0.000471637               0.999999997               0.000033722              -0.000495456               0.999999997               0.000037930              -0.000519877               0.999999997               0.000041258              -0.000544692               0.999999997               0.000043359              -0.000569988               0.999999997               0.000002830              -0.000332531               0.999999997              -0.000004895              -0.000330248               0.999999997              -0.000007646              -0.000330551               0.999999997              -0.000007980              -0.000334364               0.999999997              -0.000007042              -0.000341531               0.999999997              -0.000005274              -0.000351712               0.999999997              -0.000002871              -0.000364367               0.999999997               0.000000079              -0.000379191               0.999999997               0.000003451              -0.000395922               0.999999997               0.000007236              -0.000414416               0.999999997               0.000011200              -0.000434430               0.999999997               0.000014731              -0.000455765               0.999999997               0.000017796              -0.000478234               0.999999997               0.000020756              -0.000501574               0.999999997               0.000023419              -0.000525592               0.999999997               0.000025150              -0.000550131               0.999999997               0.000025435              -0.000574970               0.999999997               0.000001449              -0.000337648               0.999999997              -0.000002591              -0.000337501               0.999999997              -0.000004091              -0.000338849               0.999999997              -0.000004386              -0.000343027               0.999999997              -0.000004016              -0.000350097               0.999999997              -0.000003218              -0.000359889               0.999999997              -0.000002002              -0.000372155               0.999999997              -0.000000527              -0.000386558               0.999999997               0.000001059              -0.000402741               0.999999997               0.000003032              -0.000420600               0.999999997               0.000005117              -0.000440100               0.999999997               0.000006803              -0.000461109               0.999999997               0.000008300              -0.000483331               0.999999997               0.000009726              -0.000506519               0.999999997               0.000010922              -0.000530435               0.999999997               0.000011642              -0.000554907               0.999999997               0.000011565              -0.000579633               0.999999997              -0.000000000              -0.000339402               0.999999997               0.000000000              -0.000339972               0.999999997              -0.000000000              -0.000341688               0.999999997              -0.000000000              -0.000345998               0.999999997               0.000000000              -0.000353007               0.999999997               0.000000000              -0.000362719               0.999999997              -0.000000000              -0.000374942               0.999999997              -0.000000000              -0.000389203               0.999999997               0.000000000              -0.000405191               0.999999997               0.000000000              -0.000422828               0.999999997              -0.000000000              -0.000442171               0.999999997               0.000000000              -0.000463105               0.999999997               0.000000000              -0.000485218               0.999999997              -0.000000000              -0.000508374               0.999999997               0.000000000              -0.000532306               0.999999997               0.000000000              -0.000556731               0.999999997               0.000000000              -0.000581434               0.999999997               0.000008283              -0.000000000               0.999999997               0.000021868              -0.000000000               0.999999997               0.000028709              -0.000000000               0.999999997               0.000032975              -0.000000000               0.999999997               0.000036395              -0.000000000               0.999999997               0.000039764              -0.000000000               0.999999997               0.000043468               0.000000000               0.999999997               0.000047577              -0.000000000               0.999999997               0.000052133               0.000000000               0.999999997               0.000057195               0.000000000               0.999999997               0.000062733               0.000000000               0.999999997               0.000068761               0.000000000               0.999999997               0.000075295               0.000000000               0.999999997               0.000082389               0.000000000               0.999999997               0.000090054               0.000000000               0.999999997               0.000098297               0.000000000               0.999999997               0.000107087               0.000000000               0.999999997               0.000008237               0.000033437               0.999999997               0.000021301               0.000029873               0.999999997               0.000027857               0.000029113               0.999999997               0.000032010               0.000029886               0.999999997               0.000035430               0.000031554               0.999999997               0.000038841               0.000033863               0.999999997               0.000042558               0.000036602               0.999999997               0.000046726               0.000039639               0.999999997               0.000051377               0.000042899               0.999999997               0.000056572               0.000046404               0.999999997               0.000062259               0.000050086               0.999999997               0.000068407               0.000053864               0.999999997               0.000075057               0.000057856               0.999999997               0.000082251               0.000061919               0.999999997               0.000090007               0.000066036               0.999999997               0.000098330               0.000070086               0.999999997               0.000107217               0.000074078               0.999999997               0.000008156               0.000066510               0.999999997               0.000019699               0.000059435               0.999999997               0.000025432               0.000058048               0.999999997               0.000029251               0.000059668               0.999999997               0.000032585               0.000063158               0.999999997               0.000036073               0.000067822               0.999999997               0.000040006               0.000073335               0.999999997               0.000044496               0.000079476               0.999999997               0.000049556               0.000086054               0.999999997               0.000055150               0.000093151               0.999999997               0.000061228               0.000100437               0.999999997               0.000067810               0.000108020               0.999999997               0.000074886               0.000115964               0.999999997               0.000082472               0.000124194               0.999999997               0.000090621               0.000132501               0.999999997               0.000099325               0.000140896               0.999999997               0.000108597               0.000149248               0.999999997               0.000008071               0.000098867               0.999999997               0.000017172               0.000088319               0.999999997               0.000021683               0.000086546               0.999999997               0.000025074               0.000089269               0.999999997               0.000028423               0.000094678               0.999999997               0.000032171               0.000101817               0.999999997               0.000036578               0.000110223               0.999999997               0.000041633               0.000119507               0.999999997               0.000047279               0.000129446               0.999999997               0.000053558               0.000140038               0.999999997               0.000060412               0.000151096               0.999999997               0.000067796               0.000162443               0.999999997               0.000075684               0.000174298               0.999999997               0.000084038               0.000186624               0.999999997               0.000092906               0.000199289               0.999999997               0.000102311               0.000212160               0.999999997               0.000112240               0.000225294               0.999999997               0.000007868               0.000130183               0.999999997               0.000013798               0.000116290               0.999999997               0.000017022               0.000114404               0.999999997               0.000020055               0.000118444               0.999999997               0.000023632               0.000125894               0.999999997               0.000027985               0.000135635               0.999999997               0.000033094               0.000147002               0.999999997               0.000038967               0.000159484               0.999999997               0.000045552               0.000172823               0.999999997               0.000052804               0.000186911               0.999999997               0.000060714               0.000201644               0.999999997               0.000069250               0.000216737               0.999999997               0.000078283               0.000232410               0.999999997               0.000087785               0.000248728               0.999999997               0.000097753               0.000265618               0.999999997               0.000108195               0.000283108               0.999999997               0.000119145               0.000301104               0.999999997               0.000007598               0.000160094               0.999999997               0.000009810               0.000143172               0.999999997               0.000011861               0.000141468               0.999999997               0.000014869               0.000146976               0.999999997               0.000018956               0.000156664               0.999999997               0.000024091               0.000169107               0.999999997               0.000030196               0.000183409               0.999999997               0.000037196               0.000199099               0.999999997               0.000045014               0.000215767               0.999999997               0.000053625               0.000233278               0.999999997               0.000062899               0.000251646               0.999999997               0.000072728               0.000270582               0.999999997               0.000083070               0.000290063               0.999999997               0.000093844               0.000310416               0.999999997               0.000105108               0.000331680               0.999999997               0.000116862               0.000353794               0.999999997               0.000129018               0.000376594               0.999999997               0.000007299               0.000188281               0.999999997               0.000005479               0.000168811               0.999999997               0.000006700               0.000167553               0.999999997               0.000010055               0.000174742               0.999999997               0.000014956               0.000186661               0.999999997               0.000021170               0.000201777               0.999999997               0.000028543               0.000219012               0.999999997               0.000036922               0.000237876               0.999999997               0.000046204               0.000257991               0.999999997               0.000056181               0.000279014               0.999999997               0.000066792               0.000301106               0.999999997               0.000077936               0.000323955               0.999999997               0.000089630               0.000347430               0.999999997               0.000101841               0.000371982               0.999999997               0.000114564               0.000397640               0.999999997               0.000127688               0.000424119               0.999999997               0.000141001               0.000451124               0.999999997               0.000006881               0.000214505               0.999999997               0.000001114               0.000193161               0.999999997               0.000001965               0.000192562               0.999999997               0.000005988               0.000201419               0.999999997               0.000011940               0.000215582               0.999999997               0.000019500               0.000233385               0.999999997               0.000028358               0.000253547               0.999999997               0.000038233               0.000275738               0.999999997               0.000048955               0.000299327               0.999999997               0.000060337               0.000324037               0.999999997               0.000072380               0.000349853               0.999999997               0.000084913               0.000376711               0.999999997               0.000097976               0.000404427               0.999999997               0.000111526               0.000433327               0.999999997               0.000125470               0.000463207               0.999999997               0.000139503               0.000493656               0.999999997               0.000153391               0.000524061               0.999999997               0.000006567               0.000238280               0.999999997              -0.000003027               0.000216228               0.999999997              -0.000002057               0.000216361               0.999999997               0.000002879               0.000226808               0.999999997               0.000010153               0.000243253               0.999999997               0.000019134               0.000263769               0.999999997               0.000029490               0.000287040               0.999999997               0.000040826               0.000312565               0.999999997               0.000053004               0.000339704               0.999999997               0.000065825               0.000368238               0.999999997               0.000079086               0.000398119               0.999999997               0.000092745               0.000429180               0.999999997               0.000106851               0.000461374               0.999999997               0.000121348               0.000494540               0.999999997               0.000135910               0.000528361               0.999999997               0.000150341               0.000562343               0.999999997               0.000164625               0.000596202               0.999999997               0.000006631               0.000260412               0.999999997              -0.000005802               0.000240197               0.999999997              -0.000006233               0.000237978               0.999999997              -0.000002197               0.000245670               0.999999997               0.000004112               0.000259428               0.999999997               0.000012058               0.000277280               0.999999997               0.000021215               0.000298059               0.999999997               0.000031388               0.000321129               0.999999997               0.000042393               0.000346006               0.999999997               0.000053871               0.000372343               0.999999997               0.000065662               0.000399983               0.999999997               0.000077550               0.000428781               0.999999997               0.000089612               0.000458625               0.999999997               0.000101988               0.000489345               0.999999997               0.000114637               0.000520832               0.999999997               0.000127355               0.000552813               0.999999997               0.000140174               0.000585059               0.999999997               0.000006382               0.000280360               0.999999997              -0.000007510               0.000263028               0.999999997              -0.000009335               0.000259800               0.999999997              -0.000006419               0.000265307               0.999999997              -0.000001180               0.000276682               0.999999997               0.000005584               0.000292130               0.999999997               0.000013485               0.000310548               0.999999997               0.000022455               0.000331317               0.999999997               0.000032242               0.000353929               0.999999997               0.000042365               0.000378129               0.999999997               0.000052605               0.000403630               0.999999997               0.000062818               0.000430283               0.999999997               0.000073098               0.000457816               0.999999997               0.000083433               0.000486249               0.999999997               0.000093865               0.000515449               0.999999997               0.000104408               0.000545282               0.999999997               0.000115085               0.000575575               0.999999997               0.000005881               0.000297767               0.999999997              -0.000008192               0.000284188               0.999999997              -0.000011100               0.000280988               0.999999997              -0.000009393               0.000285106               0.999999997              -0.000005265               0.000294600               0.999999997               0.000000149               0.000308017               0.999999997               0.000006755               0.000324340               0.999999997               0.000014315               0.000343040               0.999999997               0.000022699               0.000363716               0.999999997               0.000031412               0.000385968               0.999999997               0.000040094               0.000409604               0.999999997               0.000048677               0.000434333               0.999999997               0.000057114               0.000459967               0.999999997               0.000065547               0.000486284               0.999999997               0.000073796               0.000513235               0.999999997               0.000081859               0.000540917               0.999999997               0.000089737               0.000569209               0.999999997               0.000005112               0.000312394               0.999999997              -0.000007891               0.000302952               0.999999997              -0.000011383               0.000300599               0.999999997              -0.000010714               0.000304046               0.999999997              -0.000007817               0.000312286               0.999999997              -0.000003653               0.000324148               0.999999997               0.000001471               0.000338873               0.999999997               0.000007513               0.000355843               0.999999997               0.000014325               0.000374822               0.999999997               0.000021527               0.000395515               0.999999997               0.000028615               0.000417673               0.999999997               0.000035457               0.000440902               0.999999997               0.000042200               0.000465014               0.999999997               0.000048687               0.000489787               0.999999997               0.000054767               0.000515112               0.999999997               0.000060329               0.000540967               0.999999997               0.000065231               0.000567458               0.999999997               0.000004077               0.000324058               0.999999997              -0.000006716               0.000318512               0.999999997              -0.000010178               0.000317486               0.999999997              -0.000010236               0.000320978               0.999999997              -0.000008433               0.000328456               0.999999997              -0.000005511               0.000339323               0.999999997              -0.000001829               0.000352779               0.999999997               0.000002664               0.000368439               0.999999997               0.000007831               0.000386088               0.999999997               0.000013337               0.000405533               0.999999997               0.000018839               0.000426485               0.999999997               0.000024096               0.000448585               0.999999997               0.000029054               0.000471637               0.999999997               0.000033722               0.000495456               0.999999997               0.000037930               0.000519877               0.999999997               0.000041258               0.000544692               0.999999997               0.000043359               0.000569988               0.999999997               0.000002830               0.000332531               0.999999997              -0.000004895               0.000330248               0.999999997              -0.000007646               0.000330551               0.999999997              -0.000007980               0.000334364               0.999999997              -0.000007042               0.000341531               0.999999997              -0.000005274               0.000351712               0.999999997              -0.000002871               0.000364367               0.999999997               0.000000079               0.000379191               0.999999997               0.000003451               0.000395922               0.999999997               0.000007236               0.000414416               0.999999997               0.000011200               0.000434430               0.999999997               0.000014731               0.000455765               0.999999997               0.000017796               0.000478234               0.999999997               0.000020756               0.000501574               0.999999997               0.000023419               0.000525592               0.999999997               0.000025150               0.000550131               0.999999997               0.000025435               0.000574970               0.999999997               0.000001449               0.000337648               0.999999997              -0.000002591               0.000337501               0.999999997              -0.000004091               0.000338849               0.999999997              -0.000004386               0.000343027               0.999999997              -0.000004016               0.000350097               0.999999997              -0.000003218               0.000359889               0.999999997              -0.000002002               0.000372155               0.999999997              -0.000000527               0.000386558               0.999999997               0.000001059               0.000402741               0.999999997               0.000003032               0.000420600               0.999999997               0.000005117               0.000440100               0.999999997               0.000006803               0.000461109               0.999999997               0.000008300               0.000483331               0.999999997               0.000009726               0.000506519               0.999999997               0.000010922               0.000530435               0.999999997               0.000011642               0.000554907               0.999999997               0.000011565               0.000579633               0.999999997               0.000000000               0.000339402               0.999999997              -0.000000000               0.000339972               0.999999997               0.000000000               0.000341688               0.999999997              -0.000000000               0.000345998               0.999999997               0.000000000               0.000353007               0.999999997               0.000000000               0.000362719               0.999999997              -0.000000000               0.000374942               0.999999997              -0.000000000               0.000389203               0.999999997               0.000000000               0.000405191               0.999999997               0.000000000               0.000422828               0.999999997              -0.000000000               0.000442171               0.999999997              -0.000000000               0.000463105               0.999999997              -0.000000000               0.000485218               0.999999997               0.000000000               0.000508374               0.999999997               0.000000000               0.000532306               0.999999997               0.000000000               0.000556731               0.999999997               0.000000000               0.000581434               0.999999997 </DataArray>
<DataArray type="Float64"                                    Name="stress"                                                      NumberOfComponents="10" format="ascii">
              0.000534019               0.006273213              -0.000000000              -0.000583893               0.002285681               0.001701788               0.000000000               0.000000000               0.000000000               0.000000000               0.000585095               0.005200217              -0.000000000              -0.000430615               0.001876927               0.001446311               0.000000000               0.000000000               0.000000000               0.000000000               0.000812827               0.004340491              -0.000000000              -0.000237751               0.001526066               0.001288316               0.000000000               0.000000000               0.000000000               0.000000000               0.000842592               0.003868171              -0.000000000              -0.000167549               0.001345227               0.001177678               0.000000000               0.000000000               0.000000000               0.000000000               0.000796644               0.003587922              -0.000000000              -0.000149748               0.001245878               0.001096130               0.000000000               0.000000000               0.000000000               0.000000000               0.000722388               0.003415994              -0.000000000              -0.000156104               0.001190688               0.001034584               0.000000000               0.000000000               0.000000000               0.000000000               0.000643646               0.003308628              -0.000000000              -0.000172211               0.001160269               0.000988058               0.000000000               0.000000000               0.000000000               0.000000000               0.000570558               0.003241166              -0.000000000              -0.000191186               0.001144107               0.000952920               0.000000000               0.000000000               0.000000000               0.000000000               0.000499980               0.003198474              -0.000000000              -0.000212316               0.001136919               0.000924603               0.000000000               0.000000000               0.000000000               0.000000000               0.000434886               0.003175454               0.000000000              -0.000233849               0.001136424               0.000902575               0.000000000               0.000000000               0.000000000               0.000000000               0.000376178               0.003165334               0.000000000              -0.000254599               0.001139967               0.000885368               0.000000000               0.000000000               0.000000000               0.000000000               0.000318064               0.003161481              -0.000000000              -0.000275910               0.001145787               0.000869876               0.000000000               0.000000000               0.000000000               0.000000000               0.000257633               0.003164003               0.000000000              -0.000298887               0.001154286               0.000855399               0.000000000               0.000000000               0.000000000               0.000000000               0.000193769               0.003167342               0.000000000              -0.000323254               0.001163521               0.000840268               0.000000000               0.000000000               0.000000000               0.000000000               0.000128259               0.003169146               0.000000000              -0.000348045               0.001172387               0.000824341               0.000000000               0.000000000               0.000000000               0.000000000               0.000062014               0.003166216               0.000000000              -0.000372521               0.001179568               0.000807048               0.000000000               0.000000000               0.000000000               0.000000000               0.000030511               0.003166119               0.000000000              -0.000384322               0.001183470               0.000799148               0.000000000               0.000000000               0.000000000               0.000000000               0.000569635               0.006170516              -0.000475905              -0.000557700               0.002242718               0.001685018               0.000000000               0.000000000               0.000000000               0.000000000               0.000597819               0.005130028              -0.000306595              -0.000417070               0.001849016               0.001431945               0.000000000               0.000000000               0.000000000               0.000000000               0.000799380               0.004303104              -0.000131912              -0.000238120               0.001513727               0.001275607               0.000000000               0.000000000               0.000000000               0.000000000               0.000817030               0.003846740              -0.000051233              -0.000174456               0.001340386               0.001165930               0.000000000               0.000000000               0.000000000               0.000000000               0.000768473               0.003578287              -0.000011423              -0.000159108               0.001245787               0.001086679               0.000000000               0.000000000               0.000000000               0.000000000               0.000696225               0.003412378               0.000009305              -0.000165462               0.001192602               0.001027140               0.000000000               0.000000000               0.000000000               0.000000000               0.000619327               0.003308098               0.000019481              -0.000181264               0.001163110               0.000981846               0.000000000               0.000000000               0.000000000               0.000000000               0.000546676               0.003242970               0.000022989              -0.000200367               0.001147768               0.000947401               0.000000000               0.000000000               0.000000000               0.000000000               0.000477677               0.003202504               0.000024424              -0.000221184               0.001141218               0.000920035               0.000000000               0.000000000               0.000000000               0.000000000               0.000414904               0.003181238               0.000024412              -0.000242065               0.001141090               0.000899025               0.000000000               0.000000000               0.000000000               0.000000000               0.000358581               0.003169902               0.000022302              -0.000261769               0.001143880               0.000882111               0.000000000               0.000000000               0.000000000               0.000000000               0.000303612               0.003166218               0.000021988              -0.000281922               0.001149370               0.000867448               0.000000000               0.000000000               0.000000000               0.000000000               0.000246328               0.003168870               0.000021824              -0.000303735               0.001157524               0.000853789               0.000000000               0.000000000               0.000000000               0.000000000               0.000186063               0.003174509               0.000019142              -0.000327039               0.001167172               0.000840133               0.000000000               0.000000000               0.000000000               0.000000000               0.000123760               0.003179295               0.000014432              -0.000351001               0.001176755               0.000825754               0.000000000               0.000000000               0.000000000               0.000000000               0.000060852               0.003182648               0.000008275              -0.000375010               0.001185876               0.000810865               0.000000000               0.000000000               0.000000000               0.000000000               0.000031314               0.003187523               0.000004526              -0.000386697               0.001191396               0.000804699               0.000000000               0.000000000               0.000000000               0.000000000               0.000667825               0.005872938              -0.000904317              -0.000483682               0.002118853               0.001635172               0.000000000               0.000000000               0.000000000               0.000000000               0.000631591               0.004923215              -0.000584651              -0.000378555               0.001767240               0.001388685               0.000000000               0.000000000               0.000000000               0.000000000               0.000761384               0.004192020              -0.000256168              -0.000238483               0.001476820               0.001238337               0.000000000               0.000000000               0.000000000               0.000000000               0.000749843               0.003786142              -0.000105254              -0.000192076               0.001326060               0.001133984               0.000000000               0.000000000               0.000000000               0.000000000               0.000694190               0.003546180              -0.000031158              -0.000182951               0.001243032               0.001060081               0.000000000               0.000000000               0.000000000               0.000000000               0.000621645               0.003395908               0.000005998              -0.000191371               0.001195748               0.001004377               0.000000000               0.000000000               0.000000000               0.000000000               0.000547157               0.003301301               0.000023596              -0.000207478               0.001169582               0.000962104               0.000000000               0.000000000               0.000000000               0.000000000               0.000477966               0.003241701               0.000029857              -0.000225975               0.001155881               0.000929906               0.000000000               0.000000000               0.000000000               0.000000000               0.000415154               0.003205186               0.000033479              -0.000244965               0.001150040               0.000905075               0.000000000               0.000000000               0.000000000               0.000000000               0.000360079               0.003185585               0.000032911              -0.000263168               0.001149574               0.000886406               0.000000000               0.000000000               0.000000000               0.000000000               0.000310233               0.003176107               0.000028076              -0.000280675               0.001152250               0.000871575               0.000000000               0.000000000               0.000000000               0.000000000               0.000261501               0.003172371               0.000026986              -0.000298483               0.001156941               0.000858458               0.000000000               0.000000000               0.000000000               0.000000000               0.000212973               0.003174800               0.000027397              -0.000316984               0.001163918               0.000846933               0.000000000               0.000000000               0.000000000               0.000000000               0.000161434               0.003182815               0.000023841              -0.000337313               0.001173365               0.000836052               0.000000000               0.000000000               0.000000000               0.000000000               0.000107244               0.003194166               0.000017137              -0.000359053               0.001184396               0.000825342               0.000000000               0.000000000               0.000000000               0.000000000               0.000052868               0.003208688               0.000008923              -0.000381260               0.001196639               0.000815379               0.000000000               0.000000000               0.000000000               0.000000000               0.000029174               0.003224089               0.000002735              -0.000392070               0.001205376               0.000813306               0.000000000               0.000000000               0.000000000               0.000000000               0.000801038               0.005413859              -0.001241994              -0.000376343               0.001930049               0.001553706               0.000000000               0.000000000               0.000000000               0.000000000               0.000672742               0.004603620              -0.000807835              -0.000323174               0.001642249               0.001319075               0.000000000               0.000000000               0.000000000               0.000000000               0.000702732               0.004018846              -0.000364549              -0.000238831               0.001419212               0.001180381               0.000000000               0.000000000               0.000000000               0.000000000               0.000651668               0.003686985              -0.000165227              -0.000216497               0.001301148               0.001084651               0.000000000               0.000000000               0.000000000               0.000000000               0.000585805               0.003484771              -0.000068558              -0.000215919               0.001233552               0.001017633               0.000000000               0.000000000               0.000000000               0.000000000               0.000516203               0.003358953              -0.000020324              -0.000226293               0.001195071               0.000968778               0.000000000               0.000000000               0.000000000               0.000000000               0.000448639               0.003279404               0.000003349              -0.000241685               0.001173685               0.000932000               0.000000000               0.000000000               0.000000000               0.000000000               0.000389632               0.003228543               0.000012957              -0.000257455               0.001161989               0.000904534               0.000000000               0.000000000               0.000000000               0.000000000               0.000335541               0.003196406               0.000018020              -0.000273722               0.001156699               0.000882977               0.000000000               0.000000000               0.000000000               0.000000000               0.000284783               0.003175796               0.000019371              -0.000290180               0.001155315               0.000865135               0.000000000               0.000000000               0.000000000               0.000000000               0.000240835               0.003167249               0.000013581              -0.000305592               0.001157603               0.000852011               0.000000000               0.000000000               0.000000000               0.000000000               0.000200659               0.003163114               0.000010256              -0.000320142               0.001161075               0.000840933               0.000000000               0.000000000               0.000000000               0.000000000               0.000163480               0.003164356               0.000012141              -0.000334239               0.001166188               0.000831949               0.000000000               0.000000000               0.000000000               0.000000000               0.000124915               0.003171927               0.000012016              -0.000349647               0.001173848               0.000824200               0.000000000               0.000000000               0.000000000               0.000000000               0.000083096               0.003186953               0.000008427              -0.000367207               0.001184709               0.000817502               0.000000000               0.000000000               0.000000000               0.000000000               0.000040935               0.003210188               0.000003846              -0.000385922               0.001198693               0.000812771               0.000000000               0.000000000               0.000000000               0.000000000               0.000025049               0.003233447              -0.000000764              -0.000394786               0.001209400               0.000814614               0.000000000               0.000000000               0.000000000               0.000000000               0.000935433               0.004839698              -0.001467736              -0.000254176               0.001697941               0.001443766               0.000000000               0.000000000               0.000000000               0.000000000               0.000704354               0.004209485              -0.000966125              -0.000262053               0.001490499               0.001228446               0.000000000               0.000000000               0.000000000               0.000000000               0.000626889               0.003805035              -0.000456690              -0.000240545               0.001348514               0.001107969               0.000000000               0.000000000               0.000000000               0.000000000               0.000541450               0.003558075              -0.000232982              -0.000241715               0.001266585               0.001024870               0.000000000               0.000000000               0.000000000               0.000000000               0.000467006               0.003402972              -0.000123652              -0.000250244               0.001217727               0.000967484               0.000000000               0.000000000               0.000000000               0.000000000               0.000404259               0.003305503              -0.000066768              -0.000261590               0.001189020               0.000927430               0.000000000               0.000000000               0.000000000               0.000000000               0.000348528               0.003240413              -0.000037522              -0.000274353               0.001171578               0.000897225               0.000000000               0.000000000               0.000000000               0.000000000               0.000299154               0.003197486              -0.000024799              -0.000287502               0.001161652               0.000874150               0.000000000               0.000000000               0.000000000               0.000000000               0.000254730               0.003168563              -0.000019203              -0.000300546               0.001156359               0.000855813               0.000000000               0.000000000               0.000000000               0.000000000               0.000212612               0.003148382              -0.000016222              -0.000313818               0.001154056               0.000840238               0.000000000               0.000000000               0.000000000               0.000000000               0.000174079               0.003138420              -0.000019673              -0.000327022               0.001155137               0.000828115               0.000000000               0.000000000               0.000000000               0.000000000               0.000141649               0.003136336              -0.000022779              -0.000338923               0.001158409               0.000819486               0.000000000               0.000000000               0.000000000               0.000000000               0.000114026               0.003138168              -0.000017771              -0.000349510               0.001162549               0.000813039               0.000000000               0.000000000               0.000000000               0.000000000               0.000086472               0.003147247              -0.000011101              -0.000360978               0.001169398               0.000808420               0.000000000               0.000000000               0.000000000               0.000000000               0.000057862               0.003166312              -0.000005961              -0.000374090               0.001180123               0.000806034               0.000000000               0.000000000               0.000000000               0.000000000               0.000028690               0.003194910              -0.000002675              -0.000388604               0.001194494               0.000805890               0.000000000               0.000000000               0.000000000               0.000000000               0.000019109               0.003219990              -0.000004629              -0.000395332               0.001205097               0.000809765               0.000000000               0.000000000               0.000000000               0.000000000               0.001048814               0.004203381              -0.001579835              -0.000132119               0.001445152               0.001313033               0.000000000               0.000000000               0.000000000               0.000000000               0.000721346               0.003777936              -0.001061252              -0.000201738               0.001326545               0.001124808               0.000000000               0.000000000               0.000000000               0.000000000               0.000542477               0.003570594              -0.000535551              -0.000242895               0.001271151               0.001028256               0.000000000               0.000000000               0.000000000               0.000000000               0.000438113               0.003416337              -0.000307136              -0.000262749               0.001226351               0.000963601               0.000000000               0.000000000               0.000000000               0.000000000               0.000366736               0.003309222              -0.000190975              -0.000276126               0.001195105               0.000918979               0.000000000               0.000000000               0.000000000               0.000000000               0.000310876               0.003235667              -0.000127921              -0.000287879               0.001174505               0.000886625               0.000000000               0.000000000               0.000000000               0.000000000               0.000264226               0.003182710              -0.000093866              -0.000298753               0.001160477               0.000861724               0.000000000               0.000000000               0.000000000               0.000000000               0.000224108               0.003147644              -0.000077048              -0.000309414               0.001152342               0.000842928               0.000000000               0.000000000               0.000000000               0.000000000               0.000187779               0.003124852              -0.000069719              -0.000320189               0.001148336               0.000828148               0.000000000               0.000000000               0.000000000               0.000000000               0.000153762               0.003109572              -0.000062002              -0.000331035               0.001146859               0.000815824               0.000000000               0.000000000               0.000000000               0.000000000               0.000125969               0.003105703              -0.000057660              -0.000340974               0.001148882               0.000807908               0.000000000               0.000000000               0.000000000               0.000000000               0.000101644               0.003109888              -0.000056948              -0.000350619               0.001153492               0.000802873               0.000000000               0.000000000               0.000000000               0.000000000               0.000080519               0.003117692              -0.000047972              -0.000359516               0.001159059               0.000799543               0.000000000               0.000000000               0.000000000               0.000000000               0.000060320               0.003133007              -0.000032347              -0.000369005               0.001167327               0.000798322               0.000000000               0.000000000               0.000000000               0.000000000               0.000038441               0.003155019              -0.000018214              -0.000379961               0.001178316               0.000798355               0.000000000               0.000000000               0.000000000               0.000000000               0.000018780               0.003178904              -0.000007231              -0.000390320               0.001189731               0.000799411               0.000000000               0.000000000               0.000000000               0.000000000               0.000013554               0.003195995              -0.000004668              -0.000394416               0.001196793               0.000802377               0.000000000               0.000000000               0.000000000               0.000000000               0.001118370               0.003558399              -0.001587084              -0.000025413               0.001194592               0.001169178               0.000000000               0.000000000               0.000000000               0.000000000               0.000721346               0.003345873              -0.001102121              -0.000147730               0.001164523               0.001016793               0.000000000               0.000000000               0.000000000               0.000000000               0.000464121               0.003334244              -0.000603927              -0.000242735               0.001192315               0.000949580               0.000000000               0.000000000               0.000000000               0.000000000               0.000353931               0.003265523              -0.000382036              -0.000275466               0.001180319               0.000904853               0.000000000               0.000000000               0.000000000               0.000000000               0.000290393               0.003200014              -0.000262860              -0.000291104               0.001163695               0.000872592               0.000000000               0.000000000               0.000000000               0.000000000               0.000244175               0.003149638              -0.000195503              -0.000302138               0.001150582               0.000848443               0.000000000               0.000000000               0.000000000               0.000000000               0.000207598               0.003112311              -0.000156091              -0.000311189               0.001141156               0.000829967               0.000000000               0.000000000               0.000000000               0.000000000               0.000176901               0.003091553              -0.000132159              -0.000320105               0.001137209               0.000817104               0.000000000               0.000000000               0.000000000               0.000000000               0.000151348               0.003081336              -0.000118762              -0.000328411               0.001136572               0.000808161               0.000000000               0.000000000               0.000000000               0.000000000               0.000127836               0.003077975              -0.000104546              -0.000336807               0.001138251               0.000801443               0.000000000               0.000000000               0.000000000               0.000000000               0.000107233               0.003080967              -0.000090971              -0.000344908               0.001141948               0.000797040               0.000000000               0.000000000               0.000000000               0.000000000               0.000087559               0.003091549              -0.000083994              -0.000353608               0.001148376               0.000794767               0.000000000               0.000000000               0.000000000               0.000000000               0.000066878               0.003107853              -0.000070410              -0.000363402               0.001157074               0.000793673               0.000000000               0.000000000               0.000000000               0.000000000               0.000046292               0.003127442              -0.000047893              -0.000373570               0.001166993               0.000793424               0.000000000               0.000000000               0.000000000               0.000000000               0.000026191               0.003143599              -0.000027233              -0.000383127               0.001175565               0.000792438               0.000000000               0.000000000               0.000000000               0.000000000               0.000011315               0.003150846              -0.000011152              -0.000389612               0.001180142               0.000790530               0.000000000               0.000000000               0.000000000               0.000000000               0.000003992               0.003148484              -0.000003211              -0.000392063               0.001180172               0.000788109               0.000000000               0.000000000               0.000000000               0.000000000               0.001138123               0.002940213              -0.001508796               0.000059267               0.000960305               0.001019572               0.000000000               0.000000000               0.000000000               0.000000000               0.000707001               0.002942341              -0.001101308              -0.000102668               0.001014993               0.000912325               0.000000000               0.000000000               0.000000000               0.000000000               0.000402301               0.003107215              -0.000664464              -0.000237539               0.001114908               0.000877369               0.000000000               0.000000000               0.000000000               0.000000000               0.000297261               0.003110110              -0.000452563              -0.000277290               0.001129123               0.000851833               0.000000000               0.000000000               0.000000000               0.000000000               0.000244855               0.003086932              -0.000331897              -0.000294045               0.001126982               0.000832937               0.000000000               0.000000000               0.000000000               0.000000000               0.000205788               0.003062814              -0.000259465              -0.000305680               0.001122821               0.000817141               0.000000000               0.000000000               0.000000000               0.000000000               0.000178609               0.003047396              -0.000212049              -0.000313945               0.001120437               0.000806492               0.000000000               0.000000000               0.000000000               0.000000000               0.000157182               0.003042690              -0.000178438              -0.000321392               0.001121351               0.000799959               0.000000000               0.000000000               0.000000000               0.000000000               0.000139355               0.003043447              -0.000156429              -0.000328172               0.001123863               0.000795691               0.000000000               0.000000000               0.000000000               0.000000000               0.000123685               0.003052925              -0.000136820              -0.000335233               0.001129376               0.000794143               0.000000000               0.000000000               0.000000000               0.000000000               0.000106722               0.003066848              -0.000116007              -0.000343334               0.001136717               0.000793383               0.000000000               0.000000000               0.000000000               0.000000000               0.000087394               0.003085819              -0.000098756              -0.000352954               0.001146247               0.000793294               0.000000000               0.000000000               0.000000000               0.000000000               0.000063064               0.003108596              -0.000078022              -0.000364925               0.001157830               0.000792905               0.000000000               0.000000000               0.000000000               0.000000000               0.000037702               0.003124412              -0.000050467              -0.000376412               0.001166931               0.000790519               0.000000000               0.000000000               0.000000000               0.000000000               0.000016880               0.003126693              -0.000025086              -0.000384506               0.001170389               0.000785883               0.000000000               0.000000000               0.000000000               0.000000000               0.000005149               0.003115423              -0.000008036              -0.000387496               0.001167629               0.000780133               0.000000000               0.000000000               0.000000000               0.000000000              -0.000003174               0.003100711               0.000000085              -0.000388778               0.001163153               0.000774374               0.000000000               0.000000000               0.000000000               0.000000000               0.001130600               0.002397288              -0.001372760               0.000124311               0.000757650               0.000881962               0.000000000               0.000000000               0.000000000               0.000000000               0.000701213               0.002585069              -0.001078731              -0.000060180               0.000881741               0.000821561               0.000000000               0.000000000               0.000000000               0.000000000               0.000376028               0.002900442              -0.000732495              -0.000221545               0.001040652               0.000819108               0.000000000               0.000000000               0.000000000               0.000000000               0.000278287               0.002975688              -0.000530960              -0.000267603               0.001081087               0.000813484               0.000000000               0.000000000               0.000000000               0.000000000               0.000233084               0.002998281              -0.000406158              -0.000287378               0.001095209               0.000807832               0.000000000               0.000000000               0.000000000               0.000000000               0.000198644               0.003001428              -0.000324188              -0.000300686               0.001100695               0.000800008               0.000000000               0.000000000               0.000000000               0.000000000               0.000173761               0.003006040              -0.000266536              -0.000310594               0.001105535               0.000794941               0.000000000               0.000000000               0.000000000               0.000000000               0.000157200               0.003013390              -0.000224103              -0.000317723               0.001110361               0.000792638               0.000000000               0.000000000               0.000000000               0.000000000               0.000145948               0.003024856              -0.000193631              -0.000323376               0.001116067               0.000792692               0.000000000               0.000000000               0.000000000               0.000000000               0.000138576               0.003047400              -0.000165392              -0.000328958               0.001125442               0.000796484               0.000000000               0.000000000               0.000000000               0.000000000               0.000127110               0.003074083              -0.000136287              -0.000336593               0.001136882               0.000800289               0.000000000               0.000000000               0.000000000               0.000000000               0.000105162               0.003099301              -0.000108004              -0.000347976               0.001149082               0.000801106               0.000000000               0.000000000               0.000000000               0.000000000               0.000074263               0.003120947              -0.000080408              -0.000362269               0.001161062               0.000798793               0.000000000               0.000000000               0.000000000               0.000000000               0.000043462               0.003128902              -0.000051147              -0.000374814               0.001167895               0.000793081               0.000000000               0.000000000               0.000000000               0.000000000               0.000018457               0.003118391              -0.000023839              -0.000382876               0.001167079               0.000784202               0.000000000               0.000000000               0.000000000               0.000000000              -0.000000991               0.003093122              -0.000004506              -0.000387011               0.001160034               0.000773023               0.000000000               0.000000000               0.000000000               0.000000000              -0.000010937               0.003076192               0.000003469              -0.000388624               0.001154928               0.000766304               0.000000000               0.000000000               0.000000000               0.000000000               0.001082904               0.001875699              -0.001205261               0.000171624               0.000568018               0.000739642               0.000000000               0.000000000               0.000000000               0.000000000               0.000708187               0.002170907              -0.001045627              -0.000005795               0.000725560               0.000719765               0.000000000               0.000000000               0.000000000               0.000000000               0.000392819               0.002596049              -0.000816816              -0.000177199               0.000924407               0.000747208               0.000000000               0.000000000               0.000000000               0.000000000               0.000298722               0.002763033              -0.000630965              -0.000233358               0.000998788               0.000765429               0.000000000               0.000000000               0.000000000               0.000000000               0.000255578               0.002844966              -0.000499853              -0.000259779               0.001034905               0.000775127               0.000000000               0.000000000               0.000000000               0.000000000               0.000222248               0.002887536              -0.000406762              -0.000277598               0.001055035               0.000777437               0.000000000               0.000000000               0.000000000               0.000000000               0.000195706               0.002918544              -0.000339172              -0.000291428               0.001069981               0.000778553               0.000000000               0.000000000               0.000000000               0.000000000               0.000180705               0.002947619              -0.000290544              -0.000300687               0.001082759               0.000782072               0.000000000               0.000000000               0.000000000               0.000000000               0.000172784               0.002976317              -0.000250677              -0.000307245               0.001094511               0.000787266               0.000000000               0.000000000               0.000000000               0.000000000               0.000164323               0.003008607              -0.000211836              -0.000314454               0.001107677               0.000793223               0.000000000               0.000000000               0.000000000               0.000000000               0.000150493               0.003040512              -0.000171766              -0.000323628               0.001121370               0.000797741               0.000000000               0.000000000               0.000000000               0.000000000               0.000127545               0.003067238              -0.000132638              -0.000335575               0.001134261               0.000798686               0.000000000               0.000000000               0.000000000               0.000000000               0.000094889               0.003084032              -0.000097665              -0.000349920               0.001144640               0.000794720               0.000000000               0.000000000               0.000000000               0.000000000               0.000056907               0.003092206              -0.000065591              -0.000365185               0.001152453               0.000787269               0.000000000               0.000000000               0.000000000               0.000000000               0.000019989               0.003088816              -0.000035209              -0.000378605               0.001155797               0.000777192               0.000000000               0.000000000               0.000000000               0.000000000              -0.000011995               0.003074709              -0.000011239              -0.000388836               0.001154505               0.000765669               0.000000000               0.000000000               0.000000000               0.000000000              -0.000030093               0.003061806               0.000000140              -0.000394010               0.001151928               0.000757919               0.000000000               0.000000000               0.000000000               0.000000000               0.000972422               0.001388272              -0.001011334               0.000191121               0.000399045               0.000590166               0.000000000               0.000000000               0.000000000               0.000000000               0.000712315               0.001757607              -0.000984578               0.000047416               0.000570057               0.000617473               0.000000000               0.000000000               0.000000000               0.000000000               0.000444993               0.002258687              -0.000881069              -0.000115464               0.000791376               0.000675912               0.000000000               0.000000000               0.000000000               0.000000000               0.000351105               0.002510951              -0.000728319              -0.000182205               0.000897710               0.000715505               0.000000000               0.000000000               0.000000000               0.000000000               0.000308685               0.002658823              -0.000599038              -0.000216596               0.000958464               0.000741868               0.000000000               0.000000000               0.000000000               0.000000000               0.000271240               0.002747790              -0.000498822              -0.000241758               0.000996507               0.000754748               0.000000000               0.000000000               0.000000000               0.000000000               0.000241064               0.002811804              -0.000425074              -0.000261076               0.001024284               0.000763208               0.000000000               0.000000000               0.000000000               0.000000000               0.000219073               0.002865998              -0.000370370              -0.000276097               0.001047355               0.000771259               0.000000000               0.000000000               0.000000000               0.000000000               0.000205926               0.002916121              -0.000321645              -0.000287292               0.001067795               0.000780502               0.000000000               0.000000000               0.000000000               0.000000000               0.000195211               0.002963229              -0.000272185              -0.000297199               0.001086799               0.000789600               0.000000000               0.000000000               0.000000000               0.000000000               0.000179143               0.003004125              -0.000223030              -0.000308336               0.001104144               0.000795807               0.000000000               0.000000000               0.000000000               0.000000000               0.000156174               0.003032687              -0.000177477              -0.000320520               0.001117726               0.000797206               0.000000000               0.000000000               0.000000000               0.000000000               0.000125495               0.003051127              -0.000136622              -0.000334329               0.001128475               0.000794146               0.000000000               0.000000000               0.000000000               0.000000000               0.000088453               0.003063805              -0.000097665              -0.000349805               0.001137860               0.000788055               0.000000000               0.000000000               0.000000000               0.000000000               0.000043325               0.003067292              -0.000059562              -0.000367164               0.001144808               0.000777645               0.000000000               0.000000000               0.000000000               0.000000000              -0.000006307               0.003063088              -0.000025669              -0.000385250               0.001149436               0.000764186               0.000000000               0.000000000               0.000000000               0.000000000              -0.000043422               0.003049527              -0.000005395              -0.000397473               0.001148990               0.000751517               0.000000000               0.000000000               0.000000000               0.000000000               0.000805670               0.000962192              -0.000797832               0.000181850               0.000260110               0.000441960               0.000000000               0.000000000               0.000000000               0.000000000               0.000690310               0.001364130              -0.000880783               0.000088348               0.000425255               0.000513604               0.000000000               0.000000000               0.000000000               0.000000000               0.000511406               0.001888619              -0.000887962              -0.000044301               0.000644300               0.000599999               0.000000000               0.000000000               0.000000000               0.000000000               0.000431240               0.002204284              -0.000781617              -0.000113821               0.000772694               0.000658873               0.000000000               0.000000000               0.000000000               0.000000000               0.000387990               0.002415501              -0.000666766              -0.000156441               0.000857306               0.000700864               0.000000000               0.000000000               0.000000000               0.000000000               0.000348654               0.002555880              -0.000569434              -0.000188740               0.000914865               0.000726125               0.000000000               0.000000000               0.000000000               0.000000000               0.000310311               0.002659285              -0.000495290              -0.000216044               0.000958434               0.000742390               0.000000000               0.000000000               0.000000000               0.000000000               0.000277727               0.002746902              -0.000436732              -0.000239215               0.000995363               0.000756148               0.000000000               0.000000000               0.000000000               0.000000000               0.000254337               0.002825092              -0.000384554              -0.000257760               0.001027608               0.000769848               0.000000000               0.000000000               0.000000000               0.000000000               0.000239400               0.002896443              -0.000330420              -0.000272280               0.001056231               0.000783951               0.000000000               0.000000000               0.000000000               0.000000000               0.000221725               0.002955622              -0.000276865              -0.000286305               0.001080632               0.000794327               0.000000000               0.000000000               0.000000000               0.000000000               0.000196533               0.002995956              -0.000227397              -0.000300794               0.001098907               0.000798113               0.000000000               0.000000000               0.000000000               0.000000000               0.000165089               0.003020748              -0.000183717              -0.000315684               0.001112134               0.000796450               0.000000000               0.000000000               0.000000000               0.000000000               0.000125672               0.003032498              -0.000139771              -0.000331935               0.001121467               0.000789533               0.000000000               0.000000000               0.000000000               0.000000000               0.000078642               0.003042780              -0.000092499              -0.000350856               0.001131202               0.000780346               0.000000000               0.000000000               0.000000000               0.000000000               0.000021452               0.003051088              -0.000044570              -0.000373341               0.001141466               0.000768125               0.000000000               0.000000000               0.000000000               0.000000000              -0.000026721               0.003041924              -0.000014618              -0.000390260               0.001144051               0.000753791               0.000000000               0.000000000               0.000000000               0.000000000               0.000598700               0.000617843              -0.000585345               0.000147280               0.000156852               0.000304132               0.000000000               0.000000000               0.000000000               0.000000000               0.000644540               0.001006577              -0.000739245               0.000115878               0.000296896               0.000412774               0.000000000               0.000000000               0.000000000               0.000000000               0.000581886               0.001510049              -0.000828309               0.000029450               0.000493528               0.000522977               0.000000000               0.000000000               0.000000000               0.000000000               0.000533129               0.001865430              -0.000770296              -0.000033256               0.000632889               0.000599633               0.000000000               0.000000000               0.000000000               0.000000000               0.000492223               0.002127676              -0.000679946              -0.000081376               0.000736343               0.000654967               0.000000000               0.000000000               0.000000000               0.000000000               0.000453451               0.002319066              -0.000594714              -0.000119839               0.000812961               0.000693121               0.000000000               0.000000000               0.000000000               0.000000000               0.000407419               0.002461123              -0.000525131              -0.000154858               0.000871985               0.000717127               0.000000000               0.000000000               0.000000000               0.000000000               0.000365471               0.002581624              -0.000469650              -0.000185651               0.000922416               0.000736765               0.000000000               0.000000000               0.000000000               0.000000000               0.000332679               0.002693701              -0.000419104              -0.000211957               0.000968544               0.000756586               0.000000000               0.000000000               0.000000000               0.000000000               0.000309850               0.002796376              -0.000365792              -0.000233353               0.001009900               0.000776548               0.000000000               0.000000000               0.000000000               0.000000000               0.000289179               0.002878090              -0.000311189              -0.000251319               0.001043127               0.000791808               0.000000000               0.000000000               0.000000000               0.000000000               0.000263197               0.002935994              -0.000262551              -0.000268300               0.001068088               0.000799788               0.000000000               0.000000000               0.000000000               0.000000000               0.000231804               0.002976208              -0.000219069              -0.000285099               0.001087092               0.000801994               0.000000000               0.000000000               0.000000000               0.000000000               0.000193956               0.003001709              -0.000174214              -0.000302479               0.001101386               0.000798907               0.000000000               0.000000000               0.000000000               0.000000000               0.000150337               0.003020399              -0.000124366              -0.000321173               0.001113847               0.000792675               0.000000000               0.000000000               0.000000000               0.000000000               0.000095517               0.003037623              -0.000066342              -0.000343883               0.001127159               0.000783276               0.000000000               0.000000000               0.000000000               0.000000000               0.000047268               0.003036458              -0.000029609              -0.000361831               0.001132753               0.000770922               0.000000000               0.000000000               0.000000000               0.000000000               0.000377345               0.000357618              -0.000394144               0.000096801               0.000086937               0.000183738               0.000000000               0.000000000               0.000000000               0.000000000               0.000580100               0.000703323              -0.000570950               0.000129621               0.000191231               0.000320852               0.000000000               0.000000000               0.000000000               0.000000000               0.000647209               0.001159297              -0.000698545               0.000097790               0.000353832               0.000451621               0.000000000               0.000000000               0.000000000               0.000000000               0.000642902               0.001527147              -0.000679720               0.000050193               0.000492313               0.000542506               0.000000000               0.000000000               0.000000000               0.000000000               0.000612872               0.001822842              -0.000617278               0.000001971               0.000606951               0.000608922               0.000000000               0.000000000               0.000000000               0.000000000               0.000572589               0.002051938              -0.000549595              -0.000041772               0.000697896               0.000656124               0.000000000               0.000000000               0.000000000               0.000000000               0.000525409               0.002229403              -0.000491988              -0.000081647               0.000770343               0.000688695               0.000000000               0.000000000               0.000000000               0.000000000               0.000477323               0.002385082              -0.000445911              -0.000119139               0.000834732               0.000715593               0.000000000               0.000000000               0.000000000               0.000000000               0.000433346               0.002529165              -0.000402300              -0.000153641               0.000894260               0.000740619               0.000000000               0.000000000               0.000000000               0.000000000               0.000400748               0.002659748              -0.000356478              -0.000182188               0.000947303               0.000765115               0.000000000               0.000000000               0.000000000               0.000000000               0.000377200               0.002766942              -0.000307507              -0.000204417               0.000990444               0.000786026               0.000000000               0.000000000               0.000000000               0.000000000               0.000349836               0.002850680              -0.000260366              -0.000225146               0.001025266               0.000800120               0.000000000               0.000000000               0.000000000               0.000000000               0.000316094               0.002916179              -0.000219890              -0.000245987               0.001054046               0.000808059               0.000000000               0.000000000               0.000000000               0.000000000               0.000284933               0.002966779              -0.000182241              -0.000263997               0.001076915               0.000812918               0.000000000               0.000000000               0.000000000               0.000000000               0.000254434               0.003002057              -0.000135993              -0.000279844               0.001093957               0.000814113               0.000000000               0.000000000               0.000000000               0.000000000               0.000216234               0.003028681              -0.000074157              -0.000297496               0.001108716               0.000811219               0.000000000               0.000000000               0.000000000               0.000000000               0.000181449               0.003034830              -0.000035691              -0.000311310               0.001115370               0.000804060               0.000000000               0.000000000               0.000000000               0.000000000               0.000183284               0.000184681              -0.000233174               0.000045646               0.000046344               0.000091990               0.000000000               0.000000000               0.000000000               0.000000000               0.000515142               0.000473973              -0.000386266               0.000133930               0.000113346               0.000247276               0.000000000               0.000000000               0.000000000               0.000000000               0.000698652               0.000869914              -0.000507070               0.000153254               0.000238884               0.000392137               0.000000000               0.000000000               0.000000000               0.000000000               0.000738688               0.001231787              -0.000508875               0.000123033               0.000369580               0.000492614               0.000000000               0.000000000               0.000000000               0.000000000               0.000724377               0.001542706              -0.000471081               0.000078802               0.000487963               0.000566765               0.000000000               0.000000000               0.000000000               0.000000000               0.000687884               0.001799906              -0.000425721               0.000032968               0.000588973               0.000621941               0.000000000               0.000000000               0.000000000               0.000000000               0.000644012               0.002014071              -0.000386753              -0.000010255               0.000674769               0.000664514               0.000000000               0.000000000               0.000000000               0.000000000               0.000591687               0.002198426              -0.000352681              -0.000052921               0.000750442               0.000697521               0.000000000               0.000000000               0.000000000               0.000000000               0.000535579               0.002362285              -0.000321605              -0.000094444               0.000818902               0.000724458               0.000000000               0.000000000               0.000000000               0.000000000               0.000491115               0.002513078              -0.000291457              -0.000129967               0.000881007               0.000751040               0.000000000               0.000000000               0.000000000               0.000000000               0.000457320               0.002647514              -0.000252363              -0.000159444               0.000935644               0.000776200               0.000000000               0.000000000               0.000000000               0.000000000               0.000426282               0.002763803              -0.000209994              -0.000185619               0.000983132               0.000797512               0.000000000               0.000000000               0.000000000               0.000000000               0.000398482               0.002858987              -0.000179735              -0.000207942               0.001022300               0.000814358               0.000000000               0.000000000               0.000000000               0.000000000               0.000375276               0.002932980              -0.000155887              -0.000225893               0.001052948               0.000827055               0.000000000               0.000000000               0.000000000               0.000000000               0.000357714               0.002989789              -0.000120076              -0.000239580               0.001076446               0.000836866               0.000000000               0.000000000               0.000000000               0.000000000               0.000346543               0.003029697              -0.000065573              -0.000248758               0.001092808               0.000844050               0.000000000               0.000000000               0.000000000               0.000000000               0.000340324               0.003043094              -0.000032867              -0.000252764               0.001098609               0.000845845               0.000000000               0.000000000               0.000000000               0.000000000               0.000052978               0.000089047              -0.000106132               0.000008736               0.000026770               0.000035506               0.000000000               0.000000000               0.000000000               0.000000000               0.000472038               0.000334052              -0.000194271               0.000135256               0.000066264               0.000201520               0.000000000               0.000000000               0.000000000               0.000000000               0.000732937               0.000680722              -0.000266810               0.000189759               0.000163652               0.000353411               0.000000000               0.000000000               0.000000000               0.000000000               0.000804345               0.001028924              -0.000272376               0.000173012               0.000285300               0.000458313               0.000000000               0.000000000               0.000000000               0.000000000               0.000805719               0.001344031              -0.000254558               0.000134139               0.000403293               0.000537432               0.000000000               0.000000000               0.000000000               0.000000000               0.000778171               0.001624271              -0.000233576               0.000088779               0.000511825               0.000600604               0.000000000               0.000000000               0.000000000               0.000000000               0.000733897               0.001864445              -0.000215463               0.000042155               0.000607424               0.000649579               0.000000000               0.000000000               0.000000000               0.000000000               0.000677437               0.002062664              -0.000195970              -0.000003794               0.000688813               0.000685018               0.000000000               0.000000000               0.000000000               0.000000000               0.000617031               0.002235499              -0.000180234              -0.000048051               0.000761176               0.000713125               0.000000000               0.000000000               0.000000000               0.000000000               0.000559953               0.002401232              -0.000166269              -0.000090171               0.000830460               0.000740288               0.000000000               0.000000000               0.000000000               0.000000000               0.000513659               0.002561021              -0.000142884              -0.000127505               0.000896167               0.000768662               0.000000000               0.000000000               0.000000000               0.000000000               0.000484055               0.002702723              -0.000118478              -0.000156319               0.000953005               0.000796686               0.000000000               0.000000000               0.000000000               0.000000000               0.000465745               0.002818703              -0.000103374              -0.000177683               0.000998786               0.000821103               0.000000000               0.000000000               0.000000000               0.000000000               0.000450543               0.002909599              -0.000090985              -0.000194746               0.001034772               0.000840026               0.000000000               0.000000000               0.000000000               0.000000000               0.000441850               0.002978729              -0.000071701              -0.000206647               0.001061782               0.000855135               0.000000000               0.000000000               0.000000000               0.000000000               0.000449797               0.003026729              -0.000041523              -0.000209667               0.001078789               0.000869122               0.000000000               0.000000000               0.000000000               0.000000000               0.000465836               0.003046568              -0.000023814              -0.000206132               0.001084223               0.000878091               0.000000000               0.000000000               0.000000000               0.000000000               0.000006763               0.000057633              -0.000000000              -0.000004668               0.000020767               0.000016099               0.000000000               0.000000000               0.000000000               0.000000000               0.000457340               0.000286606               0.000000000               0.000135675               0.000050309               0.000185985               0.000000000               0.000000000               0.000000000               0.000000000               0.000744734               0.000613916               0.000000000               0.000202534               0.000137125               0.000339659               0.000000000               0.000000000               0.000000000               0.000000000               0.000828730               0.000954943              -0.000000000               0.000191404               0.000254510               0.000445914               0.000000000               0.000000000               0.000000000               0.000000000               0.000837545               0.001272600              -0.000000000               0.000155003               0.000372528               0.000527531               0.000000000               0.000000000               0.000000000               0.000000000               0.000815477               0.001564844              -0.000000000               0.000110197               0.000484877               0.000595074               0.000000000               0.000000000               0.000000000               0.000000000               0.000768609               0.001811931              -0.000000000               0.000061736               0.000583392               0.000645128               0.000000000               0.000000000               0.000000000               0.000000000               0.000708962               0.002011467               0.000000000               0.000014427               0.000665673               0.000680100               0.000000000               0.000000000               0.000000000               0.000000000               0.000649346               0.002187642              -0.000000000              -0.000029950               0.000739190               0.000709240               0.000000000               0.000000000               0.000000000               0.000000000               0.000586999               0.002359741              -0.000000000              -0.000074843               0.000811520               0.000736677               0.000000000               0.000000000               0.000000000               0.000000000               0.000536767               0.002530525              -0.000000000              -0.000115028               0.000881842               0.000766815               0.000000000               0.000000000               0.000000000               0.000000000               0.000509397               0.002680286               0.000000000              -0.000144011               0.000941423               0.000797412               0.000000000               0.000000000               0.000000000               0.000000000               0.000493199               0.002802459               0.000000000              -0.000165357               0.000989263               0.000823906               0.000000000               0.000000000               0.000000000               0.000000000               0.000481673               0.002901253               0.000000000              -0.000182029               0.001027751               0.000845722               0.000000000               0.000000000               0.000000000               0.000000000               0.000477742               0.002973512              -0.000000000              -0.000192535               0.001055339               0.000862804               0.000000000               0.000000000               0.000000000               0.000000000               0.000491069               0.003023025              -0.000000000              -0.000193727               0.001072241               0.000878514               0.000000000               0.000000000               0.000000000               0.000000000               0.000512313               0.003045368              -0.000000000              -0.000188553               0.001077964               0.000889411               0.000000000               0.000000000               0.000000000               0.000000000               0.000000000               0.000000000               0.000000000               0.000000000               0.000000000               0.000000000               0.000000000               0.000000000               0.000000000               0.000000000               0.000000000               0.000000000               0.000000000               0.000000000               0.000000000               0.000000000               0.000000000               0.000000000               0.000000000               0.000000000               0.000000000               0.000000000               0.000000000               0.000000000               0.000000000               0.000000000               0.000000000               0.000000000               0.000000000               0.000000000               0.000000000               0.000000000               0.000000000               0.000000000               0.000000000               0.000000000               0.000000000               0.000000000               0.000000000               0.000000000               0.000000000               0.000000000               0.000000000               0.000000000               0.000000000               0.000000000               0.000000000               0.000000000               0.000000000               0.000000000               0.000000000               0.000000000               0.000000000               0.000000000               0.000000000               0.000000000               0.000000000               0.000000000               0.000000000               0.000000000               0.000000000               0.000000000               0.000000000               0.000000000               0.000000000               0.000000000               0.000000000               0.000000000               0.000000000               0.000000000               0.000000000               0.000000000               0.000000000               0.000000000               0.000000000               0.000000000               0.000000000               0.000000000               0.000000000               0.000000000               0.000000000               0.000000000               0.000000000               0.000000000               0.000000000               0.000000000               0.000000000               0.000000000               0.000000000               0.000000000               0.000000000               0.000000000               0.000000000               0.000000000               0.000000000               0.000000000               0.000000000               0.000000000               0.000000000               0.000000000               0.000000000               0.000000000               0.000000000               0.000000000               0.000000000               0.000000000               0.000000000               0.000000000               0.000000000               0.000000000               0.000000000               0.000000000               0.000000000               0.000000000               0.000000000               0.000000000               0.000000000               0.000000000               0.000000000               0.000000000               0.000000000               0.000000000               0.000000000               0.000000000               0.000000000               0.000000000               0.000000000               0.000000000               0.000000000               0.000000000               0.000000000               0.000000000               0.000000000               0.000000000               0.000000000               0.000000000               0.000000000               0.000000000               0.000000000               0.000000000               0.000000000               0.000000000               0.000000000               0.000000000               0.000000000               0.000000000               0.000000000               0.000000000               0.000000000               0.000000000               0.000000000               0.000000000               0.000000000               0.000000000               0.000000000               0.000000000               0.000000000               0.000000000               0.000000000               0.000000000               0.000000000               0.000000000               0.000000000               0.000000000               0.000000000               0.000000000               0.000000000               0.000000000               0.000000000               0.000000000               0.000569635               0.006170516               0.000475905              -0.000557700               0.002242718               0.001685018               0.000000000               0.000000000               0.000000000               0.000000000               0.000597819               0.005130028               0.000306595              -0.000417070               0.001849016               0.001431945               0.000000000               0.000000000               0.000000000               0.000000000               0.000799380               0.004303104               0.000131912              -0.000238120               0.001513727               0.001275607               0.000000000               0.000000000               0.000000000               0.000000000               0.000817030               0.003846740               0.000051233              -0.000174456               0.001340386               0.001165930               0.000000000               0.000000000               0.000000000               0.000000000               0.000768473               0.003578287               0.000011423              -0.000159108               0.001245787               0.001086679               0.000000000               0.000000000               0.000000000               0.000000000               0.000696225               0.003412378              -0.000009305              -0.000165462               0.001192602               0.001027140               0.000000000               0.000000000               0.000000000               0.000000000               0.000619327               0.003308098              -0.000019481              -0.000181264               0.001163110               0.000981846               0.000000000               0.000000000               0.000000000               0.000000000               0.000546676               0.003242970              -0.000022989              -0.000200367               0.001147768               0.000947401               0.000000000               0.000000000               0.000000000               0.000000000               0.000477677               0.003202504              -0.000024424              -0.000221184               0.001141218               0.000920035               0.000000000               0.000000000               0.000000000               0.000000000               0.000414904               0.003181238              -0.000024412              -0.000242065               0.001141090               0.000899025               0.000000000               0.000000000               0.000000000               0.000000000               0.000358581               0.003169902              -0.000022302              -0.000261769               0.001143880               0.000882111               0.000000000               0.000000000               0.000000000               0.000000000               0.000303612               0.003166218              -0.000021988              -0.000281922               0.001149370               0.000867448               0.000000000               0.000000000               0.000000000               0.000000000               0.000246328               0.003168870              -0.000021824              -0.000303735               0.001157524               0.000853789               0.000000000               0.000000000               0.000000000               0.000000000               0.000186063               0.003174509              -0.000019142              -0.000327039               0.001167172               0.000840133               0.000000000               0.000000000               0.000000000               0.000000000               0.000123760               0.003179295              -0.000014432              -0.000351001               0.001176755               0.000825754               0.000000000               0.000000000               0.000000000               0.000000000               0.000060852               0.003182648              -0.000008275              -0.000375010               0.001185876               0.000810865               0.000000000               0.000000000               0.000000000               0.000000000               0.000031314               0.003187523              -0.000004526              -0.000386697               0.001191396               0.000804699               0.000000000               0.000000000               0.000000000               0.000000000               0.000667825               0.005872938               0.000904317              -0.000483682               0.002118853               0.001635172               0.000000000               0.000000000               0.000000000               0.000000000               0.000631591               0.004923215               0.000584651              -0.000378555               0.001767240               0.001388685               0.000000000               0.000000000               0.000000000               0.000000000               0.000761384               0.004192020               0.000256168              -0.000238483               0.001476820               0.001238337               0.000000000               0.000000000               0.000000000               0.000000000               0.000749843               0.003786142               0.000105254              -0.000192076               0.001326060               0.001133984               0.000000000               0.000000000               0.000000000               0.000000000               0.000694190               0.003546180               0.000031158              -0.000182951               0.001243032               0.001060081               0.000000000               0.000000000               0.000000000               0.000000000               0.000621645               0.003395908              -0.000005998              -0.000191371               0.001195748               0.001004377               0.000000000               0.000000000               0.000000000               0.000000000               0.000547157               0.003301301              -0.000023596              -0.000207478               0.001169582               0.000962104               0.000000000               0.000000000               0.000000000               0.000000000               0.000477966               0.003241701              -0.000029857              -0.000225975               0.001155881               0.000929906               0.000000000               0.000000000               0.000000000               0.000000000               0.000415154               0.003205186              -0.000033479              -0.000244965               0.001150040               0.000905075               0.000000000               0.000000000               0.000000000               0.000000000               0.000360079               0.003185585              -0.000032911              -0.000263168               0.001149574               0.000886406               0.000000000               0.000000000               0.000000000               0.000000000               0.000310233               0.003176107              -0.000028076              -0.000280675               0.001152250               0.000871575               0.000000000               0.000000000               0.000000000               0.000000000               0.000261501               0.003172371              -0.000026986              -0.000298483               0.001156941               0.000858458               0.000000000               0.000000000               0.000000000               0.000000000               0.000212973               0.003174800              -0.000027397              -0.000316984               0.001163918               0.000846933               0.000000000               0.000000000               0.000000000               0.000000000               0.000161434               0.003182815              -0.000023841              -0.000337313               0.001173365               0.000836052               0.000000000               0.000000000               0.000000000               0.000000000               0.000107244               0.003194166              -0.000017137              -0.000359053               0.001184396               0.000825342               0.000000000               0.000000000               0.000000000               0.000000000               0.000052868               0.003208688              -0.000008923              -0.000381260               0.001196639               0.000815379               0.000000000               0.000000000               0.000000000               0.000000000               0.000029174               0.003224089              -0.000002735              -0.000392070               0.001205376               0.000813306               0.000000000               0.000000000               0.000000000               0.000000000               0.000801038               0.005413859               0.001241994              -0.000376343               0.001930049               0.001553706               0.000000000               0.000000000               0.000000000               0.000000000               0.000672742               0.004603620               0.000807835              -0.000323174               0.001642249               0.001319075               0.000000000               0.000000000               0.000000000               0.000000000               0.000702732               0.004018846               0.000364549              -0.000238831               0.001419212               0.001180381               0.000000000               0.000000000               0.000000000               0.000000000               0.000651668               0.003686985               0.000165227              -0.000216497               0.001301148               0.001084651               0.000000000               0.000000000               0.000000000               0.000000000               0.000585805               0.003484771               0.000068558              -0.000215919               0.001233552               0.001017633               0.000000000               0.000000000               0.000000000               0.000000000               0.000516203               0.003358953               0.000020324              -0.000226293               0.001195071               0.000968778               0.000000000               0.000000000               0.000000000               0.000000000               0.000448639               0.003279404              -0.000003349              -0.000241685               0.001173685               0.000932000               0.000000000               0.000000000               0.000000000               0.000000000               0.000389632               0.003228543              -0.000012957              -0.000257455               0.001161989               0.000904534               0.000000000               0.000000000               0.000000000               0.000000000               0.000335541               0.003196406              -0.000018020              -0.000273722               0.001156699               0.000882977               0.000000000               0.000000000               0.000000000               0.000000000               0.000284783               0.003175796              -0.000019371              -0.000290180               0.001155315               0.000865135               0.000000000               0.000000000               0.000000000               0.000000000               0.000240835               0.003167249              -0.000013581              -0.000305592               0.001157603               0.000852011               0.000000000               0.000000000               0.000000000               0.000000000               0.000200659               0.003163114              -0.000010256              -0.000320142               0.001161075               0.000840933               0.000000000               0.000000000               0.000000000               0.000000000               0.000163480               0.003164356              -0.000012141              -0.000334239               0.001166188               0.000831949               0.000000000               0.000000000               0.000000000               0.000000000               0.000124915               0.003171927              -0.000012016              -0.000349647               0.001173848               0.000824200               0.000000000               0.000000000               0.000000000               0.000000000               0.000083096               0.003186953              -0.000008427              -0.000367207               0.001184709               0.000817502               0.000000000               0.000000000               0.000000000               0.000000000               0.000040935               0.003210188              -0.000003846              -0.000385922               0.001198693               0.000812771               0.000000000               0.000000000               0.000000000               0.000000000               0.000025049               0.003233447               0.000000764              -0.000394786               0.001209400               0.000814614               0.000000000               0.000000000               0.000000000               0.000000000               0.000935433               0.004839698               0.001467736              -0.000254176               0.001697941               0.001443766               0.000000000               0.000000000               0.000000000               0.000000000               0.000704354               0.004209485               0.000966125              -0.000262053               0.001490499               0.001228446               0.000000000               0.000000000               0.000000000               0.000000000               0.000626889               0.003805035               0.000456690              -0.000240545               0.001348514               0.001107969               0.000000000               0.000000000               0.000000000               0.000000000               0.000541450               0.003558075               0.000232982              -0.000241715               0.001266585               0.001024870               0.000000000               0.000000000               0.000000000               0.000000000               0.000467006               0.003402972               0.000123652              -0.000250244               0.001217727               0.000967484               0.000000000               0.000000000               0.000000000               0.000000000               0.000404259               0.003305503               0.000066768              -0.000261590               0.001189020               0.000927430               0.000000000               0.000000000               0.000000000               0.000000000               0.000348528               0.003240413               0.000037522              -0.000274353               0.001171578               0.000897225               0.000000000               0.000000000               0.000000000               0.000000000               0.000299154               0.003197486               0.000024799              -0.000287502               0.001161652               0.000874150               0.000000000               0.000000000               0.000000000               0.000000000               0.000254730               0.003168563               0.000019203              -0.000300546               0.001156359               0.000855813               0.000000000               0.000000000               0.000000000               0.000000000               0.000212612               0.003148382               0.000016222              -0.000313818               0.001154056               0.000840238               0.000000000               0.000000000               0.000000000               0.000000000               0.000174079               0.003138420               0.000019673              -0.000327022               0.001155137               0.000828115               0.000000000               0.000000000               0.000000000               0.000000000               0.000141649               0.003136336               0.000022779              -0.000338923               0.001158409               0.000819486               0.000000000               0.000000000               0.000000000               0.000000000               0.000114026               0.003138168               0.000017771              -0.000349510               0.001162549               0.000813039               0.000000000               0.000000000               0.000000000               0.000000000               0.000086472               0.003147247               0.000011101              -0.000360978               0.001169398               0.000808420               0.000000000               0.000000000               0.000000000               0.000000000               0.000057862               0.003166312               0.000005961              -0.000374090               0.001180123               0.000806034               0.000000000               0.000000000               0.000000000               0.000000000               0.000028690               0.003194910               0.000002675              -0.000388604               0.001194494               0.000805890               0.000000000               0.000000000               0.000000000               0.000000000               0.000019109               0.003219990               0.000004629              -0.000395332               0.001205097               0.000809765               0.000000000               0.000000000               0.000000000               0.000000000               0.001048814               0.004203381               0.001579835              -0.000132119               0.001445152               0.001313033               0.000000000               0.000000000               0.000000000               0.000000000               0.000721346               0.003777936               0.001061252              -0.000201738               0.001326545               0.001124808               0.000000000               0.000000000               0.000000000               0.000000000               0.000542477               0.003570594               0.000535551              -0.000242895               0.001271151               0.001028256               0.000000000               0.000000000               0.000000000               0.000000000               0.000438113               0.003416337               0.000307136              -0.000262749               0.001226351               0.000963601               0.000000000               0.000000000               0.000000000               0.000000000               0.000366736               0.003309222               0.000190975              -0.000276126               0.001195105               0.000918979               0.000000000               0.000000000               0.000000000               0.000000000               0.000310876               0.003235667               0.000127921              -0.000287879               0.001174505               0.000886625               0.000000000               0.000000000               0.000000000               0.000000000               0.000264226               0.003182710               0.000093866              -0.000298753               0.001160477               0.000861724               0.000000000               0.000000000               0.000000000               0.000000000               0.000224108               0.003147644               0.000077048              -0.000309414               0.001152342               0.000842928               0.000000000               0.000000000               0.000000000               0.000000000               0.000187779               0.003124852               0.000069719              -0.000320189               0.001148336               0.000828148               0.000000000               0.000000000               0.000000000               0.000000000               0.000153762               0.003109572               0.000062002              -0.000331035               0.001146859               0.000815824               0.000000000               0.000000000               0.000000000               0.000000000               0.000125969               0.003105703               0.000057660              -0.000340974               0.001148882               0.000807908               0.000000000               0.000000000               0.000000000               0.000000000               0.000101644               0.003109888               0.000056948              -0.000350619               0.001153492               0.000802873               0.000000000               0.000000000               0.000000000               0.000000000               0.000080519               0.003117692               0.000047972              -0.000359516               0.001159059               0.000799543               0.000000000               0.000000000               0.000000000               0.000000000               0.000060320               0.003133007               0.000032347              -0.000369005               0.001167327               0.000798322               0.000000000               0.000000000               0.000000000               0.000000000               0.000038441               0.003155019               0.000018214              -0.000379961               0.001178316               0.000798355               0.000000000               0.000000000               0.000000000               0.000000000               0.000018780               0.003178904               0.000007231              -0.000390320               0.001189731               0.000799411               0.000000000               0.000000000               0.000000000               0.000000000               0.000013554               0.003195995               0.000004668              -0.000394416               0.001196793               0.000802377               0.000000000               0.000000000               0.000000000               0.000000000               0.001118370               0.003558399               0.001587084              -0.000025413               0.001194592               0.001169178               0.000000000               0.000000000               0.000000000               0.000000000               0.000721346               0.003345873               0.001102121              -0.000147730               0.001164523               0.001016793               0.000000000               0.000000000               0.000000000               0.000000000               0.000464121               0.003334244               0.000603927              -0.000242735               0.001192315               0.000949580               0.000000000               0.000000000               0.000000000               0.000000000               0.000353931               0.003265523               0.000382036              -0.000275466               0.001180319               0.000904853               0.000000000               0.000000000               0.000000000               0.000000000               0.000290393               0.003200014               0.000262860              -0.000291104               0.001163695               0.000872592               0.000000000               0.000000000               0.000000000               0.000000000               0.000244175               0.003149638               0.000195503              -0.000302138               0.001150582               0.000848443               0.000000000               0.000000000               0.000000000               0.000000000               0.000207598               0.003112311               0.000156091              -0.000311189               0.001141156               0.000829967               0.000000000               0.000000000               0.000000000               0.000000000               0.000176901               0.003091553               0.000132159              -0.000320105               0.001137209               0.000817104               0.000000000               0.000000000               0.000000000               0.000000000               0.000151348               0.003081336               0.000118762              -0.000328411               0.001136572               0.000808161               0.000000000               0.000000000               0.000000000               0.000000000               0.000127836               0.003077975               0.000104546              -0.000336807               0.001138251               0.000801443               0.000000000               0.000000000               0.000000000               0.000000000               0.000107233               0.003080967               0.000090971              -0.000344908               0.001141948               0.000797040               0.000000000               0.000000000               0.000000000               0.000000000               0.000087559               0.003091549               0.000083994              -0.000353608               0.001148376               0.000794767               0.000000000               0.000000000               0.000000000               0.000000000               0.000066878               0.003107853               0.000070410              -0.000363402               0.001157074               0.000793673               0.000000000               0.000000000               0.000000000               0.000000000               0.000046292               0.003127442               0.000047893              -0.000373570               0.001166993               0.000793424               0.000000000               0.000000000               0.000000000               0.000000000               0.000026191               0.003143599               0.000027233              -0.000383127               0.001175565               0.000792438               0.000000000               0.000000000               0.000000000               0.000000000               0.000011315               0.003150846               0.000011152              -0.000389612               0.001180142               0.000790530               0.000000000               0.000000000               0.000000000               0.000000000               0.000003992               0.003148484               0.000003211              -0.000392063               0.001180172               0.000788109               0.000000000               0.000000000               0.000000000               0.000000000               0.001138123               0.002940213               0.001508796               0.000059267               0.000960305               0.001019572               0.000000000               0.000000000               0.000000000               0.000000000               0.000707001               0.002942341               0.001101308              -0.000102668               0.001014993               0.000912325               0.000000000               0.000000000               0.000000000               0.000000000               0.000402301               0.003107215               0.000664464              -0.000237539               0.001114908               0.000877369               0.000000000               0.000000000               0.000000000               0.000000000               0.000297261               0.003110110               0.000452563              -0.000277290               0.001129123               0.000851833               0.000000000               0.000000000               0.000000000               0.000000000               0.000244855               0.003086932               0.000331897              -0.000294045               0.001126982               0.000832937               0.000000000               0.000000000               0.000000000               0.000000000               0.000205788               0.003062814               0.000259465              -0.000305680               0.001122821               0.000817141               0.000000000               0.000000000               0.000000000               0.000000000               0.000178609               0.003047396               0.000212049              -0.000313945               0.001120437               0.000806492               0.000000000               0.000000000               0.000000000               0.000000000               0.000157182               0.003042690               0.000178438              -0.000321392               0.001121351               0.000799959               0.000000000               0.000000000               0.000000000               0.000000000               0.000139355               0.003043447               0.000156429              -0.000328172               0.001123863               0.000795691               0.000000000               0.000000000               0.000000000               0.000000000               0.000123685               0.003052925               0.000136820              -0.000335233               0.001129376               0.000794143               0.000000000               0.000000000               0.000000000               0.000000000               0.000106722               0.003066848               0.000116007              -0.000343334               0.001136717               0.000793383               0.000000000               0.000000000               0.000000000               0.000000000               0.000087394               0.003085819               0.000098756              -0.000352954               0.001146247               0.000793294               0.000000000               0.000000000               0.000000000               0.000000000               0.000063064               0.003108596               0.000078022              -0.000364925               0.001157830               0.000792905               0.000000000               0.000000000               0.000000000               0.000000000               0.000037702               0.003124412               0.000050467              -0.000376412               0.001166931               0.000790519               0.000000000               0.000000000               0.000000000               0.000000000               0.000016880               0.003126693               0.000025086              -0.000384506               0.001170389               0.000785883               0.000000000               0.000000000               0.000000000               0.000000000               0.000005149               0.003115423               0.000008036              -0.000387496               0.001167629               0.000780133               0.000000000               0.000000000               0.000000000               0.000000000              -0.000003174               0.003100711              -0.000000085              -0.000388778               0.001163153               0.000774374               0.000000000               0.000000000               0.000000000               0.000000000               0.001130600               0.002397288               0.001372760               0.000124311               0.000757650               0.000881962               0.000000000               0.000000000               0.000000000               0.000000000               0.000701213               0.002585069               0.001078731              -0.000060180               0.000881741               0.000821561               0.000000000               0.000000000               0.000000000               0.000000000               0.000376028               0.002900442               0.000732495              -0.000221545               0.001040652               0.000819108               0.000000000               0.000000000               0.000000000               0.000000000               0.000278287               0.002975688               0.000530960              -0.000267603               0.001081087               0.000813484               0.000000000               0.000000000               0.000000000               0.000000000               0.000233084               0.002998281               0.000406158              -0.000287378               0.001095209               0.000807832               0.000000000               0.000000000               0.000000000               0.000000000               0.000198644               0.003001428               0.000324188              -0.000300686               0.001100695               0.000800008               0.000000000               0.000000000               0.000000000               0.000000000               0.000173761               0.003006040               0.000266536              -0.000310594               0.001105535               0.000794941               0.000000000               0.000000000               0.000000000               0.000000000               0.000157200               0.003013390               0.000224103              -0.000317723               0.001110361               0.000792638               0.000000000               0.000000000               0.000000000               0.000000000               0.000145948               0.003024856               0.000193631              -0.000323376               0.001116067               0.000792692               0.000000000               0.000000000               0.000000000               0.000000000               0.000138576               0.003047400               0.000165392              -0.000328958               0.001125442               0.000796484               0.000000000               0.000000000               0.000000000               0.000000000               0.000127110               0.003074083               0.000136287              -0.000336593               0.001136882               0.000800289               0.000000000               0.000000000               0.000000000               0.000000000               0.000105162               0.003099301               0.000108004              -0.000347976               0.001149082               0.000801106               0.000000000               0.000000000               0.000000000               0.000000000               0.000074263               0.003120947               0.000080408              -0.000362269               0.001161062               0.000798793               0.000000000               0.000000000               0.000000000               0.000000000               0.000043462               0.003128902               0.000051147              -0.000374814               0.001167895               0.000793081               0.000000000               0.000000000               0.000000000               0.000000000               0.000018457               0.003118391               0.000023839              -0.000382876               0.001167079               0.000784202               0.000000000               0.000000000               0.000000000               0.000000000              -0.000000991               0.003093122               0.000004506              -0.000387011               0.001160034               0.000773023               0.000000000               0.000000000               0.000000000               0.000000000              -0.000010937               0.003076192              -0.000003469              -0.000388624               0.001154928               0.000766304               0.000000000               0.000000000               0.000000000               0.000000000               0.001082904               0.001875699               0.001205261               0.000171624               0.000568018               0.000739642               0.000000000               0.000000000               0.000000000               0.000000000               0.000708187               0.002170907               0.001045627              -0.000005795               0.000725560               0.000719765               0.000000000               0.000000000               0.000000000               0.000000000               0.000392819               0.002596049               0.000816816              -0.000177199               0.000924407               0.000747208               0.000000000               0.000000000               0.000000000               0.000000000               0.000298722               0.002763033               0.000630965              -0.000233358               0.000998788               0.000765429               0.000000000               0.000000000               0.000000000               0.000000000               0.000255578               0.002844966               0.000499853              -0.000259779               0.001034905               0.000775127               0.000000000               0.000000000               0.000000000               0.000000000               0.000222248               0.002887536               0.000406762              -0.000277598               0.001055035               0.000777437               0.000000000               0.000000000               0.000000000               0.000000000               0.000195706               0.002918544               0.000339172              -0.000291428               0.001069981               0.000778553               0.000000000               0.000000000               0.000000000               0.000000000               0.000180705               0.002947619               0.000290544              -0.000300687               0.001082759               0.000782072               0.000000000               0.000000000               0.000000000               0.000000000               0.000172784               0.002976317               0.000250677              -0.000307245               0.001094511               0.000787266               0.000000000               0.000000000               0.000000000               0.000000000               0.000164323               0.003008607               0.000211836              -0.000314454               0.001107677               0.000793223               0.000000000               0.000000000               0.000000000               0.000000000               0.000150493               0.003040512               0.000171766              -0.000323628               0.001121370               0.000797741               0.000000000               0.000000000               0.000000000               0.000000000               0.000127545               0.003067238               0.000132638              -0.000335575               0.001134261               0.000798686               0.000000000               0.000000000               0.000000000               0.000000000               0.000094889               0.003084032               0.000097665              -0.000349920               0.001144640               0.000794720               0.000000000               0.000000000               0.000000000               0.000000000               0.000056907               0.003092206               0.000065591              -0.000365185               0.001152453               0.000787269               0.000000000               0.000000000               0.000000000               0.000000000               0.000019989               0.003088816               0.000035209              -0.000378605               0.001155797               0.000777192               0.000000000               0.000000000               0.000000000               0.000000000              -0.000011995               0.003074709               0.000011239              -0.000388836               0.001154505               0.000765669               0.000000000               0.000000000               0.000000000               0.000000000              -0.000030093               0.003061806              -0.000000140              -0.000394010               0.001151928               0.000757919               0.000000000               0.000000000               0.000000000               0.000000000               0.000972422               0.001388272               0.001011334               0.000191121               0.000399045               0.000590166               0.000000000               0.000000000               0.000000000               0.000000000               0.000712315               0.001757607               0.000984578               0.000047416               0.000570057               0.000617473               0.000000000               0.000000000               0.000000000               0.000000000               0.000444993               0.002258687               0.000881069              -0.000115464               0.000791376               0.000675912               0.000000000               0.000000000               0.000000000               0.000000000               0.000351105               0.002510951               0.000728319              -0.000182205               0.000897710               0.000715505               0.000000000               0.000000000               0.000000000               0.000000000               0.000308685               0.002658823               0.000599038              -0.000216596               0.000958464               0.000741868               0.000000000               0.000000000               0.000000000               0.000000000               0.000271240               0.002747790               0.000498822              -0.000241758               0.000996507               0.000754748               0.000000000               0.000000000               0.000000000               0.000000000               0.000241064               0.002811804               0.000425074              -0.000261076               0.001024284               0.000763208               0.000000000               0.000000000               0.000000000               0.000000000               0.000219073               0.002865998               0.000370370              -0.000276097               0.001047355               0.000771259               0.000000000               0.000000000               0.000000000               0.000000000               0.000205926               0.002916121               0.000321645              -0.000287292               0.001067795               0.000780502               0.000000000               0.000000000               0.000000000               0.000000000               0.000195211               0.002963229               0.000272185              -0.000297199               0.001086799               0.000789600               0.000000000               0.000000000               0.000000000               0.000000000               0.000179143               0.003004125               0.000223030              -0.000308336               0.001104144               0.000795807               0.000000000               0.000000000               0.000000000               0.000000000               0.000156174               0.003032687               0.000177477              -0.000320520               0.001117726               0.000797206               0.000000000               0.000000000               0.000000000               0.000000000               0.000125495               0.003051127               0.000136622              -0.000334329               0.001128475               0.000794146               0.000000000               0.000000000               0.000000000               0.000000000               0.000088453               0.003063805               0.000097665              -0.000349805               0.001137860               0.000788055               0.000000000               0.000000000               0.000000000               0.000000000               0.000043325               0.003067292               0.000059562              -0.000367164               0.001144808               0.000777645               0.000000000               0.000000000               0.000000000               0.000000000              -0.000006307               0.003063088               0.000025669              -0.000385250               0.001149436               0.000764186               0.000000000               0.000000000               0.000000000               0.000000000              -0.000043422               0.003049527               0.000005395              -0.000397473               0.001148990               0.000751517               0.000000000               0.000000000               0.000000000               0.000000000               0.000805670               0.000962192               0.000797832               0.000181850               0.000260110               0.000441960               0.000000000               0.000000000               0.000000000               0.000000000               0.000690310               0.001364130               0.000880783               0.000088348               0.000425255               0.000513604               0.000000000               0.000000000               0.000000000               0.000000000               0.000511406               0.001888619               0.000887962              -0.000044301               0.000644300               0.000599999               0.000000000               0.000000000               0.000000000               0.000000000               0.000431240               0.002204284               0.000781617              -0.000113821               0.000772694               0.000658873               0.000000000               0.000000000               0.000000000               0.000000000               0.000387990               0.002415501               0.000666766              -0.000156441               0.000857306               0.000700864               0.000000000               0.000000000               0.000000000               0.000000000               0.000348654               0.002555880               0.000569434              -0.000188740               0.000914865               0.000726125               0.000000000               0.000000000               0.000000000               0.000000000               0.000310311               0.002659285               0.000495290              -0.000216044               0.000958434               0.000742390               0.000000000               0.000000000               0.000000000               0.000000000               0.000277727               0.002746902               0.000436732              -0.000239215               0.000995363               0.000756148               0.000000000               0.000000000               0.000000000               0.000000000               0.000254337               0.002825092               0.000384554              -0.000257760               0.001027608               0.000769848               0.000000000               0.000000000               0.000000000               0.000000000               0.000239400               0.002896443               0.000330420              -0.000272280               0.001056231               0.000783951               0.000000000               0.000000000               0.000000000               0.000000000               0.000221725               0.002955622               0.000276865              -0.000286305               0.001080632               0.000794327               0.000000000               0.000000000               0.000000000               0.000000000               0.000196533               0.002995956               0.000227397              -0.000300794               0.001098907               0.000798113               0.000000000               0.000000000               0.000000000               0.000000000               0.000165089               0.003020748               0.000183717              -0.000315684               0.001112134               0.000796450               0.000000000               0.000000000               0.000000000               0.000000000               0.000125672               0.003032498               0.000139771              -0.000331935               0.001121467               0.000789533               0.000000000               0.000000000               0.000000000               0.000000000               0.000078642               0.003042780               0.000092499              -0.000350856               0.001131202               0.000780346               0.000000000               0.000000000               0.000000000               0.000000000               0.000021452               0.003051088               0.000044570              -0.000373341               0.001141466               0.000768125               0.000000000               0.000000000               0.000000000               0.000000000              -0.000026721               0.003041924               0.000014618              -0.000390260               0.001144051               0.000753791               0.000000000               0.000000000               0.000000000               0.000000000               0.000598700               0.000617843               0.000585345               0.000147280               0.000156852               0.000304132               0.000000000               0.000000000               0.000000000               0.000000000               0.000644540               0.001006577               0.000739245               0.000115878               0.000296896               0.000412774               0.000000000               0.000000000               0.000000000               0.000000000               0.000581886               0.001510049               0.000828309               0.000029450               0.000493528               0.000522977               0.000000000               0.000000000               0.000000000               0.000000000               0.000533129               0.001865430               0.000770296              -0.000033256               0.000632889               0.000599633               0.000000000               0.000000000               0.000000000               0.000000000               0.000492223               0.002127676               0.000679946              -0.000081376               0.000736343               0.000654967               0.000000000               0.000000000               0.000000000               0.000000000               0.000453451               0.002319066               0.000594714              -0.000119839               0.000812961               0.000693121               0.000000000               0.000000000               0.000000000               0.000000000               0.000407419               0.002461123               0.000525131              -0.000154858               0.000871985               0.000717127               0.000000000               0.000000000               0.000000000               0.000000000               0.000365471               0.002581624               0.000469650              -0.000185651               0.000922416               0.000736765               0.000000000               0.000000000               0.000000000               0.000000000               0.000332679               0.002693701               0.000419104              -0.000211957               0.000968544               0.000756586               0.000000000               0.000000000               0.000000000               0.000000000               0.000309850               0.002796376               0.000365792              -0.000233353               0.001009900               0.000776548               0.000000000               0.000000000               0.000000000               0.000000000               0.000289179               0.002878090               0.000311189              -0.000251319               0.001043127               0.000791808               0.000000000               0.000000000               0.000000000               0.000000000               0.000263197               0.002935994               0.000262551              -0.000268300               0.001068088               0.000799788               0.000000000               0.000000000               0.000000000               0.000000000               0.000231804               0.002976208               0.000219069              -0.000285099               0.001087092               0.000801994               0.000000000               0.000000000               0.000000000               0.000000000               0.000193956               0.003001709               0.000174214              -0.000302479               0.001101386               0.000798907               0.000000000               0.000000000               0.000000000               0.000000000               0.000150337               0.003020399               0.000124366              -0.000321173               0.001113847               0.000792675               0.000000000               0.000000000               0.000000000               0.000000000               0.000095517               0.003037623               0.000066342              -0.000343883               0.001127159               0.000783276               0.000000000               0.000000000               0.000000000               0.000000000               0.000047268               0.003036458               0.000029609              -0.000361831               0.001132753               0.000770922               0.000000000               0.000000000               0.000000000               0.000000000               0.000377345               0.000357618               0.000394144               0.000096801               0.000086937               0.000183738               0.000000000               0.000000000               0.000000000               0.000000000               0.000580100               0.000703323               0.000570950               0.000129621               0.000191231               0.000320852               0.000000000               0.000000000               0.000000000               0.000000000               0.000647209               0.001159297               0.000698545               0.000097790               0.000353832               0.000451621               0.000000000               0.000000000               0.000000000               0.000000000               0.000642902               0.001527147               0.000679720               0.000050193               0.000492313               0.000542506               0.000000000               0.000000000               0.000000000               0.000000000               0.000612872               0.001822842               0.000617278               0.000001971               0.000606951               0.000608922               0.000000000               0.000000000               0.000000000               0.000000000               0.000572589               0.002051938               0.000549595              -0.000041772               0.000697896               0.000656124               0.000000000               0.000000000               0.000000000               0.000000000               0.000525409               0.002229403               0.000491988              -0.000081647               0.000770343               0.000688695               0.000000000               0.000000000               0.000000000               0.000000000               0.000477323               0.002385082               0.000445911              -0.000119139               0.000834732               0.000715593               0.000000000               0.000000000               0.000000000               0.000000000               0.000433346               0.002529165               0.000402300              -0.000153641               0.000894260               0.000740619               0.000000000               0.000000000               0.000000000               0.000000000               0.000400748               0.002659748               0.000356478              -0.000182188               0.000947303               0.000765115               0.000000000               0.000000000               0.000000000               0.000000000               0.000377200               0.002766942               0.000307507              -0.000204417               0.000990444               0.000786026               0.000000000               0.000000000               0.000000000               0.000000000               0.000349836               0.002850680               0.000260366              -0.000225146               0.001025266               0.000800120               0.000000000               0.000000000               0.000000000               0.000000000               0.000316094               0.002916179               0.000219890              -0.000245987               0.001054046               0.000808059               0.000000000               0.000000000               0.000000000               0.000000000               0.000284933               0.002966779               0.000182241              -0.000263997               0.001076915               0.000812918               0.000000000               0.000000000               0.000000000               0.000000000               0.000254434               0.003002057               0.000135993              -0.000279844               0.001093957               0.000814113               0.000000000               0.000000000               0.000000000               0.000000000               0.000216234               0.003028681               0.000074157              -0.000297496               0.001108716               0.000811219               0.000000000               0.000000000               0.000000000               0.000000000               0.000181449               0.003034830               0.000035691              -0.000311310               0.001115370               0.000804060               0.000000000               0.000000000               0.000000000               0.000000000               0.000183284               0.000184681               0.000233174               0.000045646               0.000046344               0.000091990               0.000000000               0.000000000               0.000000000               0.000000000               0.000515142               0.000473973               0.000386266               0.000133930               0.000113346               0.000247276               0.000000000               0.000000000               0.000000000               0.000000000               0.000698652               0.000869914               0.000507070               0.000153254               0.000238884               0.000392137               0.000000000               0.000000000               0.000000000               0.000000000               0.000738688               0.001231787               0.000508875               0.000123033               0.000369580               0.000492614               0.000000000               0.000000000               0.000000000               0.000000000               0.000724377               0.001542706               0.000471081               0.000078802               0.000487963               0.000566765               0.000000000               0.000000000               0.000000000               0.000000000               0.000687884               0.001799906               0.000425721               0.000032968               0.000588973               0.000621941               0.000000000               0.000000000               0.000000000               0.000000000               0.000644012               0.002014071               0.000386753              -0.000010255               0.000674769               0.000664514               0.000000000               0.000000000               0.000000000               0.000000000               0.000591687               0.002198426               0.000352681              -0.000052921               0.000750442               0.000697521               0.000000000               0.000000000               0.000000000               0.000000000               0.000535579               0.002362285               0.000321605              -0.000094444               0.000818902               0.000724458               0.000000000               0.000000000               0.000000000               0.000000000               0.000491115               0.002513078               0.000291457              -0.000129967               0.000881007               0.000751040               0.000000000               0.000000000               0.000000000               0.000000000               0.000457320               0.002647514               0.000252363              -0.000159444               0.000935644               0.000776200               0.000000000               0.000000000               0.000000000               0.000000000               0.000426282               0.002763803               0.000209994              -0.000185619               0.000983132               0.000797512               0.000000000               0.000000000               0.000000000               0.000000000               0.000398482               0.002858987               0.000179735              -0.000207942               0.001022300               0.000814358               0.000000000               0.000000000               0.000000000               0.000000000               0.000375276               0.002932980               0.000155887              -0.000225893               0.001052948               0.000827055               0.000000000               0.000000000               0.000000000               0.000000000               0.000357714               0.002989789               0.000120076              -0.000239580               0.001076446               0.000836866               0.000000000               0.000000000               0.000000000               0.000000000               0.000346543               0.003029697               0.000065573              -0.000248758               0.001092808               0.000844050               0.000000000               0.000000000               0.000000000               0.000000000               0.000340324               0.003043094               0.000032867              -0.000252764               0.001098609               0.000845845               0.000000000               0.000000000               0.000000000               0.000000000               0.000052978               0.000089047               0.000106132               0.000008736               0.000026770               0.000035506               0.000000000               0.000000000               0.000000000               0.000000000               0.000472038               0.000334052               0.000194271               0.000135256               0.000066264               0.000201520               0.000000000               0.000000000               0.000000000               0.000000000               0.000732937               0.000680722               0.000266810               0.000189759               0.000163652               0.000353411               0.000000000               0.000000000               0.000000000               0.000000000               0.000804345               0.001028924               0.000272376               0.000173012               0.000285300               0.000458313               0.000000000               0.000000000               0.000000000               0.000000000               0.000805719               0.001344031               0.000254558               0.000134139               0.000403293               0.000537432               0.000000000               0.000000000               0.000000000               0.000000000               0.000778171               0.001624271               0.000233576               0.000088779               0.000511825               0.000600604               0.000000000               0.000000000               0.000000000               0.000000000               0.000733897               0.001864445               0.000215463               0.000042155               0.000607424               0.000649579               0.000000000               0.000000000               0.000000000               0.000000000               0.000677437               0.002062664               0.000195970              -0.000003794               0.000688813               0.000685018               0.000000000               0.000000000               0.000000000               0.000000000               0.000617031               0.002235499               0.000180234              -0.000048051               0.000761176               0.000713125               0.000000000               0.000000000               0.000000000               0.000000000               0.000559953               0.002401232               0.000166269              -0.000090171               0.000830460               0.000740288               0.000000000               0.000000000               0.000000000               0.000000000               0.000513659               0.002561021               0.000142884              -0.000127505               0.000896167               0.000768662               0.000000000               0.000000000               0.000000000               0.000000000               0.000484055               0.002702723               0.000118478              -0.000156319               0.000953005               0.000796686               0.000000000               0.000000000               0.000000000               0.000000000               0.000465745               0.002818703               0.000103374              -0.000177683               0.000998786               0.000821103               0.000000000               0.000000000               0.000000000               0.000000000               0.000450543               0.002909599               0.000090985              -0.000194746               0.001034772               0.000840026               0.000000000               0.000000000               0.000000000               0.000000000               0.000441850               0.002978729               0.000071701              -0.000206647               0.001061782               0.000855135               0.000000000               0.000000000               0.000000000               0.000000000               0.000449797               0.003026729               0.000041523              -0.000209667               0.001078789               0.000869122               0.000000000               0.000000000               0.000000000               0.000000000               0.000465836               0.003046568               0.000023814              -0.000206132               0.001084223               0.000878091               0.000000000               0.000000000               0.000000000               0.000000000               0.000006763               0.000057633              -0.000000000              -0.000004668               0.000020767               0.000016099               0.000000000               0.000000000               0.000000000               0.000000000               0.000457340               0.000286606               0.000000000               0.000135675               0.000050309               0.000185985               0.000000000               0.000000000               0.000000000               0.000000000               0.000744734               0.000613916               0.000000000               0.000202534               0.000137125               0.000339659               0.000000000               0.000000000               0.000000000               0.000000000               0.000828730               0.000954943              -0.000000000               0.000191404               0.000254510               0.000445914               0.000000000               0.000000000               0.000000000               0.000000000               0.000837545               0.001272600              -0.000000000               0.000155003               0.000372528               0.000527531               0.000000000               0.000000000               0.000000000               0.000000000               0.000815477               0.001564844               0.000000000               0.000110197               0.000484877               0.000595074               0.000000000               0.000000000               0.000000000               0.000000000               0.000768609               0.001811931               0.000000000               0.000061736               0.000583392               0.000645128               0.000000000               0.000000000               0.000000000               0.000000000               0.000708962               0.002011467              -0.000000000               0.000014427               0.000665673               0.000680100               0.000000000               0.000000000               0.000000000               0.000000000               0.000649346               0.002187642               0.000000000              -0.000029950               0.000739190               0.000709240               0.000000000               0.000000000               0.000000000               0.000000000               0.000586999               0.002359741               0.000000000              -0.000074843               0.000811520               0.000736677               0.000000000               0.000000000               0.000000000               0.000000000               0.000536767               0.002530525               0.000000000              -0.000115028               0.000881842               0.000766815               0.000000000               0.000000000               0.000000000               0.000000000               0.000509397               0.002680286              -0.000000000              -0.000144011               0.000941423               0.000797412               0.000000000               0.000000000               0.000000000               0.000000000               0.000493199               0.002802459               0.000000000              -0.000165357               0.000989263               0.000823906               0.000000000               0.000000000               0.000000000               0.000000000               0.000481673               0.002901253              -0.000000000              -0.000182029               0.001027751               0.000845722               0.000000000               0.000000000               0.000000000               0.000000000               0.000477742               0.002973512              -0.000000000              -0.000192535               0.001055339               0.000862804               0.000000000               0.000000000               0.000000000               0.000000000               0.000491069               0.003023025               0.000000000              -0.000193727               0.001072241               0.000878514               0.000000000               0.000000000               0.000000000               0.000000000               0.000512313               0.003045368              -0.000000000              -0.000188553               0.001077964               0.000889411               0.000000000               0.000000000               0.000000000               0.000000000               0.000534019               0.006273213              -0.000000000              -0.000583893               0.002285681               0.001701788               0.000000000               0.000000000               0.000000000               0.000000000               0.000585095               0.005200217              -0.000000000              -0.000430615               0.001876927               0.001446311               0.000000000               0.000000000               0.000000000               0.000000000               0.000812827               0.004340491               0.000000000              -0.000237751               0.001526066               0.001288316               0.000000000               0.000000000               0.000000000               0.000000000               0.000842592               0.003868171               0.000000000              -0.000167549               0.001345227               0.001177678               0.000000000               0.000000000               0.000000000               0.000000000               0.000796644               0.003587922              -0.000000000              -0.000149748               0.001245878               0.001096130               0.000000000               0.000000000               0.000000000               0.000000000               0.000722388               0.003415994              -0.000000000              -0.000156104               0.001190688               0.001034584               0.000000000               0.000000000               0.000000000               0.000000000               0.000643646               0.003308628               0.000000000              -0.000172211               0.001160269               0.000988058               0.000000000               0.000000000               0.000000000               0.000000000               0.000570558               0.003241166              -0.000000000              -0.000191186               0.001144107               0.000952920               0.000000000               0.000000000               0.000000000               0.000000000               0.000499980               0.003198474              -0.000000000              -0.000212316               0.001136919               0.000924603               0.000000000               0.000000000               0.000000000               0.000000000               0.000434886               0.003175454              -0.000000000              -0.000233849               0.001136424               0.000902575               0.000000000               0.000000000               0.000000000               0.000000000               0.000376178               0.003165334               0.000000000              -0.000254599               0.001139967               0.000885368               0.000000000               0.000000000               0.000000000               0.000000000               0.000318064               0.003161481               0.000000000              -0.000275910               0.001145787               0.000869876               0.000000000               0.000000000               0.000000000               0.000000000               0.000257633               0.003164003              -0.000000000              -0.000298887               0.001154286               0.000855399               0.000000000               0.000000000               0.000000000               0.000000000               0.000193769               0.003167342              -0.000000000              -0.000323254               0.001163521               0.000840268               0.000000000               0.000000000               0.000000000               0.000000000               0.000128259               0.003169146              -0.000000000              -0.000348045               0.001172387               0.000824341               0.000000000               0.000000000               0.000000000               0.000000000               0.000062014               0.003166216              -0.000000000              -0.000372521               0.001179568               0.000807048               0.000000000               0.000000000               0.000000000               0.000000000               0.000030511               0.003166119               0.000000000              -0.000384322               0.001183470               0.000799148               0.000000000               0.000000000               0.000000000               0.000000000               0.000569635               0.006170516              -0.000475905              -0.000557700               0.002242718               0.001685018               0.000000000               0.000000000               0.000000000               0.000000000               0.000597819               0.005130028              -0.000306595              -0.000417070               0.001849016               0.001431945               0.000000000               0.000000000               0.000000000               0.000000000               0.000799380               0.004303104              -0.000131912              -0.000238120               0.001513727               0.001275607               0.000000000               0.000000000               0.000000000               0.000000000               0.000817030               0.003846740              -0.000051233              -0.000174456               0.001340386               0.001165930               0.000000000               0.000000000               0.000000000               0.000000000               0.000768473               0.003578287              -0.000011423              -0.000159108               0.001245787               0.001086679               0.000000000               0.000000000               0.000000000               0.000000000               0.000696225               0.003412378               0.000009305              -0.000165462               0.001192602               0.001027140               0.000000000               0.000000000               0.000000000               0.000000000               0.000619327               0.003308098               0.000019481              -0.000181264               0.001163110               0.000981846               0.000000000               0.000000000               0.000000000               0.000000000               0.000546676               0.003242970               0.000022989              -0.000200367               0.001147768               0.000947401               0.000000000               0.000000000               0.000000000               0.000000000               0.000477677               0.003202504               0.000024424              -0.000221184               0.001141218               0.000920035               0.000000000               0.000000000               0.000000000               0.000000000               0.000414904               0.003181238               0.000024412              -0.000242065               0.001141090               0.000899025               0.000000000               0.000000000               0.000000000               0.000000000               0.000358581               0.003169902               0.000022302              -0.000261769               0.001143880               0.000882111               0.000000000               0.000000000               0.000000000               0.000000000               0.000303612               0.003166218               0.000021988              -0.000281922               0.001149370               0.000867448               0.000000000               0.000000000               0.000000000               0.000000000               0.000246328               0.003168870               0.000021824              -0.000303735               0.001157524               0.000853789               0.000000000               0.000000000               0.000000000               0.000000000               0.000186063               0.003174509               0.000019142              -0.000327039               0.001167172               0.000840133               0.000000000               0.000000000               0.000000000               0.000000000               0.000123760               0.003179295               0.000014432              -0.000351001               0.001176755               0.000825754               0.000000000               0.000000000               0.000000000               0.000000000               0.000060852               0.003182648               0.000008275              -0.000375010               0.001185876               0.000810865               0.000000000               0.000000000               0.000000000               0.000000000               0.000031314               0.003187523               0.000004526              -0.000386697               0.001191396               0.000804699               0.000000000               0.000000000               0.000000000               0.000000000               0.000667825               0.005872938              -0.000904317              -0.000483682               0.002118853               0.001635172               0.000000000               0.000000000               0.000000000               0.000000000               0.000631591               0.004923215              -0.000584651              -0.000378555               0.001767240               0.001388685               0.000000000               0.000000000               0.000000000               0.000000000               0.000761384               0.004192020              -0.000256168              -0.000238483               0.001476820               0.001238337               0.000000000               0.000000000               0.000000000               0.000000000               0.000749843               0.003786142              -0.000105254              -0.000192076               0.001326060               0.001133984               0.000000000               0.000000000               0.000000000               0.000000000               0.000694190               0.003546180              -0.000031158              -0.000182951               0.001243032               0.001060081               0.000000000               0.000000000               0.000000000               0.000000000               0.000621645               0.003395908               0.000005998              -0.000191371               0.001195748               0.001004377               0.000000000               0.000000000               0.000000000               0.000000000               0.000547157               0.003301301               0.000023596              -0.000207478               0.001169582               0.000962104               0.000000000               0.000000000               0.000000000               0.000000000               0.000477966               0.003241701               0.000029857              -0.000225975               0.001155881               0.000929906               0.000000000               0.000000000               0.000000000               0.000000000               0.000415154               0.003205186               0.000033479              -0.000244965               0.001150040               0.000905075               0.000000000               0.000000000               0.000000000               0.000000000               0.000360079               0.003185585               0.000032911              -0.000263168               0.001149574               0.000886406               0.000000000               0.000000000               0.000000000               0.000000000               0.000310233               0.003176107               0.000028076              -0.000280675               0.001152250               0.000871575               0.000000000               0.000000000               0.000000000               0.000000000               0.000261501               0.003172371               0.000026986              -0.000298483               0.001156941               0.000858458               0.000000000               0.000000000               0.000000000               0.000000000               0.000212973               0.003174800               0.000027397              -0.000316984               0.001163918               0.000846933               0.000000000               0.000000000               0.000000000               0.000000000               0.000161434               0.003182815               0.000023841              -0.000337313               0.001173365               0.000836052               0.000000000               0.000000000               0.000000000               0.000000000               0.000107244               0.003194166               0.000017137              -0.000359053               0.001184396               0.000825342               0.000000000               0.000000000               0.000000000               0.000000000               0.000052868               0.003208688               0.000008923              -0.000381260               0.001196639               0.000815379               0.000000000               0.000000000               0.000000000               0.000000000               0.000029174               0.003224089               0.000002735              -0.000392070               0.001205376               0.000813306               0.000000000               0.000000000               0.000000000               0.000000000               0.000801038               0.005413859              -0.001241994              -0.000376343               0.001930049               0.001553706               0.000000000               0.000000000               0.000000000               0.000000000               0.000672742               0.004603620              -0.000807835              -0.000323174               0.001642249               0.001319075               0.000000000               0.000000000               0.000000000               0.000000000               0.000702732               0.004018846              -0.000364549              -0.000238831               0.001419212               0.001180381               0.000000000               0.000000000               0.000000000               0.000000000               0.000651668               0.003686985              -0.000165227              -0.000216497               0.001301148               0.001084651               0.000000000               0.000000000               0.000000000               0.000000000               0.000585805               0.003484771              -0.000068558              -0.000215919               0.001233552               0.001017633               0.000000000               0.000000000               0.000000000               0.000000000               0.000516203               0.003358953              -0.000020324              -0.000226293               0.001195071               0.000968778               0.000000000               0.000000000               0.000000000               0.000000000               0.000448639               0.003279404               0.000003349              -0.000241685               0.001173685               0.000932000               0.000000000               0.000000000               0.000000000               0.000000000               0.000389632               0.003228543               0.000012957              -0.000257455               0.001161989               0.000904534               0.000000000               0.000000000               0.000000000               0.000000000               0.000335541               0.003196406               0.000018020              -0.000273722               0.001156699               0.000882977               0.000000000               0.000000000               0.000000000               0.000000000               0.000284783               0.003175796               0.000019371              -0.000290180               0.001155315               0.000865135               0.000000000               0.000000000               0.000000000               0.000000000               0.000240835               0.003167249               0.000013581              -0.000305592               0.001157603               0.000852011               0.000000000               0.000000000               0.000000000               0.000000000               0.000200659               0.003163114               0.000010256              -0.000320142               0.001161075               0.000840933               0.000000000               0.000000000               0.000000000               0.000000000               0.000163480               0.003164356               0.000012141              -0.000334239               0.001166188               0.000831949               0.000000000               0.000000000               0.000000000               0.000000000               0.000124915               0.003171927               0.000012016              -0.000349647               0.001173848               0.000824200               0.000000000               0.000000000               0.000000000               0.000000000               0.000083096               0.003186953               0.000008427              -0.000367207               0.001184709               0.000817502               0.000000000               0.000000000               0.000000000               0.000000000               0.000040935               0.003210188               0.000003846              -0.000385922               0.001198693               0.000812771               0.000000000               0.000000000               0.000000000               0.000000000               0.000025049               0.003233447              -0.000000764              -0.000394786               0.001209400               0.000814614               0.000000000               0.000000000               0.000000000               0.000000000               0.000935433               0.004839698              -0.001467736              -0.000254176               0.001697941               0.001443766               0.000000000               0.000000000               0.000000000               0.000000000               0.000704354               0.004209485              -0.000966125              -0.000262053               0.001490499               0.001228446               0.000000000               0.000000000               0.000000000               0.000000000               0.000626889               0.003805035              -0.000456690              -0.000240545               0.001348514               0.001107969               0.000000000               0.000000000               0.000000000               0.000000000               0.000541450               0.003558075              -0.000232982              -0.000241715               0.001266585               0.001024870               0.000000000               0.000000000               0.000000000               0.000000000               0.000467006               0.003402972              -0.000123652              -0.000250244               0.001217727               0.000967484               0.000000000               0.000000000               0.000000000               0.000000000               0.000404259               0.003305503              -0.000066768              -0.000261590               0.001189020               0.000927430               0.000000000               0.000000000               0.000000000               0.000000000               0.000348528               0.003240413              -0.000037522              -0.000274353               0.001171578               0.000897225               0.000000000               0.000000000               0.000000000               0.000000000               0.000299154               0.003197486              -0.000024799              -0.000287502               0.001161652               0.000874150               0.000000000               0.000000000               0.000000000               0.000000000               0.000254730               0.003168563              -0.000019203              -0.000300546               0.001156359               0.000855813               0.000000000               0.000000000               0.000000000               0.000000000               0.000212612               0.003148382              -0.000016222              -0.000313818               0.001154056               0.000840238               0.000000000               0.000000000               0.000000000               0.000000000               0.000174079               0.003138420              -0.000019673              -0.000327022               0.001155137               0.000828115               0.000000000               0.000000000               0.000000000               0.000000000               0.000141649               0.003136336              -0.000022779              -0.000338923               0.001158409               0.000819486               0.000000000               0.000000000               0.000000000               0.000000000               0.000114026               0.003138168              -0.000017771              -0.000349510               0.001162549               0.000813039               0.000000000               0.000000000               0.000000000               0.000000000               0.000086472               0.003147247              -0.000011101              -0.000360978               0.001169398               0.000808420               0.000000000               0.000000000               0.000000000               0.000000000               0.000057862               0.003166312              -0.000005961              -0.000374090               0.001180123               0.000806034               0.000000000               0.000000000               0.000000000               0.000000000               0.000028690               0.003194910              -0.000002675              -0.000388604               0.001194494               0.000805890               0.000000000               0.000000000               0.000000000               0.000000000               0.000019109               0.003219990              -0.000004629              -0.000395332               0.001205097               0.000809765               0.000000000               0.000000000               0.000000000               0.000000000               0.001048814               0.004203381              -0.001579835              -0.000132119               0.001445152               0.001313033               0.000000000               0.000000000               0.000000000               0.000000000               0.000721346               0.003777936              -0.001061252              -0.000201738               0.001326545               0.001124808               0.000000000               0.000000000               0.000000000               0.000000000               0.000542477               0.003570594              -0.000535551              -0.000242895               0.001271151               0.001028256               0.000000000               0.000000000               0.000000000               0.000000000               0.000438113               0.003416337              -0.000307136              -0.000262749               0.001226351               0.000963601               0.000000000               0.000000000               0.000000000               0.000000000               0.000366736               0.003309222              -0.000190975              -0.000276126               0.001195105               0.000918979               0.000000000               0.000000000               0.000000000               0.000000000               0.000310876               0.003235667              -0.000127921              -0.000287879               0.001174505               0.000886625               0.000000000               0.000000000               0.000000000               0.000000000               0.000264226               0.003182710              -0.000093866              -0.000298753               0.001160477               0.000861724               0.000000000               0.000000000               0.000000000               0.000000000               0.000224108               0.003147644              -0.000077048              -0.000309414               0.001152342               0.000842928               0.000000000               0.000000000               0.000000000               0.000000000               0.000187779               0.003124852              -0.000069719              -0.000320189               0.001148336               0.000828148               0.000000000               0.000000000               0.000000000               0.000000000               0.000153762               0.003109572              -0.000062002              -0.000331035               0.001146859               0.000815824               0.000000000               0.000000000               0.000000000               0.000000000               0.000125969               0.003105703              -0.000057660              -0.000340974               0.001148882               0.000807908               0.000000000               0.000000000               0.000000000               0.000000000               0.000101644               0.003109888              -0.000056948              -0.000350619               0.001153492               0.000802873               0.000000000               0.000000000               0.000000000               0.000000000               0.000080519               0.003117692              -0.000047972              -0.000359516               0.001159059               0.000799543               0.000000000               0.000000000               0.000000000               0.000000000               0.000060320               0.003133007              -0.000032347              -0.000369005               0.001167327               0.000798322               0.000000000               0.000000000               0.000000000               0.000000000               0.000038441               0.003155019              -0.000018214              -0.000379961               0.001178316               0.000798355               0.000000000               0.000000000               0.000000000               0.000000000               0.000018780               0.003178904              -0.000007231              -0.000390320               0.001189731               0.000799411               0.000000000               0.000000000               0.000000000               0.000000000               0.000013554               0.003195995              -0.000004668              -0.000394416               0.001196793               0.000802377               0.000000000               0.000000000               0.000000000               0.000000000               0.001118370               0.003558399              -0.001587084              -0.000025413               0.001194592               0.001169178               0.000000000               0.000000000               0.000000000               0.000000000               0.000721346               0.003345873              -0.001102121              -0.000147730               0.001164523               0.001016793               0.000000000               0.000000000               0.000000000               0.000000000               0.000464121               0.003334244              -0.000603927              -0.000242735               0.001192315               0.000949580               0.000000000               0.000000000               0.000000000               0.000000000               0.000353931               0.003265523              -0.000382036              -0.000275466               0.001180319               0.000904853               0.000000000               0.000000000               0.000000000               0.000000000               0.000290393               0.003200014              -0.000262860              -0.000291104               0.001163695               0.000872592               0.000000000               0.000000000               0.000000000               0.000000000               0.000244175               0.003149638              -0.000195503              -0.000302138               0.001150582               0.000848443               0.000000000               0.000000000               0.000000000               0.000000000               0.000207598               0.003112311              -0.000156091              -0.000311189               0.001141156               0.000829967               0.000000000               0.000000000               0.000000000               0.000000000               0.000176901               0.003091553              -0.000132159              -0.000320105               0.001137209               0.000817104               0.000000000               0.000000000               0.000000000               0.000000000               0.000151348               0.003081336              -0.000118762              -0.000328411               0.001136572               0.000808161               0.000000000               0.000000000               0.000000000               0.000000000               0.000127836               0.003077975              -0.000104546              -0.000336807               0.001138251               0.000801443               0.000000000               0.000000000               0.000000000               0.000000000               0.000107233               0.003080967              -0.000090971              -0.000344908               0.001141948               0.000797040               0.000000000               0.000000000               0.000000000               0.000000000               0.000087559               0.003091549              -0.000083994              -0.000353608               0.001148376               0.000794767               0.000000000               0.000000000               0.000000000               0.000000000               0.000066878               0.003107853              -0.000070410              -0.000363402               0.001157074               0.000793673               0.000000000               0.000000000               0.000000000               0.000000000               0.000046292               0.003127442              -0.000047893              -0.000373570               0.001166993               0.000793424               0.000000000               0.000000000               0.000000000               0.000000000               0.000026191               0.003143599              -0.000027233              -0.000383127               0.001175565               0.000792438               0.000000000               0.000000000               0.000000000               0.000000000               0.000011315               0.003150846              -0.000011152              -0.000389612               0.001180142               0.000790530               0.000000000               0.000000000               0.000000000               0.000000000               0.000003992               0.003148484              -0.000003211              -0.000392063               0.001180172               0.000788109               0.000000000               0.000000000               0.000000000               0.000000000               0.001138123               0.002940213              -0.001508796               0.000059267               0.000960305               0.001019572               0.000000000               0.000000000               0.000000000               0.000000000               0.000707001               0.002942341              -0.001101308              -0.000102668               0.001014993               0.000912325               0.000000000               0.000000000               0.000000000               0.000000000               0.000402301               0.003107215              -0.000664464              -0.000237539               0.001114908               0.000877369               0.000000000               0.000000000               0.000000000               0.000000000               0.000297261               0.003110110              -0.000452563              -0.000277290               0.001129123               0.000851833               0.000000000               0.000000000               0.000000000               0.000000000               0.000244855               0.003086932              -0.000331897              -0.000294045               0.001126982               0.000832937               0.000000000               0.000000000               0.000000000               0.000000000               0.000205788               0.003062814              -0.000259465              -0.000305680               0.001122821               0.000817141               0.000000000               0.000000000               0.000000000               0.000000000               0.000178609               0.003047396              -0.000212049              -0.000313945               0.001120437               0.000806492               0.000000000               0.000000000               0.000000000               0.000000000               0.000157182               0.003042690              -0.000178438              -0.000321392               0.001121351               0.000799959               0.000000000               0.000000000               0.000000000               0.000000000               0.000139355               0.003043447              -0.000156429              -0.000328172               0.001123863               0.000795691               0.000000000               0.000000000               0.000000000               0.000000000               0.000123685               0.003052925              -0.000136820              -0.000335233               0.001129376               0.000794143               0.000000000               0.000000000               0.000000000               0.000000000               0.000106722               0.003066848              -0.000116007              -0.000343334               0.001136717               0.000793383               0.000000000               0.000000000               0.000000000               0.000000000               0.000087394               0.003085819              -0.000098756              -0.000352954               0.001146247               0.000793294               0.000000000               0.000000000               0.000000000               0.000000000               0.000063064               0.003108596              -0.000078022              -0.000364925               0.001157830               0.000792905               0.000000000               0.000000000               0.000000000               0.000000000               0.000037702               0.003124412              -0.000050467              -0.000376412               0.001166931               0.000790519               0.000000000               0.000000000               0.000000000               0.000000000               0.000016880               0.003126693              -0.000025086              -0.000384506               0.001170389               0.000785883               0.000000000               0.000000000               0.000000000               0.000000000               0.000005149               0.003115423              -0.000008036              -0.000387496               0.001167629               0.000780133               0.000000000               0.000000000               0.000000000               0.000000000              -0.000003174               0.003100711               0.000000085              -0.000388778               0.001163153               0.000774374               0.000000000               0.000000000               0.000000000               0.000000000               0.001130600               0.002397288              -0.001372760               0.000124311               0.000757650               0.000881962               0.000000000               0.000000000               0.000000000               0.000000000               0.000701213               0.002585069              -0.001078731              -0.000060180               0.000881741               0.000821561               0.000000000               0.000000000               0.000000000               0.000000000               0.000376028               0.002900442              -0.000732495              -0.000221545               0.001040652               0.000819108               0.000000000               0.000000000               0.000000000               0.000000000               0.000278287               0.002975688              -0.000530960              -0.000267603               0.001081087               0.000813484               0.000000000               0.000000000               0.000000000               0.000000000               0.000233084               0.002998281              -0.000406158              -0.000287378               0.001095209               0.000807832               0.000000000               0.000000000               0.000000000               0.000000000               0.000198644               0.003001428              -0.000324188              -0.000300686               0.001100695               0.000800008               0.000000000               0.000000000               0.000000000               0.000000000               0.000173761               0.003006040              -0.000266536              -0.000310594               0.001105535               0.000794941               0.000000000               0.000000000               0.000000000               0.000000000               0.000157200               0.003013390              -0.000224103              -0.000317723               0.001110361               0.000792638               0.000000000               0.000000000               0.000000000               0.000000000               0.000145948               0.003024856              -0.000193631              -0.000323376               0.001116067               0.000792692               0.000000000               0.000000000               0.000000000               0.000000000               0.000138576               0.003047400              -0.000165392              -0.000328958               0.001125442               0.000796484               0.000000000               0.000000000               0.000000000               0.000000000               0.000127110               0.003074083              -0.000136287              -0.000336593               0.001136882               0.000800289               0.000000000               0.000000000               0.000000000               0.000000000               0.000105162               0.003099301              -0.000108004              -0.000347976               0.001149082               0.000801106               0.000000000               0.000000000               0.000000000               0.000000000               0.000074263               0.003120947              -0.000080408              -0.000362269               0.001161062               0.000798793               0.000000000               0.000000000               0.000000000               0.000000000               0.000043462               0.003128902              -0.000051147              -0.000374814               0.001167895               0.000793081               0.000000000               0.000000000               0.000000000               0.000000000               0.000018457               0.003118391              -0.000023839              -0.000382876               0.001167079               0.000784202               0.000000000               0.000000000               0.000000000               0.000000000              -0.000000991               0.003093122              -0.000004506              -0.000387011               0.001160034               0.000773023               0.000000000               0.000000000               0.000000000               0.000000000              -0.000010937               0.003076192               0.000003469              -0.000388624               0.001154928               0.000766304               0.000000000               0.000000000               0.000000000               0.000000000               0.001082904               0.001875699              -0.001205261               0.000171624               0.000568018               0.000739642               0.000000000               0.000000000               0.000000000               0.000000000               0.000708187               0.002170907              -0.001045627              -0.000005795               0.000725560               0.000719765               0.000000000               0.000000000               0.000000000               0.000000000               0.000392819               0.002596049              -0.000816816              -0.000177199               0.000924407               0.000747208               0.000000000               0.000000000               0.000000000               0.000000000               0.000298722               0.002763033              -0.000630965              -0.000233358               0.000998788               0.000765429               0.000000000               0.000000000               0.000000000               0.000000000               0.000255578               0.002844966              -0.000499853              -0.000259779               0.001034905               0.000775127               0.000000000               0.000000000               0.000000000               0.000000000               0.000222248               0.002887536              -0.000406762              -0.000277598               0.001055035               0.000777437               0.000000000               0.000000000               0.000000000               0.000000000               0.000195706               0.002918544              -0.000339172              -0.000291428               0.001069981               0.000778553               0.000000000               0.000000000               0.000000000               0.000000000               0.000180705               0.002947619              -0.000290544              -0.000300687               0.001082759               0.000782072               0.000000000               0.000000000               0.000000000               0.000000000               0.000172784               0.002976317              -0.000250677              -0.000307245               0.001094511               0.000787266               0.000000000               0.000000000               0.000000000               0.000000000               0.000164323               0.003008607              -0.000211836              -0.000314454               0.001107677               0.000793223               0.000000000               0.000000000               0.000000000               0.000000000               0.000150493               0.003040512              -0.000171766              -0.000323628               0.001121370               0.000797741               0.000000000               0.000000000               0.000000000               0.000000000               0.000127545               0.003067238              -0.000132638              -0.000335575               0.001134261               0.000798686               0.000000000               0.000000000               0.000000000               0.000000000               0.000094889               0.003084032              -0.000097665              -0.000349920               0.001144640               0.000794720               0.000000000               0.000000000               0.000000000               0.000000000               0.000056907               0.003092206              -0.000065591              -0.000365185               0.001152453               0.000787269               0.000000000               0.000000000               0.000000000               0.000000000               0.000019989               0.003088816              -0.000035209              -0.000378605               0.001155797               0.000777192               0.000000000               0.000000000               0.000000000               0.000000000              -0.000011995               0.003074709              -0.000011239              -0.000388836               0.001154505               0.000765669               0.000000000               0.000000000               0.000000000               0.000000000              -0.000030093               0.003061806               0.000000140              -0.000394010               0.001151928               0.000757919               0.000000000               0.000000000               0.000000000               0.000000000               0.000972422               0.001388272              -0.001011334               0.000191121               0.000399045               0.000590166               0.000000000               0.000000000               0.000000000               0.000000000               0.000712315               0.001757607              -0.000984578               0.000047416               0.000570057               0.000617473               0.000000000               0.000000000               0.000000000               0.000000000               0.000444993               0.002258687              -0.000881069              -0.000115464               0.000791376               0.000675912               0.000000000               0.000000000               0.000000000               0.000000000               0.000351105               0.002510951              -0.000728319              -0.000182205               0.000897710               0.000715505               0.000000000               0.000000000               0.000000000               0.000000000               0.000308685               0.002658823              -0.000599038              -0.000216596               0.000958464               0.000741868               0.000000000               0.000000000               0.000000000               0.000000000               0.000271240               0.002747790              -0.000498822              -0.000241758               0.000996507               0.000754748               0.000000000               0.000000000               0.000000000               0.000000000               0.000241064               0.002811804              -0.000425074              -0.000261076               0.001024284               0.000763208               0.000000000               0.000000000               0.000000000               0.000000000               0.000219073               0.002865998              -0.000370370              -0.000276097               0.001047355               0.000771259               0.000000000               0.000000000               0.000000000               0.000000000               0.000205926               0.002916121              -0.000321645              -0.000287292               0.001067795               0.000780502               0.000000000               0.000000000               0.000000000               0.000000000               0.000195211               0.002963229              -0.000272185              -0.000297199               0.001086799               0.000789600               0.000000000               0.000000000               0.000000000               0.000000000               0.000179143               0.003004125              -0.000223030              -0.000308336               0.001104144               0.000795807               0.000000000               0.000000000               0.000000000               0.000000000               0.000156174               0.003032687              -0.000177477              -0.000320520               0.001117726               0.000797206               0.000000000               0.000000000               0.000000000               0.000000000               0.000125495               0.003051127              -0.000136622              -0.000334329               0.001128475               0.000794146               0.000000000               0.000000000               0.000000000               0.000000000               0.000088453               0.003063805              -0.000097665              -0.000349805               0.001137860               0.000788055               0.000000000               0.000000000               0.000000000               0.000000000               0.000043325               0.003067292              -0.000059562              -0.000367164               0.001144808               0.000777645               0.000000000               0.000000000               0.000000000               0.000000000              -0.000006307               0.003063088              -0.000025669              -0.000385250               0.001149436               0.000764186               0.000000000               0.000000000               0.000000000               0.000000000              -0.000043422               0.003049527              -0.000005395              -0.000397473               0.001148990               0.000751517               0.000000000               0.000000000               0.000000000               0.000000000               0.000805670               0.000962192              -0.000797832               0.000181850               0.000260110               0.000441960               0.000000000               0.000000000               0.000000000               0.000000000               0.000690310               0.001364130              -0.000880783               0.000088348               0.000425255               0.000513604               0.000000000               0.000000000               0.000000000               0.000000000               0.000511406               0.001888619              -0.000887962              -0.000044301               0.000644300               0.000599999               0.000000000               0.000000000               0.000000000               0.000000000               0.000431240               0.002204284              -0.000781617              -0.000113821               0.000772694               0.000658873               0.000000000               0.000000000               0.000000000               0.000000000               0.000387990               0.002415501              -0.000666766              -0.000156441               0.000857306               0.000700864               0.000000000               0.000000000               0.000000000               0.000000000               0.000348654               0.002555880              -0.000569434              -0.000188740               0.000914865               0.000726125               0.000000000               0.000000000               0.000000000               0.000000000               0.000310311               0.002659285              -0.000495290              -0.000216044               0.000958434               0.000742390               0.000000000               0.000000000               0.000000000               0.000000000               0.000277727               0.002746902              -0.000436732              -0.000239215               0.000995363               0.000756148               0.000000000               0.000000000               0.000000000               0.000000000               0.000254337               0.002825092              -0.000384554              -0.000257760               0.001027608               0.000769848               0.000000000               0.000000000               0.000000000               0.000000000               0.000239400               0.002896443              -0.000330420              -0.000272280               0.001056231               0.000783951               0.000000000               0.000000000               0.000000000               0.000000000               0.000221725               0.002955622              -0.000276865              -0.000286305               0.001080632               0.000794327               0.000000000               0.000000000               0.000000000               0.000000000               0.000196533               0.002995956              -0.000227397              -0.000300794               0.001098907               0.000798113               0.000000000               0.000000000               0.000000000               0.000000000               0.000165089               0.003020748              -0.000183717              -0.000315684               0.001112134               0.000796450               0.000000000               0.000000000               0.000000000               0.000000000               0.000125672               0.003032498              -0.000139771              -0.000331935               0.001121467               0.000789533               0.000000000               0.000000000               0.000000000               0.000000000               0.000078642               0.003042780              -0.000092499              -0.000350856               0.001131202               0.000780346               0.000000000               0.000000000               0.000000000               0.000000000               0.000021452               0.003051088              -0.000044570              -0.000373341               0.001141466               0.000768125               0.000000000               0.000000000               0.000000000               0.000000000              -0.000026721               0.003041924              -0.000014618              -0.000390260               0.001144051               0.000753791               0.000000000               0.000000000               0.000000000               0.000000000               0.000598700               0.000617843              -0.000585345               0.000147280               0.000156852               0.000304132               0.000000000               0.000000000               0.000000000               0.000000000               0.000644540               0.001006577              -0.000739245               0.000115878               0.000296896               0.000412774               0.000000000               0.000000000               0.000000000               0.000000000               0.000581886               0.001510049              -0.000828309               0.000029450               0.000493528               0.000522977               0.000000000               0.000000000               0.000000000               0.000000000               0.000533129               0.001865430              -0.000770296              -0.000033256               0.000632889               0.000599633               0.000000000               0.000000000               0.000000000               0.000000000               0.000492223               0.002127676              -0.000679946              -0.000081376               0.000736343               0.000654967               0.000000000               0.000000000               0.000000000               0.000000000               0.000453451               0.002319066              -0.000594714              -0.000119839               0.000812961               0.000693121               0.000000000               0.000000000               0.000000000               0.000000000               0.000407419               0.002461123              -0.000525131              -0.000154858               0.000871985               0.000717127               0.000000000               0.000000000               0.000000000               0.000000000               0.000365471               0.002581624              -0.000469650              -0.000185651               0.000922416               0.000736765               0.000000000               0.000000000               0.000000000               0.000000000               0.000332679               0.002693701              -0.000419104              -0.000211957               0.000968544               0.000756586               0.000000000               0.000000000               0.000000000               0.000000000               0.000309850               0.002796376              -0.000365792              -0.000233353               0.001009900               0.000776548               0.000000000               0.000000000               0.000000000               0.000000000               0.000289179               0.002878090              -0.000311189              -0.000251319               0.001043127               0.000791808               0.000000000               0.000000000               0.000000000               0.000000000               0.000263197               0.002935994              -0.000262551              -0.000268300               0.001068088               0.000799788               0.000000000               0.000000000               0.000000000               0.000000000               0.000231804               0.002976208              -0.000219069              -0.000285099               0.001087092               0.000801994               0.000000000               0.000000000               0.000000000               0.000000000               0.000193956               0.003001709              -0.000174214              -0.000302479               0.001101386               0.000798907               0.000000000               0.000000000               0.000000000               0.000000000               0.000150337               0.003020399              -0.000124366              -0.000321173               0.001113847               0.000792675               0.000000000               0.000000000               0.000000000               0.000000000               0.000095517               0.003037623              -0.000066342              -0.000343883               0.001127159               0.000783276               0.000000000               0.000000000               0.000000000               0.000000000               0.000047268               0.003036458              -0.000029609              -0.000361831               0.001132753               0.000770922               0.000000000               0.000000000               0.000000000               0.000000000               0.000377345               0.000357618              -0.000394144               0.000096801               0.000086937               0.000183738               0.000000000               0.000000000               0.000000000               0.000000000               0.000580100               0.000703323              -0.000570950               0.000129621               0.000191231               0.000320852               0.000000000               0.000000000               0.000000000               0.000000000               0.000647209               0.001159297              -0.000698545               0.000097790               0.000353832               0.000451621               0.000000000               0.000000000               0.000000000               0.000000000               0.000642902               0.001527147              -0.000679720               0.000050193               0.000492313               0.000542506               0.000000000               0.000000000               0.000000000               0.000000000               0.000612872               0.001822842              -0.000617278               0.000001971               0.000606951               0.000608922               0.000000000               0.000000000               0.000000000               0.000000000               0.000572589               0.002051938              -0.000549595              -0.000041772               0.000697896               0.000656124               0.000000000               0.000000000               0.000000000               0.000000000               0.000525409               0.002229403              -0.000491988              -0.000081647               0.000770343               0.000688695               0.000000000               0.000000000               0.000000000               0.000000000               0.000477323               0.002385082              -0.000445911              -0.000119139               0.000834732               0.000715593               0.000000000               0.000000000               0.000000000               0.000000000               0.000433346               0.002529165              -0.000402300              -0.000153641               0.000894260               0.000740619               0.000000000               0.000000000               0.000000000               0.000000000               0.000400748               0.002659748              -0.000356478              -0.000182188               0.000947303               0.000765115               0.000000000               0.000000000               0.000000000               0.000000000               0.000377200               0.002766942              -0.000307507              -0.000204417               0.000990444               0.000786026               0.000000000               0.000000000               0.000000000               0.000000000               0.000349836               0.002850680              -0.000260366              -0.000225146               0.001025266               0.000800120               0.000000000               0.000000000               0.000000000               0.000000000               0.000316094               0.002916179              -0.000219890              -0.000245987               0.001054046               0.000808059               0.000000000               0.000000000               0.000000000               0.000000000               0.000284933               0.002966779              -0.000182241              -0.000263997               0.001076915               0.000812918               0.000000000               0.000000000               0.000000000               0.000000000               0.000254434               0.003002057              -0.000135993              -0.000279844               0.001093957               0.000814113               0.000000000               0.000000000               0.000000000               0.000000000               0.000216234               0.003028681              -0.000074157              -0.000297496               0.001108716               0.000811219               0.000000000               0.000000000               0.000000000               0.000000000               0.000181449               0.003034830              -0.000035691              -0.000311310               0.001115370               0.000804060               0.000000000               0.000000000               0.000000000               0.000000000               0.000183284               0.000184681              -0.000233174               0.000045646               0.000046344               0.000091990               0.000000000               0.000000000               0.000000000               0.000000000               0.000515142               0.000473973              -0.000386266               0.000133930               0.000113346               0.000247276               0.000000000               0.000000000               0.000000000               0.000000000               0.000698652               0.000869914              -0.000507070               0.000153254               0.000238884               0.000392137               0.000000000               0.000000000               0.000000000               0.000000000               0.000738688               0.001231787              -0.000508875               0.000123033               0.000369580               0.000492614               0.000000000               0.000000000               0.000000000               0.000000000               0.000724377               0.001542706              -0.000471081               0.000078802               0.000487963               0.000566765               0.000000000               0.000000000               0.000000000               0.000000000               0.000687884               0.001799906              -0.000425721               0.000032968               0.000588973               0.000621941               0.000000000               0.000000000               0.000000000               0.000000000               0.000644012               0.002014071              -0.000386753              -0.000010255               0.000674769               0.000664514               0.000000000               0.000000000               0.000000000               0.000000000               0.000591687               0.002198426              -0.000352681              -0.000052921               0.000750442               0.000697521               0.000000000               0.000000000               0.000000000               0.000000000               0.000535579               0.002362285              -0.000321605              -0.000094444               0.000818902               0.000724458               0.000000000               0.000000000               0.000000000               0.000000000               0.000491115               0.002513078              -0.000291457              -0.000129967               0.000881007               0.000751040               0.000000000               0.000000000               0.000000000               0.000000000               0.000457320               0.002647514              -0.000252363              -0.000159444               0.000935644               0.000776200               0.000000000               0.000000000               0.000000000               0.000000000               0.000426282               0.002763803              -0.000209994              -0.000185619               0.000983132               0.000797512               0.000000000               0.000000000               0.000000000               0.000000000               0.000398482               0.002858987              -0.000179735              -0.000207942               0.001022300               0.000814358               0.000000000               0.000000000               0.000000000               0.000000000               0.000375276               0.002932980              -0.000155887              -0.000225893               0.001052948               0.000827055               0.000000000               0.000000000               0.000000000               0.000000000               0.000357714               0.002989789              -0.000120076              -0.000239580               0.001076446               0.000836866               0.000000000               0.000000000               0.000000000               0.000000000               0.000346543               0.003029697              -0.000065573              -0.000248758               0.001092808               0.000844050               0.000000000               0.000000000               0.000000000               0.000000000               0.000340324               0.003043094              -0.000032867              -0.000252764               0.001098609               0.000845845               0.000000000               0.000000000               0.000000000               0.000000000               0.000052978               0.000089047              -0.000106132               0.000008736               0.000026770               0.000035506               0.000000000               0.000000000               0.000000000               0.000000000               0.000472038               0.000334052              -0.000194271               0.000135256               0.000066264               0.000201520               0.000000000               0.000000000               0.000000000               0.000000000               0.000732937               0.000680722              -0.000266810               0.000189759               0.000163652               0.000353411               0.000000000               0.000000000               0.000000000               0.000000000               0.000804345               0.001028924              -0.000272376               0.000173012               0.000285300               0.000458313               0.000000000               0.000000000               0.000000000               0.000000000               0.000805719               0.001344031              -0.000254558               0.000134139               0.000403293               0.000537432               0.000000000               0.000000000               0.000000000               0.000000000               0.000778171               0.001624271              -0.000233576               0.000088779               0.000511825               0.000600604               0.000000000               0.000000000               0.000000000               0.000000000               0.000733897               0.001864445              -0.000215463               0.000042155               0.000607424               0.000649579               0.000000000               0.000000000               0.000000000               0.000000000               0.000677437               0.002062664              -0.000195970              -0.000003794               0.000688813               0.000685018               0.000000000               0.000000000               0.000000000               0.000000000               0.000617031               0.002235499              -0.000180234              -0.000048051               0.000761176               0.000713125               0.000000000               0.000000000               0.000000000               0.000000000               0.000559953               0.002401232              -0.000166269              -0.000090171               0.000830460               0.000740288               0.000000000               0.000000000               0.000000000               0.000000000               0.000513659               0.002561021              -0.000142884              -0.000127505               0.000896167               0.000768662               0.000000000               0.000000000               0.000000000               0.000000000               0.000484055               0.002702723              -0.000118478              -0.000156319               0.000953005               0.000796686               0.000000000               0.000000000               0.000000000               0.000000000               0.000465745               0.002818703              -0.000103374              -0.000177683               0.000998786               0.000821103               0.000000000               0.000000000               0.000000000               0.000000000               0.000450543               0.002909599              -0.000090985              -0.000194746               0.001034772               0.000840026               0.000000000               0.000000000               0.000000000               0.000000000               0.000441850               0.002978729              -0.000071701              -0.000206647               0.001061782               0.000855135               0.000000000               0.000000000               0.000000000               0.000000000               0.000449797               0.003026729              -0.000041523              -0.000209667               0.001078789               0.000869122               0.000000000               0.000000000               0.000000000               0.000000000               0.000465836               0.003046568              -0.000023814              -0.000206132               0.001084223               0.000878091               0.000000000               0.000000000               0.000000000               0.000000000               0.000000000               0.000000000               0.000000000               0.000000000               0.000000000               0.000000000               0.000000000               0.000000000               0.000000000               0.000000000               0.000000000               0.000000000               0.000000000               0.000000000               0.000000000               0.000000000               0.000000000               0.000000000               0.000000000               0.000000000               0.000000000               0.000000000               0.000000000               0.000000000               0.000000000               0.000000000               0.000000000               0.000000000               0.000000000               0.000000000               0.000000000               0.000000000               0.000000000               0.000000000               0.000000000               0.000000000               0.000000000               0.000000000               0.000000000               0.000000000               0.000000000               0.000000000               0.000000000               0.000000000               0.000000000               0.000000000               0.000000000               0.000000000               0.000000000               0.000000000               0.000000000               0.000000000               0.000000000               0.000000000               0.000000000               0.000000000               0.000000000               0.000000000               0.000000000               0.000000000               0.000000000               0.000000000               0.000000000               0.000000000               0.000000000               0.000000000               0.000000000               0.000000000               0.000000000               0.000000000               0.000000000               0.000000000               0.000000000               0.000000000               0.000000000               0.000000000               0.000000000               0.000000000               0.000000000               0.000000000               0.000000000               0.000000000               0.000000000               0.000000000               0.000000000               0.000000000               0.000000000               0.000000000               0.000000000               0.000000000               0.000000000               0.000000000               0.000000000               0.000000000               0.000000000               0.000000000               0.000000000               0.000000000               0.000000000               0.000000000               0.000000000               0.000000000               0.000000000               0.000000000               0.000000000               0.000000000               0.000000000               0.000000000               0.000000000               0.000000000               0.000000000               0.000000000               0.000000000               0.000000000               0.000000000               0.000000000               0.000000000               0.000000000               0.000000000               0.000000000               0.000000000               0.000000000               0.000000000               0.000000000               0.000000000               0.000000000               0.000000000               0.000000000               0.000000000               0.000000000               0.000000000               0.000000000               0.000000000               0.000000000               0.000000000               0.000000000               0.000000000               0.000000000               0.000000000               0.000000000               0.000000000               0.000000000               0.000000000               0.000000000               0.000000000               0.000000000               0.000000000               0.000000000               0.000000000               0.000000000               0.000000000               0.000000000               0.000000000               0.000000000               0.000000000               0.000000000               0.000000000               0.000000000               0.000000000               0.000000000               0.000000000               0.000000000               0.000000000               0.000000000               0.000000000               0.000000000               0.000000000               0.000000000               0.000000000               0.000000000               0.000000000               0.000000000               0.000000000               0.000000000               0.000000000               0.000000000               0.000000000               0.000000000               0.000000000               0.000000000               0.000000000               0.000000000               0.000000000               0.000000000               0.000000000               0.000000000               0.000000000               0.000000000               0.000000000               0.000000000               0.000000000               0.000000000               0.000000000               0.000000000               0.000000000               0.000000000               0.000000000               0.000000000               0.000000000               0.000000000               0.000000000               0.000000000               0.000000000               0.000000000               0.000000000               0.000000000               0.000000000               0.000000000               0.000000000               0.000000000               0.000000000               0.000000000               0.000000000               0.000000000               0.000000000               0.000000000               0.000000000               0.000000000               0.000000000               0.000000000               0.000000000               0.000000000               0.000000000               0.000000000               0.000000000               0.000000000               0.000000000               0.000000000               0.000000000               0.000000000               0.000000000               0.000000000               0.000000000               0.000000000               0.000000000               0.000000000               0.000000000               0.000000000               0.000000000               0.000000000               0.000000000               0.000000000               0.000000000               0.000000000               0.000000000               0.000000000               0.000000000               0.000000000               0.000000000               0.000000000               0.000000000               0.000000000               0.000000000               0.000000000               0.000000000               0.000000000               0.000000000               0.000000000               0.000000000               0.000000000               0.000000000               0.000000000               0.000000000               0.000000000               0.000000000               0.000000000               0.000000000               0.000000000               0.000000000               0.000000000               0.000000000               0.000000000               0.000000000               0.000000000               0.000000000               0.000000000               0.000000000               0.000000000               0.000000000               0.000000000               0.000000000               0.000000000               0.000000000               0.000000000               0.000000000               0.000000000               0.000000000               0.000000000               0.000000000               0.000000000               0.000000000               0.000000000               0.000000000               0.000000000               0.000000000               0.000000000               0.000000000               0.000000000               0.000000000               0.000000000               0.000000000               0.000000000               0.000000000               0.000000000               0.000000000               0.000000000               0.000000000               0.000000000               0.000000000               0.000000000               0.000000000               0.000000000               0.000000000               0.000000000               0.000000000               0.000000000               0.000000000               0.000000000               0.000000000               0.000000000               0.000000000               0.000000000               0.000000000               0.000000000               0.000000000               0.000000000               0.000000000               0.000000000               0.000000000               0.000000000               0.000000000               0.000000000               0.000000000               0.000000000               0.000000000               0.000000000               0.000000000               0.000000000               0.000000000               0.000000000               0.000569635               0.006170516               0.000475905              -0.000557700               0.002242718               0.001685018               0.000000000               0.000000000               0.000000000               0.000000000               0.000597819               0.005130028               0.000306595              -0.000417070               0.001849016               0.001431945               0.000000000               0.000000000               0.000000000               0.000000000               0.000799380               0.004303104               0.000131912              -0.000238120               0.001513727               0.001275607               0.000000000               0.000000000               0.000000000               0.000000000               0.000817030               0.003846740               0.000051233              -0.000174456               0.001340386               0.001165930               0.000000000               0.000000000               0.000000000               0.000000000               0.000768473               0.003578287               0.000011423              -0.000159108               0.001245787               0.001086679               0.000000000               0.000000000               0.000000000               0.000000000               0.000696225               0.003412378              -0.000009305              -0.000165462               0.001192602               0.001027140               0.000000000               0.000000000               0.000000000               0.000000000               0.000619327               0.003308098              -0.000019481              -0.000181264               0.001163110               0.000981846               0.000000000               0.000000000               0.000000000               0.000000000               0.000546676               0.003242970              -0.000022989              -0.000200367               0.001147768               0.000947401               0.000000000               0.000000000               0.000000000               0.000000000               0.000477677               0.003202504              -0.000024424              -0.000221184               0.001141218               0.000920035               0.000000000               0.000000000               0.000000000               0.000000000               0.000414904               0.003181238              -0.000024412              -0.000242065               0.001141090               0.000899025               0.000000000               0.000000000               0.000000000               0.000000000               0.000358581               0.003169902              -0.000022302              -0.000261769               0.001143880               0.000882111               0.000000000               0.000000000               0.000000000               0.000000000               0.000303612               0.003166218              -0.000021988              -0.000281922               0.001149370               0.000867448               0.000000000               0.000000000               0.000000000               0.000000000               0.000246328               0.003168870              -0.000021824              -0.000303735               0.001157524               0.000853789               0.000000000               0.000000000               0.000000000               0.000000000               0.000186063               0.003174509              -0.000019142              -0.000327039               0.001167172               0.000840133               0.000000000               0.000000000               0.000000000               0.000000000               0.000123760               0.003179295              -0.000014432              -0.000351001               0.001176755               0.000825754               0.000000000               0.000000000               0.000000000               0.000000000               0.000060852               0.003182648              -0.000008275              -0.000375010               0.001185876               0.000810865               0.000000000               0.000000000               0.000000000               0.000000000               0.000031314               0.003187523              -0.000004526              -0.000386697               0.001191396               0.000804699               0.000000000               0.000000000               0.000000000               0.000000000               0.000667825               0.005872938               0.000904317              -0.000483682               0.002118853               0.001635172               0.000000000               0.000000000               0.000000000               0.000000000               0.000631591               0.004923215               0.000584651              -0.000378555               0.001767240               0.001388685               0.000000000               0.000000000               0.000000000               0.000000000               0.000761384               0.004192020               0.000256168              -0.000238483               0.001476820               0.001238337               0.000000000               0.000000000               0.000000000               0.000000000               0.000749843               0.003786142               0.000105254              -0.000192076               0.001326060               0.001133984               0.000000000               0.000000000               0.000000000               0.000000000               0.000694190               0.003546180               0.000031158              -0.000182951               0.001243032               0.001060081               0.000000000               0.000000000               0.000000000               0.000000000               0.000621645               0.003395908              -0.000005998              -0.000191371               0.001195748               0.001004377               0.000000000               0.000000000               0.000000000               0.000000000               0.000547157               0.003301301              -0.000023596              -0.000207478               0.001169582               0.000962104               0.000000000               0.000000000               0.000000000               0.000000000               0.000477966               0.003241701              -0.000029857              -0.000225975               0.001155881               0.000929906               0.000000000               0.000000000               0.000000000               0.000000000               0.000415154               0.003205186              -0.000033479              -0.000244965               0.001150040               0.000905075               0.000000000               0.000000000               0.000000000               0.000000000               0.000360079               0.003185585              -0.000032911              -0.000263168               0.001149574               0.000886406               0.000000000               0.000000000               0.000000000               0.000000000               0.000310233               0.003176107              -0.000028076              -0.000280675               0.001152250               0.000871575               0.000000000               0.000000000               0.000000000               0.000000000               0.000261501               0.003172371              -0.000026986              -0.000298483               0.001156941               0.000858458               0.000000000               0.000000000               0.000000000               0.000000000               0.000212973               0.003174800              -0.000027397              -0.000316984               0.001163918               0.000846933               0.000000000               0.000000000               0.000000000               0.000000000               0.000161434               0.003182815              -0.000023841              -0.000337313               0.001173365               0.000836052               0.000000000               0.000000000               0.000000000               0.000000000               0.000107244               0.003194166              -0.000017137              -0.000359053               0.001184396               0.000825342               0.000000000               0.000000000               0.000000000               0.000000000               0.000052868               0.003208688              -0.000008923              -0.000381260               0.001196639               0.000815379               0.000000000               0.000000000               0.000000000               0.000000000               0.000029174               0.003224089              -0.000002735              -0.000392070               0.001205376               0.000813306               0.000000000               0.000000000               0.000000000               0.000000000               0.000801038               0.005413859               0.001241994              -0.000376343               0.001930049               0.001553706               0.000000000               0.000000000               0.000000000               0.000000000               0.000672742               0.004603620               0.000807835              -0.000323174               0.001642249               0.001319075               0.000000000               0.000000000               0.000000000               0.000000000               0.000702732               0.004018846               0.000364549              -0.000238831               0.001419212               0.001180381               0.000000000               0.000000000               0.000000000               0.000000000               0.000651668               0.003686985               0.000165227              -0.000216497               0.001301148               0.001084651               0.000000000               0.000000000               0.000000000               0.000000000               0.000585805               0.003484771               0.000068558              -0.000215919               0.001233552               0.001017633               0.000000000               0.000000000               0.000000000               0.000000000               0.000516203               0.003358953               0.000020324              -0.000226293               0.001195071               0.000968778               0.000000000               0.000000000               0.000000000               0.000000000               0.000448639               0.003279404              -0.000003349              -0.000241685               0.001173685               0.000932000               0.000000000               0.000000000               0.000000000               0.000000000               0.000389632               0.003228543              -0.000012957              -0.000257455               0.001161989               0.000904534               0.000000000               0.000000000               0.000000000               0.000000000               0.000335541               0.003196406              -0.000018020              -0.000273722               0.001156699               0.000882977               0.000000000               0.000000000               0.000000000               0.000000000               0.000284783               0.003175796              -0.000019371              -0.000290180               0.001155315               0.000865135               0.000000000               0.000000000               0.000000000               0.000000000               0.000240835               0.003167249              -0.000013581              -0.000305592               0.001157603               0.000852011               0.000000000               0.000000000               0.000000000               0.000000000               0.000200659               0.003163114              -0.000010256              -0.000320142               0.001161075               0.000840933               0.000000000               0.000000000               0.000000000               0.000000000               0.000163480               0.003164356              -0.000012141              -0.000334239               0.001166188               0.000831949               0.000000000               0.000000000               0.000000000               0.000000000               0.000124915               0.003171927              -0.000012016              -0.000349647               0.001173848               0.000824200               0.000000000               0.000000000               0.000000000               0.000000000               0.000083096               0.003186953              -0.000008427              -0.000367207               0.001184709               0.000817502               0.000000000               0.000000000               0.000000000               0.000000000               0.000040935               0.003210188              -0.000003846              -0.000385922               0.001198693               0.000812771               0.000000000               0.000000000               0.000000000               0.000000000               0.000025049               0.003233447               0.000000764              -0.000394786               0.001209400               0.000814614               0.000000000               0.000000000               0.000000000               0.000000000               0.000935433               0.004839698               0.001467736              -0.000254176               0.001697941               0.001443766               0.000000000               0.000000000               0.000000000               0.000000000               0.000704354               0.004209485               0.000966125              -0.000262053               0.001490499               0.001228446               0.000000000               0.000000000               0.000000000               0.000000000               0.000626889               0.003805035               0.000456690              -0.000240545               0.001348514               0.001107969               0.000000000               0.000000000               0.000000000               0.000000000               0.000541450               0.003558075               0.000232982              -0.000241715               0.001266585               0.001024870               0.000000000               0.000000000               0.000000000               0.000000000               0.000467006               0.003402972               0.000123652              -0.000250244               0.001217727               0.000967484               0.000000000               0.000000000               0.000000000               0.000000000               0.000404259               0.003305503               0.000066768              -0.000261590               0.001189020               0.000927430               0.000000000               0.000000000               0.000000000               0.000000000               0.000348528               0.003240413               0.000037522              -0.000274353               0.001171578               0.000897225               0.000000000               0.000000000               0.000000000               0.000000000               0.000299154               0.003197486               0.000024799              -0.000287502               0.001161652               0.000874150               0.000000000               0.000000000               0.000000000               0.000000000               0.000254730               0.003168563               0.000019203              -0.000300546               0.001156359               0.000855813               0.000000000               0.000000000               0.000000000               0.000000000               0.000212612               0.003148382               0.000016222              -0.000313818               0.001154056               0.000840238               0.000000000               0.000000000               0.000000000               0.000000000               0.000174079               0.003138420               0.000019673              -0.000327022               0.001155137               0.000828115               0.000000000               0.000000000               0.000000000               0.000000000               0.000141649               0.003136336               0.000022779              -0.000338923               0.001158409               0.000819486               0.000000000               0.000000000               0.000000000               0.000000000               0.000114026               0.003138168               0.000017771              -0.000349510               0.001162549               0.000813039               0.000000000               0.000000000               0.000000000               0.000000000               0.000086472               0.003147247               0.000011101              -0.000360978               0.001169398               0.000808420               0.000000000               0.000000000               0.000000000               0.000000000               0.000057862               0.003166312               0.000005961              -0.000374090               0.001180123               0.000806034               0.000000000               0.000000000               0.000000000               0.000000000               0.000028690               0.003194910               0.000002675              -0.000388604               0.001194494               0.000805890               0.000000000               0.000000000               0.000000000               0.000000000               0.000019109               0.003219990               0.000004629              -0.000395332               0.001205097               0.000809765               0.000000000               0.000000000               0.000000000               0.000000000               0.001048814               0.004203381               0.001579835              -0.000132119               0.001445152               0.001313033               0.000000000               0.000000000               0.000000000               0.000000000               0.000721346               0.003777936               0.001061252              -0.000201738               0.001326545               0.001124808               0.000000000               0.000000000               0.000000000               0.000000000               0.000542477               0.003570594               0.000535551              -0.000242895               0.001271151               0.001028256               0.000000000               0.000000000               0.000000000               0.000000000               0.000438113               0.003416337               0.000307136              -0.000262749               0.001226351               0.000963601               0.000000000               0.000000000               0.000000000               0.000000000               0.000366736               0.003309222               0.000190975              -0.000276126               0.001195105               0.000918979               0.000000000               0.000000000               0.000000000               0.000000000               0.000310876               0.003235667               0.000127921              -0.000287879               0.001174505               0.000886625               0.000000000               0.000000000               0.000000000               0.000000000               0.000264226               0.003182710               0.000093866              -0.000298753               0.001160477               0.000861724               0.000000000               0.000000000               0.000000000               0.000000000               0.000224108               0.003147644               0.000077048              -0.000309414               0.001152342               0.000842928               0.000000000               0.000000000               0.000000000               0.000000000               0.000187779               0.003124852               0.000069719              -0.000320189               0.001148336               0.000828148               0.000000000               0.000000000               0.000000000               0.000000000               0.000153762               0.003109572               0.000062002              -0.000331035               0.001146859               0.000815824               0.000000000               0.000000000               0.000000000               0.000000000               0.000125969               0.003105703               0.000057660              -0.000340974               0.001148882               0.000807908               0.000000000               0.000000000               0.000000000               0.000000000               0.000101644               0.003109888               0.000056948              -0.000350619               0.001153492               0.000802873               0.000000000               0.000000000               0.000000000               0.000000000               0.000080519               0.003117692               0.000047972              -0.000359516               0.001159059               0.000799543               0.000000000               0.000000000               0.000000000               0.000000000               0.000060320               0.003133007               0.000032347              -0.000369005               0.001167327               0.000798322               0.000000000               0.000000000               0.000000000               0.000000000               0.000038441               0.003155019               0.000018214              -0.000379961               0.001178316               0.000798355               0.000000000               0.000000000               0.000000000               0.000000000               0.000018780               0.003178904               0.000007231              -0.000390320               0.001189731               0.000799411               0.000000000               0.000000000               0.000000000               0.000000000               0.000013554               0.003195995               0.000004668              -0.000394416               0.001196793               0.000802377               0.000000000               0.000000000               0.000000000               0.000000000               0.001118370               0.003558399               0.001587084              -0.000025413               0.001194592               0.001169178               0.000000000               0.000000000               0.000000000               0.000000000               0.000721346               0.003345873               0.001102121              -0.000147730               0.001164523               0.001016793               0.000000000               0.000000000               0.000000000               0.000000000               0.000464121               0.003334244               0.000603927              -0.000242735               0.001192315               0.000949580               0.000000000               0.000000000               0.000000000               0.000000000               0.000353931               0.003265523               0.000382036              -0.000275466               0.001180319               0.000904853               0.000000000               0.000000000               0.000000000               0.000000000               0.000290393               0.003200014               0.000262860              -0.000291104               0.001163695               0.000872592               0.000000000               0.000000000               0.000000000               0.000000000               0.000244175               0.003149638               0.000195503              -0.000302138               0.001150582               0.000848443               0.000000000               0.000000000               0.000000000               0.000000000               0.000207598               0.003112311               0.000156091              -0.000311189               0.001141156               0.000829967               0.000000000               0.000000000               0.000000000               0.000000000               0.000176901               0.003091553               0.000132159              -0.000320105               0.001137209               0.000817104               0.000000000               0.000000000               0.000000000               0.000000000               0.000151348               0.003081336               0.000118762              -0.000328411               0.001136572               0.000808161               0.000000000               0.000000000               0.000000000               0.000000000               0.000127836               0.003077975               0.000104546              -0.000336807               0.001138251               0.000801443               0.000000000               0.000000000               0.000000000               0.000000000               0.000107233               0.003080967               0.000090971              -0.000344908               0.001141948               0.000797040               0.000000000               0.000000000               0.000000000               0.000000000               0.000087559               0.003091549               0.000083994              -0.000353608               0.001148376               0.000794767               0.000000000               0.000000000               0.000000000               0.000000000               0.000066878               0.003107853               0.000070410              -0.000363402               0.001157074               0.000793673               0.000000000               0.000000000               0.000000000               0.000000000               0.000046292               0.003127442               0.000047893              -0.000373570               0.001166993               0.000793424               0.000000000               0.000000000               0.000000000               0.000000000               0.000026191               0.003143599               0.000027233              -0.000383127               0.001175565               0.000792438               0.000000000               0.000000000               0.000000000               0.000000000               0.000011315               0.003150846               0.000011152              -0.000389612               0.001180142               0.000790530               0.000000000               0.000000000               0.000000000               0.000000000               0.000003992               0.003148484               0.000003211              -0.000392063               0.001180172               0.000788109               0.000000000               0.000000000               0.000000000               0.000000000               0.001138123               0.002940213               0.001508796               0.000059267               0.000960305               0.001019572               0.000000000               0.000000000               0.000000000               0.000000000               0.000707001               0.002942341               0.001101308              -0.000102668               0.001014993               0.000912325               0.000000000               0.000000000               0.000000000               0.000000000               0.000402301               0.003107215               0.000664464              -0.000237539               0.001114908               0.000877369               0.000000000               0.000000000               0.000000000               0.000000000               0.000297261               0.003110110               0.000452563              -0.000277290               0.001129123               0.000851833               0.000000000               0.000000000               0.000000000               0.000000000               0.000244855               0.003086932               0.000331897              -0.000294045               0.001126982               0.000832937               0.000000000               0.000000000               0.000000000               0.000000000               0.000205788               0.003062814               0.000259465              -0.000305680               0.001122821               0.000817141               0.000000000               0.000000000               0.000000000               0.000000000               0.000178609               0.003047396               0.000212049              -0.000313945               0.001120437               0.000806492               0.000000000               0.000000000               0.000000000               0.000000000               0.000157182               0.003042690               0.000178438              -0.000321392               0.001121351               0.000799959               0.000000000               0.000000000               0.000000000               0.000000000               0.000139355               0.003043447               0.000156429              -0.000328172               0.001123863               0.000795691               0.000000000               0.000000000               0.000000000               0.000000000               0.000123685               0.003052925               0.000136820              -0.000335233               0.001129376               0.000794143               0.000000000               0.000000000               0.000000000               0.000000000               0.000106722               0.003066848               0.000116007              -0.000343334               0.001136717               0.000793383               0.000000000               0.000000000               0.000000000               0.000000000               0.000087394               0.003085819               0.000098756              -0.000352954               0.001146247               0.000793294               0.000000000               0.000000000               0.000000000               0.000000000               0.000063064               0.003108596               0.000078022              -0.000364925               0.001157830               0.000792905               0.000000000               0.000000000               0.000000000               0.000000000               0.000037702               0.003124412               0.000050467              -0.000376412               0.001166931               0.000790519               0.000000000               0.000000000               0.000000000               0.000000000               0.000016880               0.003126693               0.000025086              -0.000384506               0.001170389               0.000785883               0.000000000               0.000000000               0.000000000               0.000000000               0.000005149               0.003115423               0.000008036              -0.000387496               0.001167629               0.000780133               0.000000000               0.000000000               0.000000000               0.000000000              -0.000003174               0.003100711              -0.000000085              -0.000388778               0.001163153               0.000774374               0.000000000               0.000000000               0.000000000               0.000000000               0.001130600               0.002397288               0.001372760               0.000124311               0.000757650               0.000881962               0.000000000               0.000000000               0.000000000               0.000000000               0.000701213               0.002585069               0.001078731              -0.000060180               0.000881741               0.000821561               0.000000000               0.000000000               0.000000000               0.000000000               0.000376028               0.002900442               0.000732495              -0.000221545               0.001040652               0.000819108               0.000000000               0.000000000               0.000000000               0.000000000               0.000278287               0.002975688               0.000530960              -0.000267603               0.001081087               0.000813484               0.000000000               0.000000000               0.000000000               0.000000000               0.000233084               0.002998281               0.000406158              -0.000287378               0.001095209               0.000807832               0.000000000               0.000000000               0.000000000               0.000000000               0.000198644               0.003001428               0.000324188              -0.000300686               0.001100695               0.000800008               0.000000000               0.000000000               0.000000000               0.000000000               0.000173761               0.003006040               0.000266536              -0.000310594               0.001105535               0.000794941               0.000000000               0.000000000               0.000000000               0.000000000               0.000157200               0.003013390               0.000224103              -0.000317723               0.001110361               0.000792638               0.000000000               0.000000000               0.000000000               0.000000000               0.000145948               0.003024856               0.000193631              -0.000323376               0.001116067               0.000792692               0.000000000               0.000000000               0.000000000               0.000000000               0.000138576               0.003047400               0.000165392              -0.000328958               0.001125442               0.000796484               0.000000000               0.000000000               0.000000000               0.000000000               0.000127110               0.003074083               0.000136287              -0.000336593               0.001136882               0.000800289               0.000000000               0.000000000               0.000000000               0.000000000               0.000105162               0.003099301               0.000108004              -0.000347976               0.001149082               0.000801106               0.000000000               0.000000000               0.000000000               0.000000000               0.000074263               0.003120947               0.000080408              -0.000362269               0.001161062               0.000798793               0.000000000               0.000000000               0.000000000               0.000000000               0.000043462               0.003128902               0.000051147              -0.000374814               0.001167895               0.000793081               0.000000000               0.000000000               0.000000000               0.000000000               0.000018457               0.003118391               0.000023839              -0.000382876               0.001167079               0.000784202               0.000000000               0.000000000               0.000000000               0.000000000              -0.000000991               0.003093122               0.000004506              -0.000387011               0.001160034               0.000773023               0.000000000               0.000000000               0.000000000               0.000000000              -0.000010937               0.003076192              -0.000003469              -0.000388624               0.001154928               0.000766304               0.000000000               0.000000000               0.000000000               0.000000000               0.001082904               0.001875699               0.001205261               0.000171624               0.000568018               0.000739642               0.000000000               0.000000000               0.000000000               0.000000000               0.000708187               0.002170907               0.001045627              -0.000005795               0.000725560               0.000719765               0.000000000               0.000000000               0.000000000               0.000000000               0.000392819               0.002596049               0.000816816              -0.000177199               0.000924407               0.000747208               0.000000000               0.000000000               0.000000000               0.000000000               0.000298722               0.002763033               0.000630965              -0.000233358               0.000998788               0.000765429               0.000000000               0.000000000               0.000000000               0.000000000               0.000255578               0.002844966               0.000499853              -0.000259779               0.001034905               0.000775127               0.000000000               0.000000000               0.000000000               0.000000000               0.000222248               0.002887536               0.000406762              -0.000277598               0.001055035               0.000777437               0.000000000               0.000000000               0.000000000               0.000000000               0.000195706               0.002918544               0.000339172              -0.000291428               0.001069981               0.000778553               0.000000000               0.000000000               0.000000000               0.000000000               0.000180705               0.002947619               0.000290544              -0.000300687               0.001082759               0.000782072               0.000000000               0.000000000               0.000000000               0.000000000               0.000172784               0.002976317               0.000250677              -0.000307245               0.001094511               0.000787266               0.000000000               0.000000000               0.000000000               0.000000000               0.000164323               0.003008607               0.000211836              -0.000314454               0.001107677               0.000793223               0.000000000               0.000000000               0.000000000               0.000000000               0.000150493               0.003040512               0.000171766              -0.000323628               0.001121370               0.000797741               0.000000000               0.000000000               0.000000000               0.000000000               0.000127545               0.003067238               0.000132638              -0.000335575               0.001134261               0.000798686               0.000000000               0.000000000               0.000000000               0.000000000               0.000094889               0.003084032               0.000097665              -0.000349920               0.001144640               0.000794720               0.000000000               0.000000000               0.000000000               0.000000000               0.000056907               0.003092206               0.000065591              -0.000365185               0.001152453               0.000787269               0.000000000               0.000000000               0.000000000               0.000000000               0.000019989               0.003088816               0.000035209              -0.000378605               0.001155797               0.000777192               0.000000000               0.000000000               0.000000000               0.000000000              -0.000011995               0.003074709               0.000011239              -0.000388836               0.001154505               0.000765669               0.000000000               0.000000000               0.000000000               0.000000000              -0.000030093               0.003061806              -0.000000140              -0.000394010               0.001151928               0.000757919               0.000000000               0.000000000               0.000000000               0.000000000               0.000972422               0.001388272               0.001011334               0.000191121               0.000399045               0.000590166               0.000000000               0.000000000               0.000000000               0.000000000               0.000712315               0.001757607               0.000984578               0.000047416               0.000570057               0.000617473               0.000000000               0.000000000               0.000000000               0.000000000               0.000444993               0.002258687               0.000881069              -0.000115464               0.000791376               0.000675912               0.000000000               0.000000000               0.000000000               0.000000000               0.000351105               0.002510951               0.000728319              -0.000182205               0.000897710               0.000715505               0.000000000               0.000000000               0.000000000               0.000000000               0.000308685               0.002658823               0.000599038              -0.000216596               0.000958464               0.000741868               0.000000000               0.000000000               0.000000000               0.000000000               0.000271240               0.002747790               0.000498822              -0.000241758               0.000996507               0.000754748               0.000000000               0.000000000               0.000000000               0.000000000               0.000241064               0.002811804               0.000425074              -0.000261076               0.001024284               0.000763208               0.000000000               0.000000000               0.000000000               0.000000000               0.000219073               0.002865998               0.000370370              -0.000276097               0.001047355               0.000771259               0.000000000               0.000000000               0.000000000               0.000000000               0.000205926               0.002916121               0.000321645              -0.000287292               0.001067795               0.000780502               0.000000000               0.000000000               0.000000000               0.000000000               0.000195211               0.002963229               0.000272185              -0.000297199               0.001086799               0.000789600               0.000000000               0.000000000               0.000000000               0.000000000               0.000179143               0.003004125               0.000223030              -0.000308336               0.001104144               0.000795807               0.000000000               0.000000000               0.000000000               0.000000000               0.000156174               0.003032687               0.000177477              -0.000320520               0.001117726               0.000797206               0.000000000               0.000000000               0.000000000               0.000000000               0.000125495               0.003051127               0.000136622              -0.000334329               0.001128475               0.000794146               0.000000000               0.000000000               0.000000000               0.000000000               0.000088453               0.003063805               0.000097665              -0.000349805               0.001137860               0.000788055               0.000000000               0.000000000               0.000000000               0.000000000               0.000043325               0.003067292               0.000059562              -0.000367164               0.001144808               0.000777645               0.000000000               0.000000000               0.000000000               0.000000000              -0.000006307               0.003063088               0.000025669              -0.000385250               0.001149436               0.000764186               0.000000000               0.000000000               0.000000000               0.000000000              -0.000043422               0.003049527               0.000005395              -0.000397473               0.001148990               0.000751517               0.000000000               0.000000000               0.000000000               0.000000000               0.000805670               0.000962192               0.000797832               0.000181850               0.000260110               0.000441960               0.000000000               0.000000000               0.000000000               0.000000000               0.000690310               0.001364130               0.000880783               0.000088348               0.000425255               0.000513604               0.000000000               0.000000000               0.000000000               0.000000000               0.000511406               0.001888619               0.000887962              -0.000044301               0.000644300               0.000599999               0.000000000               0.000000000               0.000000000               0.000000000               0.000431240               0.002204284               0.000781617              -0.000113821               0.000772694               0.000658873               0.000000000               0.000000000               0.000000000               0.000000000               0.000387990               0.002415501               0.000666766              -0.000156441               0.000857306               0.000700864               0.000000000               0.000000000               0.000000000               0.000000000               0.000348654               0.002555880               0.000569434              -0.000188740               0.000914865               0.000726125               0.000000000               0.000000000               0.000000000               0.000000000               0.000310311               0.002659285               0.000495290              -0.000216044               0.000958434               0.000742390               0.000000000               0.000000000               0.000000000               0.000000000               0.000277727               0.002746902               0.000436732              -0.000239215               0.000995363               0.000756148               0.000000000               0.000000000               0.000000000               0.000000000               0.000254337               0.002825092               0.000384554              -0.000257760               0.001027608               0.000769848               0.000000000               0.000000000               0.000000000               0.000000000               0.000239400               0.002896443               0.000330420              -0.000272280               0.001056231               0.000783951               0.000000000               0.000000000               0.000000000               0.000000000               0.000221725               0.002955622               0.000276865              -0.000286305               0.001080632               0.000794327               0.000000000               0.000000000               0.000000000               0.000000000               0.000196533               0.002995956               0.000227397              -0.000300794               0.001098907               0.000798113               0.000000000               0.000000000               0.000000000               0.000000000               0.000165089               0.003020748               0.000183717              -0.000315684               0.001112134               0.000796450               0.000000000               0.000000000               0.000000000               0.000000000               0.000125672               0.003032498               0.000139771              -0.000331935               0.001121467               0.000789533               0.000000000               0.000000000               0.000000000               0.000000000               0.000078642               0.003042780               0.000092499              -0.000350856               0.001131202               0.000780346               0.000000000               0.000000000               0.000000000               0.000000000               0.000021452               0.003051088               0.000044570              -0.000373341               0.001141466               0.000768125               0.000000000               0.000000000               0.000000000               0.000000000              -0.000026721               0.003041924               0.000014618              -0.000390260               0.001144051               0.000753791               0.000000000               0.000000000               0.000000000               0.000000000               0.000598700               0.000617843               0.000585345               0.000147280               0.000156852               0.000304132               0.000000000               0.000000000               0.000000000               0.000000000               0.000644540               0.001006577               0.000739245               0.000115878               0.000296896               0.000412774               0.000000000               0.000000000               0.000000000               0.000000000               0.000581886               0.001510049               0.000828309               0.000029450               0.000493528               0.000522977               0.000000000               0.000000000               0.000000000               0.000000000               0.000533129               0.001865430               0.000770296              -0.000033256               0.000632889               0.000599633               0.000000000               0.000000000               0.000000000               0.000000000               0.000492223               0.002127676               0.000679946              -0.000081376               0.000736343               0.000654967               0.000000000               0.000000000               0.000000000               0.000000000               0.000453451               0.002319066               0.000594714              -0.000119839               0.000812961               0.000693121               0.000000000               0.000000000               0.000000000               0.000000000               0.000407419               0.002461123               0.000525131              -0.000154858               0.000871985               0.000717127               0.000000000               0.000000000               0.000000000               0.000000000               0.000365471               0.002581624               0.000469650              -0.000185651               0.000922416               0.000736765               0.000000000               0.000000000               0.000000000               0.000000000               0.000332679               0.002693701               0.000419104              -0.000211957               0.000968544               0.000756586               0.000000000               0.000000000               0.000000000               0.000000000               0.000309850               0.002796376               0.000365792              -0.000233353               0.001009900               0.000776548               0.000000000               0.000000000               0.000000000               0.000000000               0.000289179               0.002878090               0.000311189              -0.000251319               0.001043127               0.000791808               0.000000000               0.000000000               0.000000000               0.000000000               0.000263197               0.002935994               0.000262551              -0.000268300               0.001068088               0.000799788               0.000000000               0.000000000               0.000000000               0.000000000               0.000231804               0.002976208               0.000219069              -0.000285099               0.001087092               0.000801994               0.000000000               0.000000000               0.000000000               0.000000000               0.000193956               0.003001709               0.000174214              -0.000302479               0.001101386               0.000798907               0.000000000               0.000000000               0.000000000               0.000000000               0.000150337               0.003020399               0.000124366              -0.000321173               0.001113847               0.000792675               0.000000000               0.000000000               0.000000000               0.000000000               0.000095517               0.003037623               0.000066342              -0.000343883               0.001127159               0.000783276               0.000000000               0.000000000               0.000000000               0.000000000               0.000047268               0.003036458               0.000029609              -0.000361831               0.001132753               0.000770922               0.000000000               0.000000000               0.000000000               0.000000000               0.000377345               0.000357618               0.000394144               0.000096801               0.000086937               0.000183738               0.000000000               0.000000000               0.000000000               0.000000000               0.000580100               0.000703323               0.000570950               0.000129621               0.000191231               0.000320852               0.000000000               0.000000000               0.000000000               0.000000000               0.000647209               0.001159297               0.000698545               0.000097790               0.000353832               0.000451621               0.000000000               0.000000000               0.000000000               0.000000000               0.000642902               0.001527147               0.000679720               0.000050193               0.000492313               0.000542506               0.000000000               0.000000000               0.000000000               0.000000000               0.000612872               0.001822842               0.000617278               0.000001971               0.000606951               0.000608922               0.000000000               0.000000000               0.000000000               0.000000000               0.000572589               0.002051938               0.000549595              -0.000041772               0.000697896               0.000656124               0.000000000               0.000000000               0.000000000               0.000000000               0.000525409               0.002229403               0.000491988              -0.000081647               0.000770343               0.000688695               0.000000000               0.000000000               0.000000000               0.000000000               0.000477323               0.002385082               0.000445911              -0.000119139               0.000834732               0.000715593               0.000000000               0.000000000               0.000000000               0.000000000               0.000433346               0.002529165               0.000402300              -0.000153641               0.000894260               0.000740619               0.000000000               0.000000000               0.000000000               0.000000000               0.000400748               0.002659748               0.000356478              -0.000182188               0.000947303               0.000765115               0.000000000               0.000000000               0.000000000               0.000000000               0.000377200               0.002766942               0.000307507              -0.000204417               0.000990444               0.000786026               0.000000000               0.000000000               0.000000000               0.000000000               0.000349836               0.002850680               0.000260366              -0.000225146               0.001025266               0.000800120               0.000000000               0.000000000               0.000000000               0.000000000               0.000316094               0.002916179               0.000219890              -0.000245987               0.001054046               0.000808059               0.000000000               0.000000000               0.000000000               0.000000000               0.000284933               0.002966779               0.000182241              -0.000263997               0.001076915               0.000812918               0.000000000               0.000000000               0.000000000               0.000000000               0.000254434               0.003002057               0.000135993              -0.000279844               0.001093957               0.000814113               0.000000000               0.000000000               0.000000000               0.000000000               0.000216234               0.003028681               0.000074157              -0.000297496               0.001108716               0.000811219               0.000000000               0.000000000               0.000000000               0.000000000               0.000181449               0.003034830               0.000035691              -0.000311310               0.001115370               0.000804060               0.000000000               0.000000000               0.000000000               0.000000000               0.000183284               0.000184681               0.000233174               0.000045646               0.000046344               0.000091990               0.000000000               0.000000000               0.000000000               0.000000000               0.000515142               0.000473973               0.000386266               0.000133930               0.000113346               0.000247276               0.000000000               0.000000000               0.000000000               0.000000000               0.000698652               0.000869914               0.000507070               0.000153254               0.000238884               0.000392137               0.000000000               0.000000000               0.000000000               0.000000000               0.000738688               0.001231787               0.000508875               0.000123033               0.000369580               0.000492614               0.000000000               0.000000000               0.000000000               0.000000000               0.000724377               0.001542706               0.000471081               0.000078802               0.000487963               0.000566765               0.000000000               0.000000000               0.000000000               0.000000000               0.000687884               0.001799906               0.000425721               0.000032968               0.000588973               0.000621941               0.000000000               0.000000000               0.000000000               0.000000000               0.000644012               0.002014071               0.000386753              -0.000010255               0.000674769               0.000664514               0.000000000               0.000000000               0.000000000               0.000000000               0.000591687               0.002198426               0.000352681              -0.000052921               0.000750442               0.000697521               0.000000000               0.000000000               0.000000000               0.000000000               0.000535579               0.002362285               0.000321605              -0.000094444               0.000818902               0.000724458               0.000000000               0.000000000               0.000000000               0.000000000               0.000491115               0.002513078               0.000291457              -0.000129967               0.000881007               0.000751040               0.000000000               0.000000000               0.000000000               0.000000000               0.000457320               0.002647514               0.000252363              -0.000159444               0.000935644               0.000776200               0.000000000               0.000000000               0.000000000               0.000000000               0.000426282               0.002763803               0.000209994              -0.000185619               0.000983132               0.000797512               0.000000000               0.000000000               0.000000000               0.000000000               0.000398482               0.002858987               0.000179735              -0.000207942               0.001022300               0.000814358               0.000000000               0.000000000               0.000000000               0.000000000               0.000375276               0.002932980               0.000155887              -0.000225893               0.001052948               0.000827055               0.000000000               0.000000000               0.000000000               0.000000000               0.000357714               0.002989789               0.000120076              -0.000239580               0.001076446               0.000836866               0.000000000               0.000000000               0.000000000               0.000000000               0.000346543               0.003029697               0.000065573              -0.000248758               0.001092808               0.000844050               0.000000000               0.000000000               0.000000000               0.000000000               0.000340324               0.003043094               0.000032867              -0.000252764               0.001098609               0.000845845               0.000000000               0.000000000               0.000000000               0.000000000               0.000052978               0.000089047               0.000106132               0.000008736               0.000026770               0.000035506               0.000000000               0.000000000               0.000000000               0.000000000               0.000472038               0.000334052               0.000194271               0.000135256               0.000066264               0.000201520               0.000000000               0.000000000               0.000000000               0.000000000               0.000732937               0.000680722               0.000266810               0.000189759               0.000163652               0.000353411               0.000000000               0.000000000               0.000000000               0.000000000               0.000804345               0.001028924               0.000272376               0.000173012               0.000285300               0.000458313               0.000000000               0.000000000               0.000000000               0.000000000               0.000805719               0.001344031               0.000254558               0.000134139               0.000403293               0.000537432               0.000000000               0.000000000               0.000000000               0.000000000               0.000778171               0.001624271               0.000233576               0.000088779               0.000511825               0.000600604               0.000000000               0.000000000               0.000000000               0.000000000               0.000733897               0.001864445               0.000215463               0.000042155               0.000607424               0.000649579               0.000000000               0.000000000               0.000000000               0.000000000               0.000677437               0.002062664               0.000195970              -0.000003794               0.000688813               0.000685018               0.000000000               0.000000000               0.000000000               0.000000000               0.000617031               0.002235499               0.000180234              -0.000048051               0.000761176               0.000713125               0.000000000               0.000000000               0.000000000               0.000000000               0.000559953               0.002401232               0.000166269              -0.000090171               0.000830460               0.000740288               0.000000000               0.000000000               0.000000000               0.000000000               0.000513659               0.002561021               0.000142884              -0.000127505               0.000896167               0.000768662               0.000000000               0.000000000               0.000000000               0.000000000               0.000484055               0.002702723               0.000118478              -0.000156319               0.000953005               0.000796686               0.000000000               0.000000000               0.000000000               0.000000000               0.000465745               0.002818703               0.000103374              -0.000177683               0.000998786               0.000821103               0.000000000               0.000000000               0.000000000               0.000000000               0.000450543               0.002909599               0.000090985              -0.000194746               0.001034772               0.000840026               0.000000000               0.000000000               0.000000000               0.000000000               0.000441850               0.002978729               0.000071701              -0.000206647               0.001061782               0.000855135               0.000000000               0.000000000               0.000000000               0.000000000               0.000449797               0.003026729               0.000041523              -0.000209667               0.001078789               0.000869122               0.000000000               0.000000000               0.000000000               0.000000000               0.000465836               0.003046568               0.000023814              -0.000206132               0.001084223               0.000878091               0.000000000               0.000000000               0.000000000               0.000000000               0.000000000               0.000000000               0.000000000               0.000000000               0.000000000               0.000000000               0.000000000               0.000000000               0.000000000               0.000000000               0.000000000               0.000000000               0.000000000               0.000000000               0.000000000               0.000000000               0.000000000               0.000000000               0.000000000               0.000000000               0.000000000               0.000000000               0.000000000               0.000000000               0.000000000               0.000000000               0.000000000               0.000000000               0.000000000               0.000000000               0.000000000               0.000000000               0.000000000               0.000000000               0.000000000               0.000000000               0.000000000               0.000000000               0.000000000               0.000000000               0.000000000               0.000000000               0.000000000               0.000000000               0.000000000               0.000000000               0.000000000               0.000000000               0.000000000               0.000000000               0.000000000               0.000000000               0.000000000               0.000000000               0.000000000               0.000000000               0.000000000               0.000000000               0.000000000               0.000000000               0.000000000               0.000000000               0.000000000               0.000000000               0.000000000               0.000000000               0.000000000               0.000000000               0.000000000               0.000000000               0.000000000               0.000000000               0.000000000               0.000000000               0.000000000               0.000000000               0.000000000               0.000000000               0.000000000               0.000000000               0.000000000               0.000000000               0.000000000               0.000000000               0.000000000               0.000000000               0.000000000               0.000000000               0.000000000               0.000000000               0.000000000               0.000000000               0.000000000               0.000000000               0.000000000               0.000000000               0.000000000               0.000000000               0.000000000               0.000000000               0.000000000               0.000000000               0.000000000               0.000000000               0.000000000               0.000000000               0.000000000               0.000000000               0.000000000               0.000000000               0.000000000               0.000000000               0.000000000               0.000000000               0.000000000               0.000000000               0.000000000               0.000000000               0.000000000               0.000000000               0.000000000               0.000000000               0.000000000               0.000000000               0.000000000               0.000000000               0.000000000               0.000000000               0.000000000               0.000000000               0.000000000               0.000000000               0.000000000               0.000000000               0.000000000               0.000000000               0.000000000               0.000000000               0.000000000               0.000000000               0.000000000               0.000000000               0.000000000               0.000000000               0.000000000               0.000000000               0.000000000               0.000000000               0.000000000               0.000000000               0.000000000               0.000000000               0.000000000               0.000000000               0.000000000               0.000000000               0.000000000               0.000000000               0.000000000               0.000000000               0.000000000               0.000000000               0.000000000               0.000000000               0.000000000               0.000000000               0.000000000               0.000000000               0.000000000               0.000000000 </DataArray>
</PointData>
</Piece>
</UnstructuredGrid> </VTKFile>
