<?xml version="1.0"?>
<VTKFile type="UnstructuredGrid" version="0.1">
<UnstructuredGrid>
<Piece NumberOfPoints="      1156" NumberOfCells="      1024">
<Points>
<DataArray type="Float64"                                    Name="coordinates"                                                      NumberOfComponents=" 3" format="ascii">
              0.133000000               0.000000000               0.000000000               0.155937500               0.000000000               0.000000000               0.178875000               0.000000000               0.000000000               0.201812500               0.000000000               0.000000000               0.224750000               0.000000000               0.000000000               0.247687500               0.000000000               0.000000000               0.270625000               0.000000000               0.000000000               0.293562500               0.000000000               0.000000000               0.316500000               0.000000000               0.000000000               0.339437500               0.000000000               0.000000000               0.362375000               0.000000000               0.000000000               0.385312500               0.000000000               0.000000000               0.408250000               0.000000000               0.000000000               0.431187500               0.000000000               0.000000000               0.454125000               0.000000000               0.000000000               0.477062500               0.000000000               0.000000000               0.500000000               0.000000000               0.000000000               0.132359569               0.013036280               0.000000000               0.155337096               0.016127762               0.000000000               0.178314623               0.019219245               0.000000000               0.201292150               0.022310727               0.000000000               0.224269676               0.025402210               0.000000000               0.247247203               0.028493692               0.000000000               0.270224730               0.031585175               0.000000000               0.293202257               0.034676657               0.000000000               0.316179784               0.037768140               0.000000000               0.339157311               0.040859622               0.000000000               0.362134838               0.043951105               0.000000000               0.385112365               0.047042587               0.000000000               0.408089892               0.050134070               0.000000000               0.431067419               0.053225552               0.000000000               0.454044946               0.056317035               0.000000000               0.477022473               0.059408517               0.000000000               0.500000000               0.062500000               0.000000000               0.130444442               0.025947013               0.000000000               0.153541665               0.032137825               0.000000000               0.176638887               0.038328636               0.000000000               0.199736109               0.044519448               0.000000000               0.222833332               0.050710260               0.000000000               0.245930554               0.056901071               0.000000000               0.269027776               0.063091883               0.000000000               0.292124999               0.069282695               0.000000000               0.315222221               0.075473506               0.000000000               0.338319444               0.081664318               0.000000000               0.361416666               0.087855130               0.000000000               0.384513888               0.094045942               0.000000000               0.407611111               0.100236753               0.000000000               0.430708333               0.106427565               0.000000000               0.453805555               0.112618377               0.000000000               0.476902778               0.118809188               0.000000000               0.500000000               0.125000000               0.000000000               0.127273065               0.038607862               0.000000000               0.150568498               0.047913621               0.000000000               0.173863932               0.057219379               0.000000000               0.197159365               0.066525138               0.000000000               0.220454798               0.075830897               0.000000000               0.243750232               0.085136655               0.000000000               0.267045665               0.094442414               0.000000000               0.290341099               0.103748172               0.000000000               0.313636532               0.113053931               0.000000000               0.336931966               0.122359690               0.000000000               0.360227399               0.131665448               0.000000000               0.383522833               0.140971207               0.000000000               0.406818266               0.150276966               0.000000000               0.430113700               0.159582724               0.000000000               0.453409133               0.168888483               0.000000000               0.476704567               0.178194241               0.000000000               0.500000000               0.187500000               0.000000000               0.122875978               0.050896897               0.000000000               0.146446229               0.063340840               0.000000000               0.170016481               0.075784784               0.000000000               0.193586732               0.088228728               0.000000000               0.217156983               0.100672672               0.000000000               0.240727235               0.113116616               0.000000000               0.264297486               0.125560560               0.000000000               0.287867738               0.138004504               0.000000000               0.311437989               0.150448448               0.000000000               0.335008240               0.162892392               0.000000000               0.358578492               0.175336336               0.000000000               0.382148743               0.187780280               0.000000000               0.405718994               0.200224224               0.000000000               0.429289246               0.212668168               0.000000000               0.452859497               0.225112112               0.000000000               0.476429749               0.237556056               0.000000000               0.500000000               0.250000000               0.000000000               0.117295528               0.062695766               0.000000000               0.141214558               0.078308531               0.000000000               0.165133587               0.093921295               0.000000000               0.189052617               0.109534060               0.000000000               0.212971646               0.125146824               0.000000000               0.236890676               0.140759589               0.000000000               0.260809705               0.156372354               0.000000000               0.284728735               0.171985118               0.000000000               0.308647764               0.187597883               0.000000000               0.332566794               0.203210648               0.000000000               0.356485823               0.218823412               0.000000000               0.380404853               0.234436177               0.000000000               0.404323882               0.250048941               0.000000000               0.428242912               0.265661706               0.000000000               0.452161941               0.281274471               0.000000000               0.476080971               0.296887235               0.000000000               0.500000000               0.312500000               0.000000000               0.110585458               0.073890841               0.000000000               0.134923867               0.092710163               0.000000000               0.159262276               0.111529486               0.000000000               0.183600685               0.130348808               0.000000000               0.207939094               0.149168131               0.000000000               0.232277503               0.167987453               0.000000000               0.256615912               0.186806776               0.000000000               0.280954320               0.205626098               0.000000000               0.305292729               0.224445420               0.000000000               0.329631138               0.243264743               0.000000000               0.353969547               0.262084065               0.000000000               0.378307956               0.280903388               0.000000000               0.402646365               0.299722710               0.000000000               0.426984773               0.318542033               0.000000000               0.451323182               0.337361355               0.000000000               0.475661591               0.356180678               0.000000000               0.500000000               0.375000000               0.000000000               0.102810390               0.084374307               0.000000000               0.127634741               0.106444663               0.000000000               0.152459092               0.128515018               0.000000000               0.177283442               0.150585374               0.000000000               0.202107793               0.172655730               0.000000000               0.226932143               0.194726086               0.000000000               0.251756494               0.216796442               0.000000000               0.276580845               0.238866798               0.000000000               0.301405195               0.260937153               0.000000000               0.326229546               0.283007509               0.000000000               0.351053896               0.305077865               0.000000000               0.375878247               0.327148221               0.000000000               0.400702598               0.349218577               0.000000000               0.425526948               0.371288933               0.000000000               0.450351299               0.393359288               0.000000000               0.475175649               0.415429644               0.000000000               0.500000000               0.437500000               0.000000000               0.094045202               0.094045202               0.000000000               0.119417377               0.119417377               0.000000000               0.144789552               0.144789552               0.000000000               0.170161727               0.170161727               0.000000000               0.195533901               0.195533901               0.000000000               0.220906076               0.220906076               0.000000000               0.246278251               0.246278251               0.000000000               0.271650426               0.271650426               0.000000000               0.297022601               0.297022601               0.000000000               0.322394776               0.322394776               0.000000000               0.347766951               0.347766951               0.000000000               0.373139126               0.373139126               0.000000000               0.398511300               0.398511300               0.000000000               0.423883475               0.423883475               0.000000000               0.449255650               0.449255650               0.000000000               0.474627825               0.474627825               0.000000000               0.500000000               0.500000000               0.000000000               0.084374307               0.102810390               0.000000000               0.106444663               0.127634741               0.000000000               0.128515018               0.152459092               0.000000000               0.150585374               0.177283442               0.000000000               0.172655730               0.202107793               0.000000000               0.194726086               0.226932143               0.000000000               0.216796442               0.251756494               0.000000000               0.238866798               0.276580845               0.000000000               0.260937153               0.301405195               0.000000000               0.283007509               0.326229546               0.000000000               0.305077865               0.351053896               0.000000000               0.327148221               0.375878247               0.000000000               0.349218577               0.400702598               0.000000000               0.371288933               0.425526948               0.000000000               0.393359288               0.450351299               0.000000000               0.415429644               0.475175649               0.000000000               0.437500000               0.500000000               0.000000000               0.073890841               0.110585458               0.000000000               0.092710163               0.134923867               0.000000000               0.111529486               0.159262276               0.000000000               0.130348808               0.183600685               0.000000000               0.149168131               0.207939094               0.000000000               0.167987453               0.232277503               0.000000000               0.186806776               0.256615912               0.000000000               0.205626098               0.280954320               0.000000000               0.224445420               0.305292729               0.000000000               0.243264743               0.329631138               0.000000000               0.262084065               0.353969547               0.000000000               0.280903388               0.378307956               0.000000000               0.299722710               0.402646365               0.000000000               0.318542033               0.426984773               0.000000000               0.337361355               0.451323182               0.000000000               0.356180678               0.475661591               0.000000000               0.375000000               0.500000000               0.000000000               0.062695766               0.117295528               0.000000000               0.078308531               0.141214558               0.000000000               0.093921295               0.165133587               0.000000000               0.109534060               0.189052617               0.000000000               0.125146824               0.212971646               0.000000000               0.140759589               0.236890676               0.000000000               0.156372354               0.260809705               0.000000000               0.171985118               0.284728735               0.000000000               0.187597883               0.308647764               0.000000000               0.203210648               0.332566794               0.000000000               0.218823412               0.356485823               0.000000000               0.234436177               0.380404853               0.000000000               0.250048941               0.404323882               0.000000000               0.265661706               0.428242912               0.000000000               0.281274471               0.452161941               0.000000000               0.296887235               0.476080971               0.000000000               0.312500000               0.500000000               0.000000000               0.050896897               0.122875978               0.000000000               0.063340840               0.146446229               0.000000000               0.075784784               0.170016481               0.000000000               0.088228728               0.193586732               0.000000000               0.100672672               0.217156983               0.000000000               0.113116616               0.240727235               0.000000000               0.125560560               0.264297486               0.000000000               0.138004504               0.287867738               0.000000000               0.150448448               0.311437989               0.000000000               0.162892392               0.335008240               0.000000000               0.175336336               0.358578492               0.000000000               0.187780280               0.382148743               0.000000000               0.200224224               0.405718994               0.000000000               0.212668168               0.429289246               0.000000000               0.225112112               0.452859497               0.000000000               0.237556056               0.476429749               0.000000000               0.250000000               0.500000000               0.000000000               0.038607862               0.127273065               0.000000000               0.047913621               0.150568498               0.000000000               0.057219379               0.173863932               0.000000000               0.066525138               0.197159365               0.000000000               0.075830897               0.220454798               0.000000000               0.085136655               0.243750232               0.000000000               0.094442414               0.267045665               0.000000000               0.103748172               0.290341099               0.000000000               0.113053931               0.313636532               0.000000000               0.122359690               0.336931966               0.000000000               0.131665448               0.360227399               0.000000000               0.140971207               0.383522833               0.000000000               0.150276966               0.406818266               0.000000000               0.159582724               0.430113700               0.000000000               0.168888483               0.453409133               0.000000000               0.178194241               0.476704567               0.000000000               0.187500000               0.500000000               0.000000000               0.025947013               0.130444442               0.000000000               0.032137825               0.153541665               0.000000000               0.038328636               0.176638887               0.000000000               0.044519448               0.199736109               0.000000000               0.050710260               0.222833332               0.000000000               0.056901071               0.245930554               0.000000000               0.063091883               0.269027776               0.000000000               0.069282695               0.292124999               0.000000000               0.075473506               0.315222221               0.000000000               0.081664318               0.338319444               0.000000000               0.087855130               0.361416666               0.000000000               0.094045942               0.384513888               0.000000000               0.100236753               0.407611111               0.000000000               0.106427565               0.430708333               0.000000000               0.112618377               0.453805555               0.000000000               0.118809188               0.476902778               0.000000000               0.125000000               0.500000000               0.000000000               0.013036280               0.132359569               0.000000000               0.016127762               0.155337096               0.000000000               0.019219245               0.178314623               0.000000000               0.022310727               0.201292150               0.000000000               0.025402210               0.224269676               0.000000000               0.028493692               0.247247203               0.000000000               0.031585175               0.270224730               0.000000000               0.034676657               0.293202257               0.000000000               0.037768140               0.316179784               0.000000000               0.040859622               0.339157311               0.000000000               0.043951105               0.362134838               0.000000000               0.047042587               0.385112365               0.000000000               0.050134070               0.408089892               0.000000000               0.053225552               0.431067419               0.000000000               0.056317035               0.454044946               0.000000000               0.059408517               0.477022473               0.000000000               0.062500000               0.500000000               0.000000000               0.000000000               0.133000000               0.000000000               0.000000000               0.155937500               0.000000000               0.000000000               0.178875000               0.000000000               0.000000000               0.201812500               0.000000000               0.000000000               0.224750000               0.000000000               0.000000000               0.247687500               0.000000000               0.000000000               0.270625000               0.000000000               0.000000000               0.293562500               0.000000000               0.000000000               0.316500000               0.000000000               0.000000000               0.339437500               0.000000000               0.000000000               0.362375000               0.000000000               0.000000000               0.385312500               0.000000000               0.000000000               0.408250000               0.000000000               0.000000000               0.431187500               0.000000000               0.000000000               0.454125000               0.000000000               0.000000000               0.477062500               0.000000000               0.000000000               0.500000000               0.000000000               0.133000000               0.000000000               0.000000000               0.155937500               0.000000000               0.000000000               0.178875000               0.000000000               0.000000000               0.201812500               0.000000000               0.000000000               0.224750000               0.000000000               0.000000000               0.247687500               0.000000000               0.000000000               0.270625000               0.000000000               0.000000000               0.293562500               0.000000000               0.000000000               0.316500000               0.000000000               0.000000000               0.339437500               0.000000000               0.000000000               0.362375000               0.000000000               0.000000000               0.385312500               0.000000000               0.000000000               0.408250000               0.000000000               0.000000000               0.431187500               0.000000000               0.000000000               0.454125000               0.000000000               0.000000000               0.477062500               0.000000000               0.000000000               0.500000000               0.000000000               0.000000000               0.132359569              -0.013036280               0.000000000               0.155337096              -0.016127762               0.000000000               0.178314623              -0.019219245               0.000000000               0.201292150              -0.022310727               0.000000000               0.224269676              -0.025402210               0.000000000               0.247247203              -0.028493692               0.000000000               0.270224730              -0.031585175               0.000000000               0.293202257              -0.034676657               0.000000000               0.316179784              -0.037768140               0.000000000               0.339157311              -0.040859622               0.000000000               0.362134838              -0.043951105               0.000000000               0.385112365              -0.047042587               0.000000000               0.408089892              -0.050134070               0.000000000               0.431067419              -0.053225552               0.000000000               0.454044946              -0.056317035               0.000000000               0.477022473              -0.059408517               0.000000000               0.500000000              -0.062500000               0.000000000               0.130444442              -0.025947013               0.000000000               0.153541665              -0.032137825               0.000000000               0.176638887              -0.038328636               0.000000000               0.199736109              -0.044519448               0.000000000               0.222833332              -0.050710260               0.000000000               0.245930554              -0.056901071               0.000000000               0.269027776              -0.063091883               0.000000000               0.292124999              -0.069282695               0.000000000               0.315222221              -0.075473506               0.000000000               0.338319444              -0.081664318               0.000000000               0.361416666              -0.087855130               0.000000000               0.384513888              -0.094045942               0.000000000               0.407611111              -0.100236753               0.000000000               0.430708333              -0.106427565               0.000000000               0.453805555              -0.112618377               0.000000000               0.476902778              -0.118809188               0.000000000               0.500000000              -0.125000000               0.000000000               0.127273065              -0.038607862               0.000000000               0.150568498              -0.047913621               0.000000000               0.173863932              -0.057219379               0.000000000               0.197159365              -0.066525138               0.000000000               0.220454798              -0.075830897               0.000000000               0.243750232              -0.085136655               0.000000000               0.267045665              -0.094442414               0.000000000               0.290341099              -0.103748172               0.000000000               0.313636532              -0.113053931               0.000000000               0.336931966              -0.122359690               0.000000000               0.360227399              -0.131665448               0.000000000               0.383522833              -0.140971207               0.000000000               0.406818266              -0.150276966               0.000000000               0.430113700              -0.159582724               0.000000000               0.453409133              -0.168888483               0.000000000               0.476704567              -0.178194241               0.000000000               0.500000000              -0.187500000               0.000000000               0.122875978              -0.050896897               0.000000000               0.146446229              -0.063340840               0.000000000               0.170016481              -0.075784784               0.000000000               0.193586732              -0.088228728               0.000000000               0.217156983              -0.100672672               0.000000000               0.240727235              -0.113116616               0.000000000               0.264297486              -0.125560560               0.000000000               0.287867738              -0.138004504               0.000000000               0.311437989              -0.150448448               0.000000000               0.335008240              -0.162892392               0.000000000               0.358578492              -0.175336336               0.000000000               0.382148743              -0.187780280               0.000000000               0.405718994              -0.200224224               0.000000000               0.429289246              -0.212668168               0.000000000               0.452859497              -0.225112112               0.000000000               0.476429749              -0.237556056               0.000000000               0.500000000              -0.250000000               0.000000000               0.117295528              -0.062695766               0.000000000               0.141214558              -0.078308531               0.000000000               0.165133587              -0.093921295               0.000000000               0.189052617              -0.109534060               0.000000000               0.212971646              -0.125146824               0.000000000               0.236890676              -0.140759589               0.000000000               0.260809705              -0.156372354               0.000000000               0.284728735              -0.171985118               0.000000000               0.308647764              -0.187597883               0.000000000               0.332566794              -0.203210648               0.000000000               0.356485823              -0.218823412               0.000000000               0.380404853              -0.234436177               0.000000000               0.404323882              -0.250048941               0.000000000               0.428242912              -0.265661706               0.000000000               0.452161941              -0.281274471               0.000000000               0.476080971              -0.296887235               0.000000000               0.500000000              -0.312500000               0.000000000               0.110585458              -0.073890841               0.000000000               0.134923867              -0.092710163               0.000000000               0.159262276              -0.111529486               0.000000000               0.183600685              -0.130348808               0.000000000               0.207939094              -0.149168131               0.000000000               0.232277503              -0.167987453               0.000000000               0.256615912              -0.186806776               0.000000000               0.280954320              -0.205626098               0.000000000               0.305292729              -0.224445420               0.000000000               0.329631138              -0.243264743               0.000000000               0.353969547              -0.262084065               0.000000000               0.378307956              -0.280903388               0.000000000               0.402646365              -0.299722710               0.000000000               0.426984773              -0.318542033               0.000000000               0.451323182              -0.337361355               0.000000000               0.475661591              -0.356180678               0.000000000               0.500000000              -0.375000000               0.000000000               0.102810390              -0.084374307               0.000000000               0.127634741              -0.106444663               0.000000000               0.152459092              -0.128515018               0.000000000               0.177283442              -0.150585374               0.000000000               0.202107793              -0.172655730               0.000000000               0.226932143              -0.194726086               0.000000000               0.251756494              -0.216796442               0.000000000               0.276580845              -0.238866798               0.000000000               0.301405195              -0.260937153               0.000000000               0.326229546              -0.283007509               0.000000000               0.351053896              -0.305077865               0.000000000               0.375878247              -0.327148221               0.000000000               0.400702598              -0.349218577               0.000000000               0.425526948              -0.371288933               0.000000000               0.450351299              -0.393359288               0.000000000               0.475175649              -0.415429644               0.000000000               0.500000000              -0.437500000               0.000000000               0.094045202              -0.094045202               0.000000000               0.119417377              -0.119417377               0.000000000               0.144789552              -0.144789552               0.000000000               0.170161727              -0.170161727               0.000000000               0.195533901              -0.195533901               0.000000000               0.220906076              -0.220906076               0.000000000               0.246278251              -0.246278251               0.000000000               0.271650426              -0.271650426               0.000000000               0.297022601              -0.297022601               0.000000000               0.322394776              -0.322394776               0.000000000               0.347766951              -0.347766951               0.000000000               0.373139126              -0.373139126               0.000000000               0.398511300              -0.398511300               0.000000000               0.423883475              -0.423883475               0.000000000               0.449255650              -0.449255650               0.000000000               0.474627825              -0.474627825               0.000000000               0.500000000              -0.500000000               0.000000000               0.084374307              -0.102810390               0.000000000               0.106444663              -0.127634741               0.000000000               0.128515018              -0.152459092               0.000000000               0.150585374              -0.177283442               0.000000000               0.172655730              -0.202107793               0.000000000               0.194726086              -0.226932143               0.000000000               0.216796442              -0.251756494               0.000000000               0.238866798              -0.276580845               0.000000000               0.260937153              -0.301405195               0.000000000               0.283007509              -0.326229546               0.000000000               0.305077865              -0.351053896               0.000000000               0.327148221              -0.375878247               0.000000000               0.349218577              -0.400702598               0.000000000               0.371288933              -0.425526948               0.000000000               0.393359288              -0.450351299               0.000000000               0.415429644              -0.475175649               0.000000000               0.437500000              -0.500000000               0.000000000               0.073890841              -0.110585458               0.000000000               0.092710163              -0.134923867               0.000000000               0.111529486              -0.159262276               0.000000000               0.130348808              -0.183600685               0.000000000               0.149168131              -0.207939094               0.000000000               0.167987453              -0.232277503               0.000000000               0.186806776              -0.256615912               0.000000000               0.205626098              -0.280954320               0.000000000               0.224445420              -0.305292729               0.000000000               0.243264743              -0.329631138               0.000000000               0.262084065              -0.353969547               0.000000000               0.280903388              -0.378307956               0.000000000               0.299722710              -0.402646365               0.000000000               0.318542033              -0.426984773               0.000000000               0.337361355              -0.451323182               0.000000000               0.356180678              -0.475661591               0.000000000               0.375000000              -0.500000000               0.000000000               0.062695766              -0.117295528               0.000000000               0.078308531              -0.141214558               0.000000000               0.093921295              -0.165133587               0.000000000               0.109534060              -0.189052617               0.000000000               0.125146824              -0.212971646               0.000000000               0.140759589              -0.236890676               0.000000000               0.156372354              -0.260809705               0.000000000               0.171985118              -0.284728735               0.000000000               0.187597883              -0.308647764               0.000000000               0.203210648              -0.332566794               0.000000000               0.218823412              -0.356485823               0.000000000               0.234436177              -0.380404853               0.000000000               0.250048941              -0.404323882               0.000000000               0.265661706              -0.428242912               0.000000000               0.281274471              -0.452161941               0.000000000               0.296887235              -0.476080971               0.000000000               0.312500000              -0.500000000               0.000000000               0.050896897              -0.122875978               0.000000000               0.063340840              -0.146446229               0.000000000               0.075784784              -0.170016481               0.000000000               0.088228728              -0.193586732               0.000000000               0.100672672              -0.217156983               0.000000000               0.113116616              -0.240727235               0.000000000               0.125560560              -0.264297486               0.000000000               0.138004504              -0.287867738               0.000000000               0.150448448              -0.311437989               0.000000000               0.162892392              -0.335008240               0.000000000               0.175336336              -0.358578492               0.000000000               0.187780280              -0.382148743               0.000000000               0.200224224              -0.405718994               0.000000000               0.212668168              -0.429289246               0.000000000               0.225112112              -0.452859497               0.000000000               0.237556056              -0.476429749               0.000000000               0.250000000              -0.500000000               0.000000000               0.038607862              -0.127273065               0.000000000               0.047913621              -0.150568498               0.000000000               0.057219379              -0.173863932               0.000000000               0.066525138              -0.197159365               0.000000000               0.075830897              -0.220454798               0.000000000               0.085136655              -0.243750232               0.000000000               0.094442414              -0.267045665               0.000000000               0.103748172              -0.290341099               0.000000000               0.113053931              -0.313636532               0.000000000               0.122359690              -0.336931966               0.000000000               0.131665448              -0.360227399               0.000000000               0.140971207              -0.383522833               0.000000000               0.150276966              -0.406818266               0.000000000               0.159582724              -0.430113700               0.000000000               0.168888483              -0.453409133               0.000000000               0.178194241              -0.476704567               0.000000000               0.187500000              -0.500000000               0.000000000               0.025947013              -0.130444442               0.000000000               0.032137825              -0.153541665               0.000000000               0.038328636              -0.176638887               0.000000000               0.044519448              -0.199736109               0.000000000               0.050710260              -0.222833332               0.000000000               0.056901071              -0.245930554               0.000000000               0.063091883              -0.269027776               0.000000000               0.069282695              -0.292124999               0.000000000               0.075473506              -0.315222221               0.000000000               0.081664318              -0.338319444               0.000000000               0.087855130              -0.361416666               0.000000000               0.094045942              -0.384513888               0.000000000               0.100236753              -0.407611111               0.000000000               0.106427565              -0.430708333               0.000000000               0.112618377              -0.453805555               0.000000000               0.118809188              -0.476902778               0.000000000               0.125000000              -0.500000000               0.000000000               0.013036280              -0.132359569               0.000000000               0.016127762              -0.155337096               0.000000000               0.019219245              -0.178314623               0.000000000               0.022310727              -0.201292150               0.000000000               0.025402210              -0.224269676               0.000000000               0.028493692              -0.247247203               0.000000000               0.031585175              -0.270224730               0.000000000               0.034676657              -0.293202257               0.000000000               0.037768140              -0.316179784               0.000000000               0.040859622              -0.339157311               0.000000000               0.043951105              -0.362134838               0.000000000               0.047042587              -0.385112365               0.000000000               0.050134070              -0.408089892               0.000000000               0.053225552              -0.431067419               0.000000000               0.056317035              -0.454044946               0.000000000               0.059408517              -0.477022473               0.000000000               0.062500000              -0.500000000               0.000000000               0.000000000              -0.133000000               0.000000000               0.000000000              -0.155937500               0.000000000               0.000000000              -0.178875000               0.000000000               0.000000000              -0.201812500               0.000000000               0.000000000              -0.224750000               0.000000000               0.000000000              -0.247687500               0.000000000               0.000000000              -0.270625000               0.000000000               0.000000000              -0.293562500               0.000000000               0.000000000              -0.316500000               0.000000000               0.000000000              -0.339437500               0.000000000               0.000000000              -0.362375000               0.000000000               0.000000000              -0.385312500               0.000000000               0.000000000              -0.408250000               0.000000000               0.000000000              -0.431187500               0.000000000               0.000000000              -0.454125000               0.000000000               0.000000000              -0.477062500               0.000000000               0.000000000              -0.500000000               0.000000000              -0.133000000               0.000000000               0.000000000              -0.155937500               0.000000000               0.000000000              -0.178875000               0.000000000               0.000000000              -0.201812500               0.000000000               0.000000000              -0.224750000               0.000000000               0.000000000              -0.247687500               0.000000000               0.000000000              -0.270625000               0.000000000               0.000000000              -0.293562500               0.000000000               0.000000000              -0.316500000               0.000000000               0.000000000              -0.339437500               0.000000000               0.000000000              -0.362375000               0.000000000               0.000000000              -0.385312500               0.000000000               0.000000000              -0.408250000               0.000000000               0.000000000              -0.431187500               0.000000000               0.000000000              -0.454125000               0.000000000               0.000000000              -0.477062500               0.000000000               0.000000000              -0.500000000               0.000000000               0.000000000              -0.132359569              -0.013036280               0.000000000              -0.155337096              -0.016127762               0.000000000              -0.178314623              -0.019219245               0.000000000              -0.201292150              -0.022310727               0.000000000              -0.224269676              -0.025402210               0.000000000              -0.247247203              -0.028493692               0.000000000              -0.270224730              -0.031585175               0.000000000              -0.293202257              -0.034676657               0.000000000              -0.316179784              -0.037768140               0.000000000              -0.339157311              -0.040859622               0.000000000              -0.362134838              -0.043951105               0.000000000              -0.385112365              -0.047042587               0.000000000              -0.408089892              -0.050134070               0.000000000              -0.431067419              -0.053225552               0.000000000              -0.454044946              -0.056317035               0.000000000              -0.477022473              -0.059408517               0.000000000              -0.500000000              -0.062500000               0.000000000              -0.130444442              -0.025947013               0.000000000              -0.153541665              -0.032137825               0.000000000              -0.176638887              -0.038328636               0.000000000              -0.199736109              -0.044519448               0.000000000              -0.222833332              -0.050710260               0.000000000              -0.245930554              -0.056901071               0.000000000              -0.269027776              -0.063091883               0.000000000              -0.292124999              -0.069282695               0.000000000              -0.315222221              -0.075473506               0.000000000              -0.338319444              -0.081664318               0.000000000              -0.361416666              -0.087855130               0.000000000              -0.384513888              -0.094045942               0.000000000              -0.407611111              -0.100236753               0.000000000              -0.430708333              -0.106427565               0.000000000              -0.453805555              -0.112618377               0.000000000              -0.476902778              -0.118809188               0.000000000              -0.500000000              -0.125000000               0.000000000              -0.127273065              -0.038607862               0.000000000              -0.150568498              -0.047913621               0.000000000              -0.173863932              -0.057219379               0.000000000              -0.197159365              -0.066525138               0.000000000              -0.220454798              -0.075830897               0.000000000              -0.243750232              -0.085136655               0.000000000              -0.267045665              -0.094442414               0.000000000              -0.290341099              -0.103748172               0.000000000              -0.313636532              -0.113053931               0.000000000              -0.336931966              -0.122359690               0.000000000              -0.360227399              -0.131665448               0.000000000              -0.383522833              -0.140971207               0.000000000              -0.406818266              -0.150276966               0.000000000              -0.430113700              -0.159582724               0.000000000              -0.453409133              -0.168888483               0.000000000              -0.476704567              -0.178194241               0.000000000              -0.500000000              -0.187500000               0.000000000              -0.122875978              -0.050896897               0.000000000              -0.146446229              -0.063340840               0.000000000              -0.170016481              -0.075784784               0.000000000              -0.193586732              -0.088228728               0.000000000              -0.217156983              -0.100672672               0.000000000              -0.240727235              -0.113116616               0.000000000              -0.264297486              -0.125560560               0.000000000              -0.287867738              -0.138004504               0.000000000              -0.311437989              -0.150448448               0.000000000              -0.335008240              -0.162892392               0.000000000              -0.358578492              -0.175336336               0.000000000              -0.382148743              -0.187780280               0.000000000              -0.405718994              -0.200224224               0.000000000              -0.429289246              -0.212668168               0.000000000              -0.452859497              -0.225112112               0.000000000              -0.476429749              -0.237556056               0.000000000              -0.500000000              -0.250000000               0.000000000              -0.117295528              -0.062695766               0.000000000              -0.141214558              -0.078308531               0.000000000              -0.165133587              -0.093921295               0.000000000              -0.189052617              -0.109534060               0.000000000              -0.212971646              -0.125146824               0.000000000              -0.236890676              -0.140759589               0.000000000              -0.260809705              -0.156372354               0.000000000              -0.284728735              -0.171985118               0.000000000              -0.308647764              -0.187597883               0.000000000              -0.332566794              -0.203210648               0.000000000              -0.356485823              -0.218823412               0.000000000              -0.380404853              -0.234436177               0.000000000              -0.404323882              -0.250048941               0.000000000              -0.428242912              -0.265661706               0.000000000              -0.452161941              -0.281274471               0.000000000              -0.476080971              -0.296887235               0.000000000              -0.500000000              -0.312500000               0.000000000              -0.110585458              -0.073890841               0.000000000              -0.134923867              -0.092710163               0.000000000              -0.159262276              -0.111529486               0.000000000              -0.183600685              -0.130348808               0.000000000              -0.207939094              -0.149168131               0.000000000              -0.232277503              -0.167987453               0.000000000              -0.256615912              -0.186806776               0.000000000              -0.280954320              -0.205626098               0.000000000              -0.305292729              -0.224445420               0.000000000              -0.329631138              -0.243264743               0.000000000              -0.353969547              -0.262084065               0.000000000              -0.378307956              -0.280903388               0.000000000              -0.402646365              -0.299722710               0.000000000              -0.426984773              -0.318542033               0.000000000              -0.451323182              -0.337361355               0.000000000              -0.475661591              -0.356180678               0.000000000              -0.500000000              -0.375000000               0.000000000              -0.102810390              -0.084374307               0.000000000              -0.127634741              -0.106444663               0.000000000              -0.152459092              -0.128515018               0.000000000              -0.177283442              -0.150585374               0.000000000              -0.202107793              -0.172655730               0.000000000              -0.226932143              -0.194726086               0.000000000              -0.251756494              -0.216796442               0.000000000              -0.276580845              -0.238866798               0.000000000              -0.301405195              -0.260937153               0.000000000              -0.326229546              -0.283007509               0.000000000              -0.351053896              -0.305077865               0.000000000              -0.375878247              -0.327148221               0.000000000              -0.400702598              -0.349218577               0.000000000              -0.425526948              -0.371288933               0.000000000              -0.450351299              -0.393359288               0.000000000              -0.475175649              -0.415429644               0.000000000              -0.500000000              -0.437500000               0.000000000              -0.094045202              -0.094045202               0.000000000              -0.119417377              -0.119417377               0.000000000              -0.144789552              -0.144789552               0.000000000              -0.170161727              -0.170161727               0.000000000              -0.195533901              -0.195533901               0.000000000              -0.220906076              -0.220906076               0.000000000              -0.246278251              -0.246278251               0.000000000              -0.271650426              -0.271650426               0.000000000              -0.297022601              -0.297022601               0.000000000              -0.322394776              -0.322394776               0.000000000              -0.347766951              -0.347766951               0.000000000              -0.373139126              -0.373139126               0.000000000              -0.398511300              -0.398511300               0.000000000              -0.423883475              -0.423883475               0.000000000              -0.449255650              -0.449255650               0.000000000              -0.474627825              -0.474627825               0.000000000              -0.500000000              -0.500000000               0.000000000              -0.084374307              -0.102810390               0.000000000              -0.106444663              -0.127634741               0.000000000              -0.128515018              -0.152459092               0.000000000              -0.150585374              -0.177283442               0.000000000              -0.172655730              -0.202107793               0.000000000              -0.194726086              -0.226932143               0.000000000              -0.216796442              -0.251756494               0.000000000              -0.238866798              -0.276580845               0.000000000              -0.260937153              -0.301405195               0.000000000              -0.283007509              -0.326229546               0.000000000              -0.305077865              -0.351053896               0.000000000              -0.327148221              -0.375878247               0.000000000              -0.349218577              -0.400702598               0.000000000              -0.371288933              -0.425526948               0.000000000              -0.393359288              -0.450351299               0.000000000              -0.415429644              -0.475175649               0.000000000              -0.437500000              -0.500000000               0.000000000              -0.073890841              -0.110585458               0.000000000              -0.092710163              -0.134923867               0.000000000              -0.111529486              -0.159262276               0.000000000              -0.130348808              -0.183600685               0.000000000              -0.149168131              -0.207939094               0.000000000              -0.167987453              -0.232277503               0.000000000              -0.186806776              -0.256615912               0.000000000              -0.205626098              -0.280954320               0.000000000              -0.224445420              -0.305292729               0.000000000              -0.243264743              -0.329631138               0.000000000              -0.262084065              -0.353969547               0.000000000              -0.280903388              -0.378307956               0.000000000              -0.299722710              -0.402646365               0.000000000              -0.318542033              -0.426984773               0.000000000              -0.337361355              -0.451323182               0.000000000              -0.356180678              -0.475661591               0.000000000              -0.375000000              -0.500000000               0.000000000              -0.062695766              -0.117295528               0.000000000              -0.078308531              -0.141214558               0.000000000              -0.093921295              -0.165133587               0.000000000              -0.109534060              -0.189052617               0.000000000              -0.125146824              -0.212971646               0.000000000              -0.140759589              -0.236890676               0.000000000              -0.156372354              -0.260809705               0.000000000              -0.171985118              -0.284728735               0.000000000              -0.187597883              -0.308647764               0.000000000              -0.203210648              -0.332566794               0.000000000              -0.218823412              -0.356485823               0.000000000              -0.234436177              -0.380404853               0.000000000              -0.250048941              -0.404323882               0.000000000              -0.265661706              -0.428242912               0.000000000              -0.281274471              -0.452161941               0.000000000              -0.296887235              -0.476080971               0.000000000              -0.312500000              -0.500000000               0.000000000              -0.050896897              -0.122875978               0.000000000              -0.063340840              -0.146446229               0.000000000              -0.075784784              -0.170016481               0.000000000              -0.088228728              -0.193586732               0.000000000              -0.100672672              -0.217156983               0.000000000              -0.113116616              -0.240727235               0.000000000              -0.125560560              -0.264297486               0.000000000              -0.138004504              -0.287867738               0.000000000              -0.150448448              -0.311437989               0.000000000              -0.162892392              -0.335008240               0.000000000              -0.175336336              -0.358578492               0.000000000              -0.187780280              -0.382148743               0.000000000              -0.200224224              -0.405718994               0.000000000              -0.212668168              -0.429289246               0.000000000              -0.225112112              -0.452859497               0.000000000              -0.237556056              -0.476429749               0.000000000              -0.250000000              -0.500000000               0.000000000              -0.038607862              -0.127273065               0.000000000              -0.047913621              -0.150568498               0.000000000              -0.057219379              -0.173863932               0.000000000              -0.066525138              -0.197159365               0.000000000              -0.075830897              -0.220454798               0.000000000              -0.085136655              -0.243750232               0.000000000              -0.094442414              -0.267045665               0.000000000              -0.103748172              -0.290341099               0.000000000              -0.113053931              -0.313636532               0.000000000              -0.122359690              -0.336931966               0.000000000              -0.131665448              -0.360227399               0.000000000              -0.140971207              -0.383522833               0.000000000              -0.150276966              -0.406818266               0.000000000              -0.159582724              -0.430113700               0.000000000              -0.168888483              -0.453409133               0.000000000              -0.178194241              -0.476704567               0.000000000              -0.187500000              -0.500000000               0.000000000              -0.025947013              -0.130444442               0.000000000              -0.032137825              -0.153541665               0.000000000              -0.038328636              -0.176638887               0.000000000              -0.044519448              -0.199736109               0.000000000              -0.050710260              -0.222833332               0.000000000              -0.056901071              -0.245930554               0.000000000              -0.063091883              -0.269027776               0.000000000              -0.069282695              -0.292124999               0.000000000              -0.075473506              -0.315222221               0.000000000              -0.081664318              -0.338319444               0.000000000              -0.087855130              -0.361416666               0.000000000              -0.094045942              -0.384513888               0.000000000              -0.100236753              -0.407611111               0.000000000              -0.106427565              -0.430708333               0.000000000              -0.112618377              -0.453805555               0.000000000              -0.118809188              -0.476902778               0.000000000              -0.125000000              -0.500000000               0.000000000              -0.013036280              -0.132359569               0.000000000              -0.016127762              -0.155337096               0.000000000              -0.019219245              -0.178314623               0.000000000              -0.022310727              -0.201292150               0.000000000              -0.025402210              -0.224269676               0.000000000              -0.028493692              -0.247247203               0.000000000              -0.031585175              -0.270224730               0.000000000              -0.034676657              -0.293202257               0.000000000              -0.037768140              -0.316179784               0.000000000              -0.040859622              -0.339157311               0.000000000              -0.043951105              -0.362134838               0.000000000              -0.047042587              -0.385112365               0.000000000              -0.050134070              -0.408089892               0.000000000              -0.053225552              -0.431067419               0.000000000              -0.056317035              -0.454044946               0.000000000              -0.059408517              -0.477022473               0.000000000              -0.062500000              -0.500000000               0.000000000               0.000000000              -0.133000000               0.000000000               0.000000000              -0.155937500               0.000000000               0.000000000              -0.178875000               0.000000000               0.000000000              -0.201812500               0.000000000               0.000000000              -0.224750000               0.000000000               0.000000000              -0.247687500               0.000000000               0.000000000              -0.270625000               0.000000000               0.000000000              -0.293562500               0.000000000               0.000000000              -0.316500000               0.000000000               0.000000000              -0.339437500               0.000000000               0.000000000              -0.362375000               0.000000000               0.000000000              -0.385312500               0.000000000               0.000000000              -0.408250000               0.000000000               0.000000000              -0.431187500               0.000000000               0.000000000              -0.454125000               0.000000000               0.000000000              -0.477062500               0.000000000               0.000000000              -0.500000000               0.000000000              -0.133000000               0.000000000               0.000000000              -0.155937500               0.000000000               0.000000000              -0.178875000               0.000000000               0.000000000              -0.201812500               0.000000000               0.000000000              -0.224750000               0.000000000               0.000000000              -0.247687500               0.000000000               0.000000000              -0.270625000               0.000000000               0.000000000              -0.293562500               0.000000000               0.000000000              -0.316500000               0.000000000               0.000000000              -0.339437500               0.000000000               0.000000000              -0.362375000               0.000000000               0.000000000              -0.385312500               0.000000000               0.000000000              -0.408250000               0.000000000               0.000000000              -0.431187500               0.000000000               0.000000000              -0.454125000               0.000000000               0.000000000              -0.477062500               0.000000000               0.000000000              -0.500000000               0.000000000               0.000000000              -0.132359569               0.013036280               0.000000000              -0.155337096               0.016127762               0.000000000              -0.178314623               0.019219245               0.000000000              -0.201292150               0.022310727               0.000000000              -0.224269676               0.025402210               0.000000000              -0.247247203               0.028493692               0.000000000              -0.270224730               0.031585175               0.000000000              -0.293202257               0.034676657               0.000000000              -0.316179784               0.037768140               0.000000000              -0.339157311               0.040859622               0.000000000              -0.362134838               0.043951105               0.000000000              -0.385112365               0.047042587               0.000000000              -0.408089892               0.050134070               0.000000000              -0.431067419               0.053225552               0.000000000              -0.454044946               0.056317035               0.000000000              -0.477022473               0.059408517               0.000000000              -0.500000000               0.062500000               0.000000000              -0.130444442               0.025947013               0.000000000              -0.153541665               0.032137825               0.000000000              -0.176638887               0.038328636               0.000000000              -0.199736109               0.044519448               0.000000000              -0.222833332               0.050710260               0.000000000              -0.245930554               0.056901071               0.000000000              -0.269027776               0.063091883               0.000000000              -0.292124999               0.069282695               0.000000000              -0.315222221               0.075473506               0.000000000              -0.338319444               0.081664318               0.000000000              -0.361416666               0.087855130               0.000000000              -0.384513888               0.094045942               0.000000000              -0.407611111               0.100236753               0.000000000              -0.430708333               0.106427565               0.000000000              -0.453805555               0.112618377               0.000000000              -0.476902778               0.118809188               0.000000000              -0.500000000               0.125000000               0.000000000              -0.127273065               0.038607862               0.000000000              -0.150568498               0.047913621               0.000000000              -0.173863932               0.057219379               0.000000000              -0.197159365               0.066525138               0.000000000              -0.220454798               0.075830897               0.000000000              -0.243750232               0.085136655               0.000000000              -0.267045665               0.094442414               0.000000000              -0.290341099               0.103748172               0.000000000              -0.313636532               0.113053931               0.000000000              -0.336931966               0.122359690               0.000000000              -0.360227399               0.131665448               0.000000000              -0.383522833               0.140971207               0.000000000              -0.406818266               0.150276966               0.000000000              -0.430113700               0.159582724               0.000000000              -0.453409133               0.168888483               0.000000000              -0.476704567               0.178194241               0.000000000              -0.500000000               0.187500000               0.000000000              -0.122875978               0.050896897               0.000000000              -0.146446229               0.063340840               0.000000000              -0.170016481               0.075784784               0.000000000              -0.193586732               0.088228728               0.000000000              -0.217156983               0.100672672               0.000000000              -0.240727235               0.113116616               0.000000000              -0.264297486               0.125560560               0.000000000              -0.287867738               0.138004504               0.000000000              -0.311437989               0.150448448               0.000000000              -0.335008240               0.162892392               0.000000000              -0.358578492               0.175336336               0.000000000              -0.382148743               0.187780280               0.000000000              -0.405718994               0.200224224               0.000000000              -0.429289246               0.212668168               0.000000000              -0.452859497               0.225112112               0.000000000              -0.476429749               0.237556056               0.000000000              -0.500000000               0.250000000               0.000000000              -0.117295528               0.062695766               0.000000000              -0.141214558               0.078308531               0.000000000              -0.165133587               0.093921295               0.000000000              -0.189052617               0.109534060               0.000000000              -0.212971646               0.125146824               0.000000000              -0.236890676               0.140759589               0.000000000              -0.260809705               0.156372354               0.000000000              -0.284728735               0.171985118               0.000000000              -0.308647764               0.187597883               0.000000000              -0.332566794               0.203210648               0.000000000              -0.356485823               0.218823412               0.000000000              -0.380404853               0.234436177               0.000000000              -0.404323882               0.250048941               0.000000000              -0.428242912               0.265661706               0.000000000              -0.452161941               0.281274471               0.000000000              -0.476080971               0.296887235               0.000000000              -0.500000000               0.312500000               0.000000000              -0.110585458               0.073890841               0.000000000              -0.134923867               0.092710163               0.000000000              -0.159262276               0.111529486               0.000000000              -0.183600685               0.130348808               0.000000000              -0.207939094               0.149168131               0.000000000              -0.232277503               0.167987453               0.000000000              -0.256615912               0.186806776               0.000000000              -0.280954320               0.205626098               0.000000000              -0.305292729               0.224445420               0.000000000              -0.329631138               0.243264743               0.000000000              -0.353969547               0.262084065               0.000000000              -0.378307956               0.280903388               0.000000000              -0.402646365               0.299722710               0.000000000              -0.426984773               0.318542033               0.000000000              -0.451323182               0.337361355               0.000000000              -0.475661591               0.356180678               0.000000000              -0.500000000               0.375000000               0.000000000              -0.102810390               0.084374307               0.000000000              -0.127634741               0.106444663               0.000000000              -0.152459092               0.128515018               0.000000000              -0.177283442               0.150585374               0.000000000              -0.202107793               0.172655730               0.000000000              -0.226932143               0.194726086               0.000000000              -0.251756494               0.216796442               0.000000000              -0.276580845               0.238866798               0.000000000              -0.301405195               0.260937153               0.000000000              -0.326229546               0.283007509               0.000000000              -0.351053896               0.305077865               0.000000000              -0.375878247               0.327148221               0.000000000              -0.400702598               0.349218577               0.000000000              -0.425526948               0.371288933               0.000000000              -0.450351299               0.393359288               0.000000000              -0.475175649               0.415429644               0.000000000              -0.500000000               0.437500000               0.000000000              -0.094045202               0.094045202               0.000000000              -0.119417377               0.119417377               0.000000000              -0.144789552               0.144789552               0.000000000              -0.170161727               0.170161727               0.000000000              -0.195533901               0.195533901               0.000000000              -0.220906076               0.220906076               0.000000000              -0.246278251               0.246278251               0.000000000              -0.271650426               0.271650426               0.000000000              -0.297022601               0.297022601               0.000000000              -0.322394776               0.322394776               0.000000000              -0.347766951               0.347766951               0.000000000              -0.373139126               0.373139126               0.000000000              -0.398511300               0.398511300               0.000000000              -0.423883475               0.423883475               0.000000000              -0.449255650               0.449255650               0.000000000              -0.474627825               0.474627825               0.000000000              -0.500000000               0.500000000               0.000000000              -0.084374307               0.102810390               0.000000000              -0.106444663               0.127634741               0.000000000              -0.128515018               0.152459092               0.000000000              -0.150585374               0.177283442               0.000000000              -0.172655730               0.202107793               0.000000000              -0.194726086               0.226932143               0.000000000              -0.216796442               0.251756494               0.000000000              -0.238866798               0.276580845               0.000000000              -0.260937153               0.301405195               0.000000000              -0.283007509               0.326229546               0.000000000              -0.305077865               0.351053896               0.000000000              -0.327148221               0.375878247               0.000000000              -0.349218577               0.400702598               0.000000000              -0.371288933               0.425526948               0.000000000              -0.393359288               0.450351299               0.000000000              -0.415429644               0.475175649               0.000000000              -0.437500000               0.500000000               0.000000000              -0.073890841               0.110585458               0.000000000              -0.092710163               0.134923867               0.000000000              -0.111529486               0.159262276               0.000000000              -0.130348808               0.183600685               0.000000000              -0.149168131               0.207939094               0.000000000              -0.167987453               0.232277503               0.000000000              -0.186806776               0.256615912               0.000000000              -0.205626098               0.280954320               0.000000000              -0.224445420               0.305292729               0.000000000              -0.243264743               0.329631138               0.000000000              -0.262084065               0.353969547               0.000000000              -0.280903388               0.378307956               0.000000000              -0.299722710               0.402646365               0.000000000              -0.318542033               0.426984773               0.000000000              -0.337361355               0.451323182               0.000000000              -0.356180678               0.475661591               0.000000000              -0.375000000               0.500000000               0.000000000              -0.062695766               0.117295528               0.000000000              -0.078308531               0.141214558               0.000000000              -0.093921295               0.165133587               0.000000000              -0.109534060               0.189052617               0.000000000              -0.125146824               0.212971646               0.000000000              -0.140759589               0.236890676               0.000000000              -0.156372354               0.260809705               0.000000000              -0.171985118               0.284728735               0.000000000              -0.187597883               0.308647764               0.000000000              -0.203210648               0.332566794               0.000000000              -0.218823412               0.356485823               0.000000000              -0.234436177               0.380404853               0.000000000              -0.250048941               0.404323882               0.000000000              -0.265661706               0.428242912               0.000000000              -0.281274471               0.452161941               0.000000000              -0.296887235               0.476080971               0.000000000              -0.312500000               0.500000000               0.000000000              -0.050896897               0.122875978               0.000000000              -0.063340840               0.146446229               0.000000000              -0.075784784               0.170016481               0.000000000              -0.088228728               0.193586732               0.000000000              -0.100672672               0.217156983               0.000000000              -0.113116616               0.240727235               0.000000000              -0.125560560               0.264297486               0.000000000              -0.138004504               0.287867738               0.000000000              -0.150448448               0.311437989               0.000000000              -0.162892392               0.335008240               0.000000000              -0.175336336               0.358578492               0.000000000              -0.187780280               0.382148743               0.000000000              -0.200224224               0.405718994               0.000000000              -0.212668168               0.429289246               0.000000000              -0.225112112               0.452859497               0.000000000              -0.237556056               0.476429749               0.000000000              -0.250000000               0.500000000               0.000000000              -0.038607862               0.127273065               0.000000000              -0.047913621               0.150568498               0.000000000              -0.057219379               0.173863932               0.000000000              -0.066525138               0.197159365               0.000000000              -0.075830897               0.220454798               0.000000000              -0.085136655               0.243750232               0.000000000              -0.094442414               0.267045665               0.000000000              -0.103748172               0.290341099               0.000000000              -0.113053931               0.313636532               0.000000000              -0.122359690               0.336931966               0.000000000              -0.131665448               0.360227399               0.000000000              -0.140971207               0.383522833               0.000000000              -0.150276966               0.406818266               0.000000000              -0.159582724               0.430113700               0.000000000              -0.168888483               0.453409133               0.000000000              -0.178194241               0.476704567               0.000000000              -0.187500000               0.500000000               0.000000000              -0.025947013               0.130444442               0.000000000              -0.032137825               0.153541665               0.000000000              -0.038328636               0.176638887               0.000000000              -0.044519448               0.199736109               0.000000000              -0.050710260               0.222833332               0.000000000              -0.056901071               0.245930554               0.000000000              -0.063091883               0.269027776               0.000000000              -0.069282695               0.292124999               0.000000000              -0.075473506               0.315222221               0.000000000              -0.081664318               0.338319444               0.000000000              -0.087855130               0.361416666               0.000000000              -0.094045942               0.384513888               0.000000000              -0.100236753               0.407611111               0.000000000              -0.106427565               0.430708333               0.000000000              -0.112618377               0.453805555               0.000000000              -0.118809188               0.476902778               0.000000000              -0.125000000               0.500000000               0.000000000              -0.013036280               0.132359569               0.000000000              -0.016127762               0.155337096               0.000000000              -0.019219245               0.178314623               0.000000000              -0.022310727               0.201292150               0.000000000              -0.025402210               0.224269676               0.000000000              -0.028493692               0.247247203               0.000000000              -0.031585175               0.270224730               0.000000000              -0.034676657               0.293202257               0.000000000              -0.037768140               0.316179784               0.000000000              -0.040859622               0.339157311               0.000000000              -0.043951105               0.362134838               0.000000000              -0.047042587               0.385112365               0.000000000              -0.050134070               0.408089892               0.000000000              -0.053225552               0.431067419               0.000000000              -0.056317035               0.454044946               0.000000000              -0.059408517               0.477022473               0.000000000              -0.062500000               0.500000000               0.000000000               0.000000000               0.133000000               0.000000000               0.000000000               0.155937500               0.000000000               0.000000000               0.178875000               0.000000000               0.000000000               0.201812500               0.000000000               0.000000000               0.224750000               0.000000000               0.000000000               0.247687500               0.000000000               0.000000000               0.270625000               0.000000000               0.000000000               0.293562500               0.000000000               0.000000000               0.316500000               0.000000000               0.000000000               0.339437500               0.000000000               0.000000000               0.362375000               0.000000000               0.000000000               0.385312500               0.000000000               0.000000000               0.408250000               0.000000000               0.000000000               0.431187500               0.000000000               0.000000000               0.454125000               0.000000000               0.000000000               0.477062500               0.000000000               0.000000000               0.500000000               0.000000000 </DataArray>
</Points>
<Cells>
<DataArray type="Int32"                                    Name="connectivity"                                                      NumberOfComponents=" 1" format="ascii">
         0          1         18         17          1          2         19         18          2          3         20         19          3          4         21         20          4          5         22         21          5          6         23         22          6          7         24         23          7          8         25         24          8          9         26         25          9         10         27         26         10         11         28         27         11         12         29         28         12         13         30         29         13         14         31         30         14         15         32         31         15         16         33         32         17         18         35         34         18         19         36         35         19         20         37         36         20         21         38         37         21         22         39         38         22         23         40         39         23         24         41         40         24         25         42         41         25         26         43         42         26         27         44         43         27         28         45         44         28         29         46         45         29         30         47         46         30         31         48         47         31         32         49         48         32         33         50         49         34         35         52         51         35         36         53         52         36         37         54         53         37         38         55         54         38         39         56         55         39         40         57         56         40         41         58         57         41         42         59         58         42         43         60         59         43         44         61         60         44         45         62         61         45         46         63         62         46         47         64         63         47         48         65         64         48         49         66         65         49         50         67         66         51         52         69         68         52         53         70         69         53         54         71         70         54         55         72         71         55         56         73         72         56         57         74         73         57         58         75         74         58         59         76         75         59         60         77         76         60         61         78         77         61         62         79         78         62         63         80         79         63         64         81         80         64         65         82         81         65         66         83         82         66         67         84         83         68         69         86         85         69         70         87         86         70         71         88         87         71         72         89         88         72         73         90         89         73         74         91         90         74         75         92         91         75         76         93         92         76         77         94         93         77         78         95         94         78         79         96         95         79         80         97         96         80         81         98         97         81         82         99         98         82         83        100         99         83         84        101        100         85         86        103        102         86         87        104        103         87         88        105        104         88         89        106        105         89         90        107        106         90         91        108        107         91         92        109        108         92         93        110        109         93         94        111        110         94         95        112        111         95         96        113        112         96         97        114        113         97         98        115        114         98         99        116        115         99        100        117        116        100        101        118        117        102        103        120        119        103        104        121        120        104        105        122        121        105        106        123        122        106        107        124        123        107        108        125        124        108        109        126        125        109        110        127        126        110        111        128        127        111        112        129        128        112        113        130        129        113        114        131        130        114        115        132        131        115        116        133        132        116        117        134        133        117        118        135        134        119        120        137        136        120        121        138        137        121        122        139        138        122        123        140        139        123        124        141        140        124        125        142        141        125        126        143        142        126        127        144        143        127        128        145        144        128        129        146        145        129        130        147        146        130        131        148        147        131        132        149        148        132        133        150        149        133        134        151        150        134        135        152        151        136        137        154        153        137        138        155        154        138        139        156        155        139        140        157        156        140        141        158        157        141        142        159        158        142        143        160        159        143        144        161        160        144        145        162        161        145        146        163        162        146        147        164        163        147        148        165        164        148        149        166        165        149        150        167        166        150        151        168        167        151        152        169        168        153        154        171        170        154        155        172        171        155        156        173        172        156        157        174        173        157        158        175        174        158        159        176        175        159        160        177        176        160        161        178        177        161        162        179        178        162        163        180        179        163        164        181        180        164        165        182        181        165        166        183        182        166        167        184        183        167        168        185        184        168        169        186        185        170        171        188        187        171        172        189        188        172        173        190        189        173        174        191        190        174        175        192        191        175        176        193        192        176        177        194        193        177        178        195        194        178        179        196        195        179        180        197        196        180        181        198        197        181        182        199        198        182        183        200        199        183        184        201        200        184        185        202        201        185        186        203        202        187        188        205        204        188        189        206        205        189        190        207        206        190        191        208        207        191        192        209        208        192        193        210        209        193        194        211        210        194        195        212        211        195        196        213        212        196        197        214        213        197        198        215        214        198        199        216        215        199        200        217        216        200        201        218        217        201        202        219        218        202        203        220        219        204        205        222        221        205        206        223        222        206        207        224        223        207        208        225        224        208        209        226        225        209        210        227        226        210        211        228        227        211        212        229        228        212        213        230        229        213        214        231        230        214        215        232        231        215        216        233        232        216        217        234        233        217        218        235        234        218        219        236        235        219        220        237        236        221        222        239        238        222        223        240        239        223        224        241        240        224        225        242        241        225        226        243        242        226        227        244        243        227        228        245        244        228        229        246        245        229        230        247        246        230        231        248        247        231        232        249        248        232        233        250        249        233        234        251        250        234        235        252        251        235        236        253        252        236        237        254        253        238        239        256        255        239        240        257        256        240        241        258        257        241        242        259        258        242        243        260        259        243        244        261        260        244        245        262        261        245        246        263        262        246        247        264        263        247        248        265        264        248        249        266        265        249        250        267        266        250        251        268        267        251        252        269        268        252        253        270        269        253        254        271        270        255        256        273        272        256        257        274        273        257        258        275        274        258        259        276        275        259        260        277        276        260        261        278        277        261        262        279        278        262        263        280        279        263        264        281        280        264        265        282        281        265        266        283        282        266        267        284        283        267        268        285        284        268        269        286        285        269        270        287        286        270        271        288        287        306        307          1          0        307        308          2          1        308        309          3          2        309        310          4          3        310        311          5          4        311        312          6          5        312        313          7          6        313        314          8          7        314        315          9          8        315        316         10          9        316        317         11         10        317        318         12         11        318        319         13         12        319        320         14         13        320        321         15         14        321        322         16         15        323        324        307        306        324        325        308        307        325        326        309        308        326        327        310        309        327        328        311        310        328        329        312        311        329        330        313        312        330        331        314        313        331        332        315        314        332        333        316        315        333        334        317        316        334        335        318        317        335        336        319        318        336        337        320        319        337        338        321        320        338        339        322        321        340        341        324        323        341        342        325        324        342        343        326        325        343        344        327        326        344        345        328        327        345        346        329        328        346        347        330        329        347        348        331        330        348        349        332        331        349        350        333        332        350        351        334        333        351        352        335        334        352        353        336        335        353        354        337        336        354        355        338        337        355        356        339        338        357        358        341        340        358        359        342        341        359        360        343        342        360        361        344        343        361        362        345        344        362        363        346        345        363        364        347        346        364        365        348        347        365        366        349        348        366        367        350        349        367        368        351        350        368        369        352        351        369        370        353        352        370        371        354        353        371        372        355        354        372        373        356        355        374        375        358        357        375        376        359        358        376        377        360        359        377        378        361        360        378        379        362        361        379        380        363        362        380        381        364        363        381        382        365        364        382        383        366        365        383        384        367        366        384        385        368        367        385        386        369        368        386        387        370        369        387        388        371        370        388        389        372        371        389        390        373        372        391        392        375        374        392        393        376        375        393        394        377        376        394        395        378        377        395        396        379        378        396        397        380        379        397        398        381        380        398        399        382        381        399        400        383        382        400        401        384        383        401        402        385        384        402        403        386        385        403        404        387        386        404        405        388        387        405        406        389        388        406        407        390        389        408        409        392        391        409        410        393        392        410        411        394        393        411        412        395        394        412        413        396        395        413        414        397        396        414        415        398        397        415        416        399        398        416        417        400        399        417        418        401        400        418        419        402        401        419        420        403        402        420        421        404        403        421        422        405        404        422        423        406        405        423        424        407        406        425        426        409        408        426        427        410        409        427        428        411        410        428        429        412        411        429        430        413        412        430        431        414        413        431        432        415        414        432        433        416        415        433        434        417        416        434        435        418        417        435        436        419        418        436        437        420        419        437        438        421        420        438        439        422        421        439        440        423        422        440        441        424        423        442        443        426        425        443        444        427        426        444        445        428        427        445        446        429        428        446        447        430        429        447        448        431        430        448        449        432        431        449        450        433        432        450        451        434        433        451        452        435        434        452        453        436        435        453        454        437        436        454        455        438        437        455        456        439        438        456        457        440        439        457        458        441        440        459        460        443        442        460        461        444        443        461        462        445        444        462        463        446        445        463        464        447        446        464        465        448        447        465        466        449        448        466        467        450        449        467        468        451        450        468        469        452        451        469        470        453        452        470        471        454        453        471        472        455        454        472        473        456        455        473        474        457        456        474        475        458        457        476        477        460        459        477        478        461        460        478        479        462        461        479        480        463        462        480        481        464        463        481        482        465        464        482        483        466        465        483        484        467        466        484        485        468        467        485        486        469        468        486        487        470        469        487        488        471        470        488        489        472        471        489        490        473        472        490        491        474        473        491        492        475        474        493        494        477        476        494        495        478        477        495        496        479        478        496        497        480        479        497        498        481        480        498        499        482        481        499        500        483        482        500        501        484        483        501        502        485        484        502        503        486        485        503        504        487        486        504        505        488        487        505        506        489        488        506        507        490        489        507        508        491        490        508        509        492        491        510        511        494        493        511        512        495        494        512        513        496        495        513        514        497        496        514        515        498        497        515        516        499        498        516        517        500        499        517        518        501        500        518        519        502        501        519        520        503        502        520        521        504        503        521        522        505        504        522        523        506        505        523        524        507        506        524        525        508        507        525        526        509        508        527        528        511        510        528        529        512        511        529        530        513        512        530        531        514        513        531        532        515        514        532        533        516        515        533        534        517        516        534        535        518        517        535        536        519        518        536        537        520        519        537        538        521        520        538        539        522        521        539        540        523        522        540        541        524        523        541        542        525        524        542        543        526        525        544        545        528        527        545        546        529        528        546        547        530        529        547        548        531        530        548        549        532        531        549        550        533        532        550        551        534        533        551        552        535        534        552        553        536        535        553        554        537        536        554        555        538        537        555        556        539        538        556        557        540        539        557        558        541        540        558        559        542        541        559        560        543        542        561        562        545        544        562        563        546        545        563        564        547        546        564        565        548        547        565        566        549        548        566        567        550        549        567        568        551        550        568        569        552        551        569        570        553        552        570        571        554        553        571        572        555        554        572        573        556        555        573        574        557        556        574        575        558        557        575        576        559        558        576        577        560        559        578        579        596        595        579        580        597        596        580        581        598        597        581        582        599        598        582        583        600        599        583        584        601        600        584        585        602        601        585        586        603        602        586        587        604        603        587        588        605        604        588        589        606        605        589        590        607        606        590        591        608        607        591        592        609        608        592        593        610        609        593        594        611        610        595        596        613        612        596        597        614        613        597        598        615        614        598        599        616        615        599        600        617        616        600        601        618        617        601        602        619        618        602        603        620        619        603        604        621        620        604        605        622        621        605        606        623        622        606        607        624        623        607        608        625        624        608        609        626        625        609        610        627        626        610        611        628        627        612        613        630        629        613        614        631        630        614        615        632        631        615        616        633        632        616        617        634        633        617        618        635        634        618        619        636        635        619        620        637        636        620        621        638        637        621        622        639        638        622        623        640        639        623        624        641        640        624        625        642        641        625        626        643        642        626        627        644        643        627        628        645        644        629        630        647        646        630        631        648        647        631        632        649        648        632        633        650        649        633        634        651        650        634        635        652        651        635        636        653        652        636        637        654        653        637        638        655        654        638        639        656        655        639        640        657        656        640        641        658        657        641        642        659        658        642        643        660        659        643        644        661        660        644        645        662        661        646        647        664        663        647        648        665        664        648        649        666        665        649        650        667        666        650        651        668        667        651        652        669        668        652        653        670        669        653        654        671        670        654        655        672        671        655        656        673        672        656        657        674        673        657        658        675        674        658        659        676        675        659        660        677        676        660        661        678        677        661        662        679        678        663        664        681        680        664        665        682        681        665        666        683        682        666        667        684        683        667        668        685        684        668        669        686        685        669        670        687        686        670        671        688        687        671        672        689        688        672        673        690        689        673        674        691        690        674        675        692        691        675        676        693        692        676        677        694        693        677        678        695        694        678        679        696        695        680        681        698        697        681        682        699        698        682        683        700        699        683        684        701        700        684        685        702        701        685        686        703        702        686        687        704        703        687        688        705        704        688        689        706        705        689        690        707        706        690        691        708        707        691        692        709        708        692        693        710        709        693        694        711        710        694        695        712        711        695        696        713        712        697        698        715        714        698        699        716        715        699        700        717        716        700        701        718        717        701        702        719        718        702        703        720        719        703        704        721        720        704        705        722        721        705        706        723        722        706        707        724        723        707        708        725        724        708        709        726        725        709        710        727        726        710        711        728        727        711        712        729        728        712        713        730        729        714        715        732        731        715        716        733        732        716        717        734        733        717        718        735        734        718        719        736        735        719        720        737        736        720        721        738        737        721        722        739        738        722        723        740        739        723        724        741        740        724        725        742        741        725        726        743        742        726        727        744        743        727        728        745        744        728        729        746        745        729        730        747        746        731        732        749        748        732        733        750        749        733        734        751        750        734        735        752        751        735        736        753        752        736        737        754        753        737        738        755        754        738        739        756        755        739        740        757        756        740        741        758        757        741        742        759        758        742        743        760        759        743        744        761        760        744        745        762        761        745        746        763        762        746        747        764        763        748        749        766        765        749        750        767        766        750        751        768        767        751        752        769        768        752        753        770        769        753        754        771        770        754        755        772        771        755        756        773        772        756        757        774        773        757        758        775        774        758        759        776        775        759        760        777        776        760        761        778        777        761        762        779        778        762        763        780        779        763        764        781        780        765        766        783        782        766        767        784        783        767        768        785        784        768        769        786        785        769        770        787        786        770        771        788        787        771        772        789        788        772        773        790        789        773        774        791        790        774        775        792        791        775        776        793        792        776        777        794        793        777        778        795        794        778        779        796        795        779        780        797        796        780        781        798        797        782        783        800        799        783        784        801        800        784        785        802        801        785        786        803        802        786        787        804        803        787        788        805        804        788        789        806        805        789        790        807        806        790        791        808        807        791        792        809        808        792        793        810        809        793        794        811        810        794        795        812        811        795        796        813        812        796        797        814        813        797        798        815        814        799        800        817        816        800        801        818        817        801        802        819        818        802        803        820        819        803        804        821        820        804        805        822        821        805        806        823        822        806        807        824        823        807        808        825        824        808        809        826        825        809        810        827        826        810        811        828        827        811        812        829        828        812        813        830        829        813        814        831        830        814        815        832        831        816        817        834        833        817        818        835        834        818        819        836        835        819        820        837        836        820        821        838        837        821        822        839        838        822        823        840        839        823        824        841        840        824        825        842        841        825        826        843        842        826        827        844        843        827        828        845        844        828        829        846        845        829        830        847        846        830        831        848        847        831        832        849        848        833        834        562        561        834        835        563        562        835        836        564        563        836        837        565        564        837        838        566        565        838        839        567        566        839        840        568        567        840        841        569        568        841        842        570        569        842        843        571        570        843        844        572        571        844        845        573        572        845        846        574        573        846        847        575        574        847        848        576        575        848        849        577        576        884        885        579        578        885        886        580        579        886        887        581        580        887        888        582        581        888        889        583        582        889        890        584        583        890        891        585        584        891        892        586        585        892        893        587        586        893        894        588        587        894        895        589        588        895        896        590        589        896        897        591        590        897        898        592        591        898        899        593        592        899        900        594        593        901        902        885        884        902        903        886        885        903        904        887        886        904        905        888        887        905        906        889        888        906        907        890        889        907        908        891        890        908        909        892        891        909        910        893        892        910        911        894        893        911        912        895        894        912        913        896        895        913        914        897        896        914        915        898        897        915        916        899        898        916        917        900        899        918        919        902        901        919        920        903        902        920        921        904        903        921        922        905        904        922        923        906        905        923        924        907        906        924        925        908        907        925        926        909        908        926        927        910        909        927        928        911        910        928        929        912        911        929        930        913        912        930        931        914        913        931        932        915        914        932        933        916        915        933        934        917        916        935        936        919        918        936        937        920        919        937        938        921        920        938        939        922        921        939        940        923        922        940        941        924        923        941        942        925        924        942        943        926        925        943        944        927        926        944        945        928        927        945        946        929        928        946        947        930        929        947        948        931        930        948        949        932        931        949        950        933        932        950        951        934        933        952        953        936        935        953        954        937        936        954        955        938        937        955        956        939        938        956        957        940        939        957        958        941        940        958        959        942        941        959        960        943        942        960        961        944        943        961        962        945        944        962        963        946        945        963        964        947        946        964        965        948        947        965        966        949        948        966        967        950        949        967        968        951        950        969        970        953        952        970        971        954        953        971        972        955        954        972        973        956        955        973        974        957        956        974        975        958        957        975        976        959        958        976        977        960        959        977        978        961        960        978        979        962        961        979        980        963        962        980        981        964        963        981        982        965        964        982        983        966        965        983        984        967        966        984        985        968        967        986        987        970        969        987        988        971        970        988        989        972        971        989        990        973        972        990        991        974        973        991        992        975        974        992        993        976        975        993        994        977        976        994        995        978        977        995        996        979        978        996        997        980        979        997        998        981        980        998        999        982        981        999       1000        983        982       1000       1001        984        983       1001       1002        985        984       1003       1004        987        986       1004       1005        988        987       1005       1006        989        988       1006       1007        990        989       1007       1008        991        990       1008       1009        992        991       1009       1010        993        992       1010       1011        994        993       1011       1012        995        994       1012       1013        996        995       1013       1014        997        996       1014       1015        998        997       1015       1016        999        998       1016       1017       1000        999       1017       1018       1001       1000       1018       1019       1002       1001       1020       1021       1004       1003       1021       1022       1005       1004       1022       1023       1006       1005       1023       1024       1007       1006       1024       1025       1008       1007       1025       1026       1009       1008       1026       1027       1010       1009       1027       1028       1011       1010       1028       1029       1012       1011       1029       1030       1013       1012       1030       1031       1014       1013       1031       1032       1015       1014       1032       1033       1016       1015       1033       1034       1017       1016       1034       1035       1018       1017       1035       1036       1019       1018       1037       1038       1021       1020       1038       1039       1022       1021       1039       1040       1023       1022       1040       1041       1024       1023       1041       1042       1025       1024       1042       1043       1026       1025       1043       1044       1027       1026       1044       1045       1028       1027       1045       1046       1029       1028       1046       1047       1030       1029       1047       1048       1031       1030       1048       1049       1032       1031       1049       1050       1033       1032       1050       1051       1034       1033       1051       1052       1035       1034       1052       1053       1036       1035       1054       1055       1038       1037       1055       1056       1039       1038       1056       1057       1040       1039       1057       1058       1041       1040       1058       1059       1042       1041       1059       1060       1043       1042       1060       1061       1044       1043       1061       1062       1045       1044       1062       1063       1046       1045       1063       1064       1047       1046       1064       1065       1048       1047       1065       1066       1049       1048       1066       1067       1050       1049       1067       1068       1051       1050       1068       1069       1052       1051       1069       1070       1053       1052       1071       1072       1055       1054       1072       1073       1056       1055       1073       1074       1057       1056       1074       1075       1058       1057       1075       1076       1059       1058       1076       1077       1060       1059       1077       1078       1061       1060       1078       1079       1062       1061       1079       1080       1063       1062       1080       1081       1064       1063       1081       1082       1065       1064       1082       1083       1066       1065       1083       1084       1067       1066       1084       1085       1068       1067       1085       1086       1069       1068       1086       1087       1070       1069       1088       1089       1072       1071       1089       1090       1073       1072       1090       1091       1074       1073       1091       1092       1075       1074       1092       1093       1076       1075       1093       1094       1077       1076       1094       1095       1078       1077       1095       1096       1079       1078       1096       1097       1080       1079       1097       1098       1081       1080       1098       1099       1082       1081       1099       1100       1083       1082       1100       1101       1084       1083       1101       1102       1085       1084       1102       1103       1086       1085       1103       1104       1087       1086       1105       1106       1089       1088       1106       1107       1090       1089       1107       1108       1091       1090       1108       1109       1092       1091       1109       1110       1093       1092       1110       1111       1094       1093       1111       1112       1095       1094       1112       1113       1096       1095       1113       1114       1097       1096       1114       1115       1098       1097       1115       1116       1099       1098       1116       1117       1100       1099       1117       1118       1101       1100       1118       1119       1102       1101       1119       1120       1103       1102       1120       1121       1104       1103       1122       1123       1106       1105       1123       1124       1107       1106       1124       1125       1108       1107       1125       1126       1109       1108       1126       1127       1110       1109       1127       1128       1111       1110       1128       1129       1112       1111       1129       1130       1113       1112       1130       1131       1114       1113       1131       1132       1115       1114       1132       1133       1116       1115       1133       1134       1117       1116       1134       1135       1118       1117       1135       1136       1119       1118       1136       1137       1120       1119       1137       1138       1121       1120        272        273       1123       1122        273        274       1124       1123        274        275       1125       1124        275        276       1126       1125        276        277       1127       1126        277        278       1128       1127        278        279       1129       1128        279        280       1130       1129        280        281       1131       1130        281        282       1132       1131        282        283       1133       1132        283        284       1134       1133        284        285       1135       1134        285        286       1136       1135        286        287       1137       1136        287        288       1138       1137 </DataArray>
<DataArray type="Int32"                                    Name="offsets"                                                      NumberOfComponents=" 1" format="ascii">
         4          8         12         16         20         24         28         32         36         40         44         48         52         56         60         64         68         72         76         80         84         88         92         96        100        104        108        112        116        120        124        128        132        136        140        144        148        152        156        160        164        168        172        176        180        184        188        192        196        200        204        208        212        216        220        224        228        232        236        240        244        248        252        256        260        264        268        272        276        280        284        288        292        296        300        304        308        312        316        320        324        328        332        336        340        344        348        352        356        360        364        368        372        376        380        384        388        392        396        400        404        408        412        416        420        424        428        432        436        440        444        448        452        456        460        464        468        472        476        480        484        488        492        496        500        504        508        512        516        520        524        528        532        536        540        544        548        552        556        560        564        568        572        576        580        584        588        592        596        600        604        608        612        616        620        624        628        632        636        640        644        648        652        656        660        664        668        672        676        680        684        688        692        696        700        704        708        712        716        720        724        728        732        736        740        744        748        752        756        760        764        768        772        776        780        784        788        792        796        800        804        808        812        816        820        824        828        832        836        840        844        848        852        856        860        864        868        872        876        880        884        888        892        896        900        904        908        912        916        920        924        928        932        936        940        944        948        952        956        960        964        968        972        976        980        984        988        992        996       1000       1004       1008       1012       1016       1020       1024       1028       1032       1036       1040       1044       1048       1052       1056       1060       1064       1068       1072       1076       1080       1084       1088       1092       1096       1100       1104       1108       1112       1116       1120       1124       1128       1132       1136       1140       1144       1148       1152       1156       1160       1164       1168       1172       1176       1180       1184       1188       1192       1196       1200       1204       1208       1212       1216       1220       1224       1228       1232       1236       1240       1244       1248       1252       1256       1260       1264       1268       1272       1276       1280       1284       1288       1292       1296       1300       1304       1308       1312       1316       1320       1324       1328       1332       1336       1340       1344       1348       1352       1356       1360       1364       1368       1372       1376       1380       1384       1388       1392       1396       1400       1404       1408       1412       1416       1420       1424       1428       1432       1436       1440       1444       1448       1452       1456       1460       1464       1468       1472       1476       1480       1484       1488       1492       1496       1500       1504       1508       1512       1516       1520       1524       1528       1532       1536       1540       1544       1548       1552       1556       1560       1564       1568       1572       1576       1580       1584       1588       1592       1596       1600       1604       1608       1612       1616       1620       1624       1628       1632       1636       1640       1644       1648       1652       1656       1660       1664       1668       1672       1676       1680       1684       1688       1692       1696       1700       1704       1708       1712       1716       1720       1724       1728       1732       1736       1740       1744       1748       1752       1756       1760       1764       1768       1772       1776       1780       1784       1788       1792       1796       1800       1804       1808       1812       1816       1820       1824       1828       1832       1836       1840       1844       1848       1852       1856       1860       1864       1868       1872       1876       1880       1884       1888       1892       1896       1900       1904       1908       1912       1916       1920       1924       1928       1932       1936       1940       1944       1948       1952       1956       1960       1964       1968       1972       1976       1980       1984       1988       1992       1996       2000       2004       2008       2012       2016       2020       2024       2028       2032       2036       2040       2044       2048       2052       2056       2060       2064       2068       2072       2076       2080       2084       2088       2092       2096       2100       2104       2108       2112       2116       2120       2124       2128       2132       2136       2140       2144       2148       2152       2156       2160       2164       2168       2172       2176       2180       2184       2188       2192       2196       2200       2204       2208       2212       2216       2220       2224       2228       2232       2236       2240       2244       2248       2252       2256       2260       2264       2268       2272       2276       2280       2284       2288       2292       2296       2300       2304       2308       2312       2316       2320       2324       2328       2332       2336       2340       2344       2348       2352       2356       2360       2364       2368       2372       2376       2380       2384       2388       2392       2396       2400       2404       2408       2412       2416       2420       2424       2428       2432       2436       2440       2444       2448       2452       2456       2460       2464       2468       2472       2476       2480       2484       2488       2492       2496       2500       2504       2508       2512       2516       2520       2524       2528       2532       2536       2540       2544       2548       2552       2556       2560       2564       2568       2572       2576       2580       2584       2588       2592       2596       2600       2604       2608       2612       2616       2620       2624       2628       2632       2636       2640       2644       2648       2652       2656       2660       2664       2668       2672       2676       2680       2684       2688       2692       2696       2700       2704       2708       2712       2716       2720       2724       2728       2732       2736       2740       2744       2748       2752       2756       2760       2764       2768       2772       2776       2780       2784       2788       2792       2796       2800       2804       2808       2812       2816       2820       2824       2828       2832       2836       2840       2844       2848       2852       2856       2860       2864       2868       2872       2876       2880       2884       2888       2892       2896       2900       2904       2908       2912       2916       2920       2924       2928       2932       2936       2940       2944       2948       2952       2956       2960       2964       2968       2972       2976       2980       2984       2988       2992       2996       3000       3004       3008       3012       3016       3020       3024       3028       3032       3036       3040       3044       3048       3052       3056       3060       3064       3068       3072       3076       3080       3084       3088       3092       3096       3100       3104       3108       3112       3116       3120       3124       3128       3132       3136       3140       3144       3148       3152       3156       3160       3164       3168       3172       3176       3180       3184       3188       3192       3196       3200       3204       3208       3212       3216       3220       3224       3228       3232       3236       3240       3244       3248       3252       3256       3260       3264       3268       3272       3276       3280       3284       3288       3292       3296       3300       3304       3308       3312       3316       3320       3324       3328       3332       3336       3340       3344       3348       3352       3356       3360       3364       3368       3372       3376       3380       3384       3388       3392       3396       3400       3404       3408       3412       3416       3420       3424       3428       3432       3436       3440       3444       3448       3452       3456       3460       3464       3468       3472       3476       3480       3484       3488       3492       3496       3500       3504       3508       3512       3516       3520       3524       3528       3532       3536       3540       3544       3548       3552       3556       3560       3564       3568       3572       3576       3580       3584       3588       3592       3596       3600       3604       3608       3612       3616       3620       3624       3628       3632       3636       3640       3644       3648       3652       3656       3660       3664       3668       3672       3676       3680       3684       3688       3692       3696       3700       3704       3708       3712       3716       3720       3724       3728       3732       3736       3740       3744       3748       3752       3756       3760       3764       3768       3772       3776       3780       3784       3788       3792       3796       3800       3804       3808       3812       3816       3820       3824       3828       3832       3836       3840       3844       3848       3852       3856       3860       3864       3868       3872       3876       3880       3884       3888       3892       3896       3900       3904       3908       3912       3916       3920       3924       3928       3932       3936       3940       3944       3948       3952       3956       3960       3964       3968       3972       3976       3980       3984       3988       3992       3996       4000       4004       4008       4012       4016       4020       4024       4028       4032       4036       4040       4044       4048       4052       4056       4060       4064       4068       4072       4076       4080       4084       4088       4092       4096 </DataArray>
<DataArray type="UInt8"                                    Name="types"                                                      NumberOfComponents=" 1" format="ascii">
         9          9          9          9          9          9          9          9          9          9          9          9          9          9          9          9          9          9          9          9          9          9          9          9          9          9          9          9          9          9          9          9          9          9          9          9          9          9          9          9          9          9          9          9          9          9          9          9          9          9          9          9          9          9          9          9          9          9          9          9          9          9          9          9          9          9          9          9          9          9          9          9          9          9          9          9          9          9          9          9          9          9          9          9          9          9          9          9          9          9          9          9          9          9          9          9          9          9          9          9          9          9          9          9          9          9          9          9          9          9          9          9          9          9          9          9          9          9          9          9          9          9          9          9          9          9          9          9          9          9          9          9          9          9          9          9          9          9          9          9          9          9          9          9          9          9          9          9          9          9          9          9          9          9          9          9          9          9          9          9          9          9          9          9          9          9          9          9          9          9          9          9          9          9          9          9          9          9          9          9          9          9          9          9          9          9          9          9          9          9          9          9          9          9          9          9          9          9          9          9          9          9          9          9          9          9          9          9          9          9          9          9          9          9          9          9          9          9          9          9          9          9          9          9          9          9          9          9          9          9          9          9          9          9          9          9          9          9          9          9          9          9          9          9          9          9          9          9          9          9          9          9          9          9          9          9          9          9          9          9          9          9          9          9          9          9          9          9          9          9          9          9          9          9          9          9          9          9          9          9          9          9          9          9          9          9          9          9          9          9          9          9          9          9          9          9          9          9          9          9          9          9          9          9          9          9          9          9          9          9          9          9          9          9          9          9          9          9          9          9          9          9          9          9          9          9          9          9          9          9          9          9          9          9          9          9          9          9          9          9          9          9          9          9          9          9          9          9          9          9          9          9          9          9          9          9          9          9          9          9          9          9          9          9          9          9          9          9          9          9          9          9          9          9          9          9          9          9          9          9          9          9          9          9          9          9          9          9          9          9          9          9          9          9          9          9          9          9          9          9          9          9          9          9          9          9          9          9          9          9          9          9          9          9          9          9          9          9          9          9          9          9          9          9          9          9          9          9          9          9          9          9          9          9          9          9          9          9          9          9          9          9          9          9          9          9          9          9          9          9          9          9          9          9          9          9          9          9          9          9          9          9          9          9          9          9          9          9          9          9          9          9          9          9          9          9          9          9          9          9          9          9          9          9          9          9          9          9          9          9          9          9          9          9          9          9          9          9          9          9          9          9          9          9          9          9          9          9          9          9          9          9          9          9          9          9          9          9          9          9          9          9          9          9          9          9          9          9          9          9          9          9          9          9          9          9          9          9          9          9          9          9          9          9          9          9          9          9          9          9          9          9          9          9          9          9          9          9          9          9          9          9          9          9          9          9          9          9          9          9          9          9          9          9          9          9          9          9          9          9          9          9          9          9          9          9          9          9          9          9          9          9          9          9          9          9          9          9          9          9          9          9          9          9          9          9          9          9          9          9          9          9          9          9          9          9          9          9          9          9          9          9          9          9          9          9          9          9          9          9          9          9          9          9          9          9          9          9          9          9          9          9          9          9          9          9          9          9          9          9          9          9          9          9          9          9          9          9          9          9          9          9          9          9          9          9          9          9          9          9          9          9          9          9          9          9          9          9          9          9          9          9          9          9          9          9          9          9          9          9          9          9          9          9          9          9          9          9          9          9          9          9          9          9          9          9          9          9          9          9          9          9          9          9          9          9          9          9          9          9          9          9          9          9          9          9          9          9          9          9          9          9          9          9          9          9          9          9          9          9          9          9          9          9          9          9          9          9          9          9          9          9          9          9          9          9          9          9          9          9          9          9          9          9          9          9          9          9          9          9          9          9          9          9          9          9          9          9          9          9          9          9          9          9          9          9          9          9          9          9          9          9          9          9          9          9          9          9          9          9          9          9          9          9          9          9          9          9          9          9          9          9          9          9          9          9          9          9          9          9          9          9          9          9          9          9          9          9          9          9          9          9          9          9          9          9          9          9          9          9          9          9          9          9          9          9          9          9          9          9          9          9          9          9          9          9          9          9          9          9          9          9          9          9          9          9          9          9          9          9          9          9          9          9          9          9          9          9          9          9          9          9          9          9          9          9          9          9          9          9          9          9          9          9          9          9          9          9          9          9          9          9          9          9          9          9          9          9          9          9          9          9          9          9          9          9          9          9          9          9          9          9          9          9          9          9          9          9          9          9          9          9          9          9          9          9          9          9          9          9          9          9          9          9          9          9          9          9          9          9          9          9          9          9          9          9          9          9          9          9          9          9          9          9          9          9          9          9          9          9          9          9          9          9          9          9          9          9          9          9          9          9          9          9          9          9          9          9          9          9          9          9          9          9          9          9          9          9          9          9          9          9          9          9          9          9          9          9          9          9          9          9          9          9          9          9          9          9          9          9          9          9          9          9 </DataArray>
</Cells>
<CellData>
<DataArray type="Int32"                                    Name="material"                                                      NumberOfComponents=" 1" format="ascii">
         1          1          1          1          1          1          1          1          1          1          1          1          1          1          1          1          1          1          1          1          1          1          1          1          1          1          1          1          1          1          1          1          1          1          1          1          1          1          1          1          1          1          1          1          1          1          1          1          1          1          1          1          1          1          1          1          1          1          1          1          1          1          1          1          1          1          1          1          1          1          1          1          1          1          1          1          1          1          1          1          1          1          1          1          1          1          1          1          1          1          1          1          1          1          1          1          1          1          1          1          1          1          1          1          1          1          1          1          1          1          1          1          1          1          1          1          1          1          1          1          1          1          1          1          1          1          1          1          1          1          1          1          1          1          1          1          1          1          1          1          1          1          1          1          1          1          1          1          1          1          1          1          1          1          1          1          1          1          1          1          1          1          1          1          1          1          1          1          1          1          1          1          1          1          1          1          1          1          1          1          1          1          1          1          1          1          1          1          1          1          1          1          1          1          1          1          1          1          1          1          1          1          1          1          1          1          1          1          1          1          1          1          1          1          1          1          1          1          1          1          1          1          1          1          1          1          1          1          1          1          1          1          1          1          1          1          1          1          1          1          1          1          1          1          1          1          1          1          1          1          1          1          1          1          1          1          1          1          1          1          1          1          1          1          1          1          1          1          1          1          1          1          1          1          1          1          1          1          1          1          1          1          1          1          1          1          1          1          1          1          1          1          1          1          1          1          1          1          1          1          1          1          1          1          1          1          1          1          1          1          1          1          1          1          1          1          1          1          1          1          1          1          1          1          1          1          1          1          1          1          1          1          1          1          1          1          1          1          1          1          1          1          1          1          1          1          1          1          1          1          1          1          1          1          1          1          1          1          1          1          1          1          1          1          1          1          1          1          1          1          1          1          1          1          1          1          1          1          1          1          1          1          1          1          1          1          1          1          1          1          1          1          1          1          1          1          1          1          1          1          1          1          1          1          1          1          1          1          1          1          1          1          1          1          1          1          1          1          1          1          1          1          1          1          1          1          1          1          1          1          1          1          1          1          1          1          1          1          1          1          1          1          1          1          1          1          1          1          1          1          1          1          1          1          1          1          1          1          1          1          1          1          1          1          1          1          1          1          1          1          1          1          1          1          1          1          1          1          1          1          1          1          1          1          1          1          1          1          1          1          1          1          1          1          1          1          1          1          1          1          1          1          1          1          1          1          1          1          1          1          1          1          1          1          1          1          1          1          1          1          1          1          1          1          1          1          1          1          1          1          1          1          1          1          1          1          1          1          1          1          1          1          1          1          1          1          1          1          1          1          1          1          1          1          1          1          1          1          1          1          1          1          1          1          1          1          1          1          1          1          1          1          1          1          1          1          1          1          1          1          1          1          1          1          1          1          1          1          1          1          1          1          1          1          1          1          1          1          1          1          1          1          1          1          1          1          1          1          1          1          1          1          1          1          1          1          1          1          1          1          1          1          1          1          1          1          1          1          1          1          1          1          1          1          1          1          1          1          1          1          1          1          1          1          1          1          1          1          1          1          1          1          1          1          1          1          1          1          1          1          1          1          1          1          1          1          1          1          1          1          1          1          1          1          1          1          1          1          1          1          1          1          1          1          1          1          1          1          1          1          1          1          1          1          1          1          1          1          1          1          1          1          1          1          1          1          1          1          1          1          1          1          1          1          1          1          1          1          1          1          1          1          1          1          1          1          1          1          1          1          1          1          1          1          1          1          1          1          1          1          1          1          1          1          1          1          1          1          1          1          1          1          1          1          1          1          1          1          1          1          1          1          1          1          1          1          1          1          1          1          1          1          1          1          1          1          1          1          1          1          1          1          1          1          1          1          1          1          1          1          1          1          1          1          1          1          1          1          1          1          1          1          1          1          1          1          1          1          1          1          1          1          1          1          1          1          1          1          1          1          1          1          1          1          1          1          1          1          1          1          1          1          1          1          1          1          1          1          1          1          1          1          1          1          1          1          1          1          1          1          1          1          1          1          1          1          1          1          1          1          1          1          1          1          1          1          1          1          1          1          1          1          1          1          1          1          1          1          1          1          1          1          1          1          1          1          1          1          1          1          1          1          1          1          1          1          1          1          1          1          1          1          1          1          1          1          1          1          1          1          1          1          1          1          1          1          1          1          1          1          1          1          1          1          1          1          1          1          1          1          1          1          1          1          1          1          1          1          1          1          1          1          1          1          1          1          1          1          1          1          1          1          1          1          1          1          1          1          1          1          1          1          1          1          1          1          1          1          1          1          1          1          1          1          1          1          1          1          1          1          1          1          1          1          1          1          1          1          1          1          1          1          1          1          1          1          1          1          1          1          1          1          1          1          1          1          1          1          1          1          1          1          1          1          1          1          1          1          1          1          1          1          1          1 </DataArray>
</CellData>
<PointData>
<DataArray type="Float64"                                    Name="u"                                                      NumberOfComponents=" 3" format="ascii">
             -0.000308932               0.000000000               0.999999987              -0.000345609              -0.000000000               0.999999987              -0.000362429              -0.000000000               0.999999987              -0.000372100               0.000000000               0.999999987              -0.000379646               0.000000000               0.999999987              -0.000387237               0.000000000               0.999999987              -0.000395948               0.000000000               0.999999987              -0.000406034               0.000000000               0.999999987              -0.000417404               0.000000000               0.999999987              -0.000429896               0.000000000               0.999999987              -0.000443295              -0.000000000               0.999999987              -0.000457436               0.000000000               0.999999987              -0.000472297              -0.000000000               0.999999987              -0.000487764               0.000000000               0.999999987              -0.000503524               0.000000000               0.999999987              -0.000519176               0.000000000               0.999999987              -0.000534363               0.000000000               0.999999987              -0.000307164               0.000092863               0.999999987              -0.000341641               0.000078603               0.999999987              -0.000357120               0.000073256               0.999999987              -0.000366008               0.000072537               0.999999987              -0.000373125               0.000074447               0.999999987              -0.000380535               0.000078119               0.999999987              -0.000389083               0.000082932               0.999999987              -0.000398971               0.000088233               0.999999987              -0.000410110               0.000093684               0.999999987              -0.000422300               0.000099143               0.999999987              -0.000435436               0.000104320               0.999999987              -0.000449320               0.000109093               0.999999987              -0.000463796               0.000113584               0.999999987              -0.000478629               0.000117526               0.999999987              -0.000493563               0.000120449               0.999999987              -0.000508448               0.000121913               0.999999987              -0.000522940               0.000121270               0.999999987              -0.000301993               0.000184751               0.999999987              -0.000330050               0.000156522               0.999999987              -0.000341731               0.000146438               0.999999987              -0.000348561               0.000145601               0.999999987              -0.000354659               0.000149918               0.999999987              -0.000361531               0.000157497               0.999999987              -0.000369763               0.000167125               0.999999987              -0.000379353               0.000177716               0.999999987              -0.000390077               0.000188553               0.999999987              -0.000401738               0.000199283               0.999999987              -0.000414081               0.000209656               0.999999987              -0.000426965               0.000219543               0.999999987              -0.000440332               0.000228602               0.999999987              -0.000453818               0.000236513               0.999999987              -0.000467166               0.000242726               0.999999987              -0.000480212               0.000246766               0.999999987              -0.000492825               0.000247817               0.999999987              -0.000293581               0.000274725               0.999999987              -0.000311503               0.000233200               0.999999987              -0.000317761               0.000219499               0.999999987              -0.000321888               0.000219513               0.999999987              -0.000326769               0.000226918               0.999999987              -0.000333234               0.000238789               0.999999987              -0.000341315               0.000253357               0.999999987              -0.000350655               0.000269169               0.999999987              -0.000361005               0.000285209               0.999999987              -0.000372047               0.000301121               0.999999987              -0.000383618               0.000316699               0.999999987              -0.000395524               0.000331605               0.999999987              -0.000407497               0.000345196               0.999999987              -0.000419259               0.000357202               0.999999987              -0.000430654               0.000367173               0.999999987              -0.000441539               0.000374739               0.999999987              -0.000451769               0.000379386               0.999999987              -0.000282049               0.000361904               0.999999987              -0.000286937               0.000308264               0.999999987              -0.000287152               0.000292406               0.999999987              -0.000288783               0.000294319               0.999999987              -0.000292971               0.000305466               0.999999987              -0.000299465               0.000321931               0.999999987              -0.000307667               0.000341425               0.999999987              -0.000317074               0.000362247               0.999999987              -0.000327210               0.000383338               0.999999987              -0.000337831               0.000404358               0.999999987              -0.000348573               0.000424921               0.999999987              -0.000359132               0.000444499               0.999999987              -0.000369294               0.000462528               0.999999987              -0.000378874               0.000478746               0.999999987              -0.000387777               0.000493068               0.999999987              -0.000395987               0.000505144               0.999999987              -0.000403533               0.000514775               0.999999987              -0.000267552               0.000445478               0.999999987              -0.000257632               0.000381494               0.999999987              -0.000252323               0.000364994               0.999999987              -0.000252443               0.000369680               0.999999987              -0.000256772               0.000384930               0.999999987              -0.000263922               0.000406080               0.999999987              -0.000272855               0.000430237               0.999999987              -0.000282695               0.000455796               0.999999987              -0.000292841               0.000481631               0.999999987              -0.000302942               0.000507384               0.999999987              -0.000312605               0.000532451               0.999999987              -0.000321592               0.000556312               0.999999987              -0.000329703               0.000578576               0.999999987              -0.000336903               0.000599145               0.999999987              -0.000343249               0.000618045               0.999999987              -0.000348919               0.000635010               0.999999987              -0.000354042               0.000650415               0.999999987              -0.000250320               0.000524627               0.999999987              -0.000225043               0.000452850               0.999999987              -0.000215657               0.000436995               0.999999987              -0.000215674               0.000444849               0.999999987              -0.000221211               0.000464307               0.999999987              -0.000229839               0.000489816               0.999999987              -0.000239783               0.000518430               0.999999987              -0.000250112               0.000548316               0.999999987              -0.000260185               0.000578512               0.999999987              -0.000269612               0.000608449               0.999999987              -0.000278103               0.000637521               0.999999987              -0.000285340               0.000665285               0.999999987              -0.000291380               0.000691468               0.999999987              -0.000296421               0.000716068               0.999999987              -0.000300581               0.000739096               0.999999987              -0.000303897               0.000760558               0.999999987              -0.000306571               0.000780940               0.999999987              -0.000230699               0.000598488               0.999999987              -0.000190959               0.000522147               0.999999987              -0.000179480               0.000507757               0.999999987              -0.000180996               0.000518740               0.999999987              -0.000188719               0.000542093               0.999999987              -0.000199004               0.000571731               0.999999987              -0.000209887               0.000604487               0.999999987              -0.000220451               0.000638374               0.999999987              -0.000230174               0.000672513               0.999999987              -0.000238648               0.000706382               0.999999987              -0.000245625               0.000739107               0.999999987              -0.000251057               0.000770349               0.999999987              -0.000255117               0.000799925               0.999999987              -0.000257921               0.000828003               0.999999987              -0.000259518               0.000854679               0.999999987              -0.000260081               0.000880101               0.999999987              -0.000259970               0.000904730               0.999999987              -0.000209585               0.000665754               0.999999987              -0.000156826               0.000589198               0.999999987              -0.000145979               0.000576343               0.999999987              -0.000150125               0.000590136               0.999999987              -0.000160282               0.000617083               0.999999987              -0.000172100               0.000650553               0.999999987              -0.000183661               0.000687091               0.999999987              -0.000194171               0.000724752               0.999999987              -0.000203157               0.000762688               0.999999987              -0.000210248               0.000800042               0.999999987              -0.000215379               0.000836058               0.999999987              -0.000218638               0.000870388               0.999999987              -0.000220194               0.000903079               0.999999987              -0.000220217               0.000934381               0.999999987              -0.000218842               0.000964559               0.999999987              -0.000216697               0.000993817               0.999999987              -0.000214241               0.001022473               0.999999987              -0.000188369               0.000728806               0.999999987              -0.000129511               0.000661473               0.999999987              -0.000115759               0.000644008               0.999999987              -0.000118296               0.000651957               0.999999987              -0.000127168               0.000673499               0.999999987              -0.000138126               0.000702497               0.999999987              -0.000149149               0.000735360               0.999999987              -0.000159122               0.000770236               0.999999987              -0.000167549               0.000806099               0.999999987              -0.000174384               0.000842135               0.999999987              -0.000179481               0.000877637               0.999999987              -0.000182620               0.000912075               0.999999987              -0.000183928               0.000945310               0.999999987              -0.000183436               0.000977401               0.999999987              -0.000181348               0.001008580               0.999999987              -0.000177910               0.001038885               0.999999987              -0.000173860               0.001068657               0.999999987              -0.000165044               0.000785806               0.999999987              -0.000104788               0.000730790               0.999999987              -0.000088267               0.000712748               0.999999987              -0.000088515               0.000716518               0.999999987              -0.000095629               0.000733502               0.999999987              -0.000105347               0.000758391               0.999999987              -0.000115434               0.000787843               0.999999987              -0.000124700               0.000819977               0.999999987              -0.000132535               0.000853713               0.999999987              -0.000138838               0.000888085               0.999999987              -0.000143595               0.000922559               0.999999987              -0.000146421               0.000956611               0.999999987              -0.000147325               0.000989896               0.999999987              -0.000146302               0.001022362               0.999999987              -0.000143324               0.001054122               0.999999987              -0.000138551               0.001085318               0.999999987              -0.000132528               0.001116122               0.999999987              -0.000140113               0.000835587               0.999999987              -0.000082564               0.000795297               0.999999987              -0.000064378               0.000779688               0.999999987              -0.000062190               0.000781580               0.999999987              -0.000067165               0.000795308               0.999999987              -0.000075185               0.000816865               0.999999987              -0.000083920               0.000843447               0.999999987              -0.000092150               0.000873234               0.999999987              -0.000099289               0.000905063               0.999999987              -0.000104833               0.000937983               0.999999987              -0.000108865               0.000971387               0.999999987              -0.000111285               0.001004768               0.999999987              -0.000111661               0.001037810               0.999999987              -0.000109780               0.001070393               0.999999987              -0.000105736               0.001102559               0.999999987              -0.000099414               0.001134350               0.999999987              -0.000090897               0.001165954               0.999999987              -0.000113759               0.000877339               0.999999987              -0.000062821               0.000852462               0.999999987              -0.000044552               0.000841604               0.999999987              -0.000040518               0.000843719               0.999999987              -0.000043265               0.000855795               0.999999987              -0.000049165               0.000875183               0.999999987              -0.000056276               0.000899670               0.999999987              -0.000063161               0.000927646               0.999999987              -0.000069215               0.000958047               0.999999987              -0.000074021               0.000989951               0.999999987              -0.000077385               0.001022580               0.999999987              -0.000079214               0.001055514               0.999999987              -0.000079033               0.001088445               0.999999987              -0.000076426               0.001121189               0.999999987              -0.000071177               0.001153813               0.999999987              -0.000063088               0.001186322               0.999999987              -0.000051711               0.001218795               0.999999987              -0.000086243               0.000910406               0.999999987              -0.000045238               0.000899766               0.999999987              -0.000028893               0.000894830               0.999999987              -0.000024099               0.000898719               0.999999987              -0.000024955               0.000910614               0.999999987              -0.000028839               0.000928941               0.999999987              -0.000034038               0.000952241               0.999999987              -0.000039349               0.000979175               0.999999987              -0.000044106               0.001008682               0.999999987              -0.000048033               0.001040046               0.999999987              -0.000050790               0.001072509               0.999999987              -0.000051971               0.001105626               0.999999987              -0.000051346               0.001139041               0.999999987              -0.000048410               0.001172548               0.999999987              -0.000042599               0.001206028               0.999999987              -0.000033259               0.001239435               0.999999987              -0.000019600               0.001272894               0.999999987              -0.000057907               0.000934252               0.999999987              -0.000029329               0.000934999               0.999999987              -0.000016989               0.000935726               0.999999987              -0.000012699               0.000942076               0.999999987              -0.000012522               0.000954636               0.999999987              -0.000014651               0.000972787               0.999999987              -0.000017946               0.000995607               0.999999987              -0.000021599               0.001022139               0.999999987              -0.000024901               0.001051469               0.999999987              -0.000027697               0.001082864               0.999999987              -0.000029600               0.001115765               0.999999987              -0.000030310               0.001149688               0.999999987              -0.000029543               0.001184315               0.999999987              -0.000026952               0.001219350               0.999999987              -0.000021787               0.001254539               0.999999987              -0.000013090               0.001289638               0.999999987               0.000000472               0.001324530               0.999999987              -0.000029076               0.000948549               0.999999987              -0.000014451               0.000956660               0.999999987              -0.000007795               0.000961486               0.999999987              -0.000005237               0.000969847               0.999999987              -0.000004890               0.000983219               0.999999987              -0.000005747               0.001001519               0.999999987              -0.000007334               0.001024251               0.999999987              -0.000009189               0.001050689               0.999999987              -0.000010951               0.001080110               0.999999987              -0.000012368               0.001111900               0.999999987              -0.000013343               0.001145483               0.999999987              -0.000013664               0.001180442               0.999999987              -0.000013190               0.001216445               0.999999987              -0.000011635               0.001253187               0.999999987              -0.000008520               0.001290316               0.999999987              -0.000003118               0.001327382               0.999999987               0.000005578               0.001363965               0.999999987              -0.000000000               0.000953293               0.999999987               0.000000000               0.000963950               0.999999987              -0.000000000               0.000970253               0.999999987               0.000000000               0.000979363               0.999999987               0.000000000               0.000993131               0.999999987              -0.000000000               0.001011539               0.999999987              -0.000000000               0.001034185               0.999999987              -0.000000000               0.001060606               0.999999987               0.000000000               0.001090130               0.999999987              -0.000000000               0.001122077               0.999999987              -0.000000000               0.001155955               0.999999987               0.000000000               0.001191371               0.999999987              -0.000000000               0.001228062               0.999999987              -0.000000000               0.001265605               0.999999987              -0.000000000               0.001303620               0.999999987              -0.000000000               0.001341624               0.999999987               0.000000000               0.001378966               0.999999987              -0.000308932               0.000000000               0.999999987              -0.000345609              -0.000000000               0.999999987              -0.000362429              -0.000000000               0.999999987              -0.000372100               0.000000000               0.999999987              -0.000379646               0.000000000               0.999999987              -0.000387237               0.000000000               0.999999987              -0.000395948               0.000000000               0.999999987              -0.000406034               0.000000000               0.999999987              -0.000417404               0.000000000               0.999999987              -0.000429896               0.000000000               0.999999987              -0.000443295              -0.000000000               0.999999987              -0.000457436               0.000000000               0.999999987              -0.000472297              -0.000000000               0.999999987              -0.000487764               0.000000000               0.999999987              -0.000503524               0.000000000               0.999999987              -0.000519176               0.000000000               0.999999987              -0.000534363               0.000000000               0.999999987              -0.000307164              -0.000092863               0.999999987              -0.000341641              -0.000078603               0.999999987              -0.000357120              -0.000073256               0.999999987              -0.000366008              -0.000072537               0.999999987              -0.000373125              -0.000074447               0.999999987              -0.000380535              -0.000078119               0.999999987              -0.000389083              -0.000082932               0.999999987              -0.000398971              -0.000088233               0.999999987              -0.000410110              -0.000093684               0.999999987              -0.000422300              -0.000099143               0.999999987              -0.000435436              -0.000104320               0.999999987              -0.000449320              -0.000109093               0.999999987              -0.000463796              -0.000113584               0.999999987              -0.000478629              -0.000117526               0.999999987              -0.000493563              -0.000120449               0.999999987              -0.000508448              -0.000121913               0.999999987              -0.000522940              -0.000121270               0.999999987              -0.000301993              -0.000184751               0.999999987              -0.000330050              -0.000156522               0.999999987              -0.000341731              -0.000146438               0.999999987              -0.000348561              -0.000145601               0.999999987              -0.000354659              -0.000149918               0.999999987              -0.000361531              -0.000157497               0.999999987              -0.000369763              -0.000167125               0.999999987              -0.000379353              -0.000177716               0.999999987              -0.000390077              -0.000188553               0.999999987              -0.000401738              -0.000199283               0.999999987              -0.000414081              -0.000209656               0.999999987              -0.000426965              -0.000219543               0.999999987              -0.000440332              -0.000228602               0.999999987              -0.000453818              -0.000236513               0.999999987              -0.000467166              -0.000242726               0.999999987              -0.000480212              -0.000246766               0.999999987              -0.000492825              -0.000247817               0.999999987              -0.000293581              -0.000274725               0.999999987              -0.000311503              -0.000233200               0.999999987              -0.000317761              -0.000219499               0.999999987              -0.000321888              -0.000219513               0.999999987              -0.000326769              -0.000226918               0.999999987              -0.000333234              -0.000238789               0.999999987              -0.000341315              -0.000253357               0.999999987              -0.000350655              -0.000269169               0.999999987              -0.000361005              -0.000285209               0.999999987              -0.000372047              -0.000301121               0.999999987              -0.000383618              -0.000316699               0.999999987              -0.000395524              -0.000331605               0.999999987              -0.000407497              -0.000345196               0.999999987              -0.000419259              -0.000357202               0.999999987              -0.000430654              -0.000367173               0.999999987              -0.000441539              -0.000374739               0.999999987              -0.000451769              -0.000379386               0.999999987              -0.000282049              -0.000361904               0.999999987              -0.000286937              -0.000308264               0.999999987              -0.000287152              -0.000292406               0.999999987              -0.000288783              -0.000294319               0.999999987              -0.000292971              -0.000305466               0.999999987              -0.000299465              -0.000321931               0.999999987              -0.000307667              -0.000341425               0.999999987              -0.000317074              -0.000362247               0.999999987              -0.000327210              -0.000383338               0.999999987              -0.000337831              -0.000404358               0.999999987              -0.000348573              -0.000424921               0.999999987              -0.000359132              -0.000444499               0.999999987              -0.000369294              -0.000462528               0.999999987              -0.000378874              -0.000478746               0.999999987              -0.000387777              -0.000493068               0.999999987              -0.000395987              -0.000505144               0.999999987              -0.000403533              -0.000514775               0.999999987              -0.000267552              -0.000445478               0.999999987              -0.000257632              -0.000381494               0.999999987              -0.000252323              -0.000364994               0.999999987              -0.000252443              -0.000369680               0.999999987              -0.000256772              -0.000384930               0.999999987              -0.000263922              -0.000406080               0.999999987              -0.000272855              -0.000430237               0.999999987              -0.000282695              -0.000455796               0.999999987              -0.000292841              -0.000481631               0.999999987              -0.000302942              -0.000507384               0.999999987              -0.000312605              -0.000532451               0.999999987              -0.000321592              -0.000556312               0.999999987              -0.000329703              -0.000578576               0.999999987              -0.000336903              -0.000599145               0.999999987              -0.000343249              -0.000618045               0.999999987              -0.000348919              -0.000635010               0.999999987              -0.000354042              -0.000650415               0.999999987              -0.000250320              -0.000524627               0.999999987              -0.000225043              -0.000452850               0.999999987              -0.000215657              -0.000436995               0.999999987              -0.000215674              -0.000444849               0.999999987              -0.000221211              -0.000464307               0.999999987              -0.000229839              -0.000489816               0.999999987              -0.000239783              -0.000518430               0.999999987              -0.000250112              -0.000548316               0.999999987              -0.000260185              -0.000578512               0.999999987              -0.000269612              -0.000608449               0.999999987              -0.000278103              -0.000637521               0.999999987              -0.000285340              -0.000665285               0.999999987              -0.000291380              -0.000691468               0.999999987              -0.000296421              -0.000716068               0.999999987              -0.000300581              -0.000739096               0.999999987              -0.000303897              -0.000760558               0.999999987              -0.000306571              -0.000780940               0.999999987              -0.000230699              -0.000598488               0.999999987              -0.000190959              -0.000522147               0.999999987              -0.000179480              -0.000507757               0.999999987              -0.000180996              -0.000518740               0.999999987              -0.000188719              -0.000542093               0.999999987              -0.000199004              -0.000571731               0.999999987              -0.000209887              -0.000604487               0.999999987              -0.000220451              -0.000638374               0.999999987              -0.000230174              -0.000672513               0.999999987              -0.000238648              -0.000706382               0.999999987              -0.000245625              -0.000739107               0.999999987              -0.000251057              -0.000770349               0.999999987              -0.000255117              -0.000799925               0.999999987              -0.000257921              -0.000828003               0.999999987              -0.000259518              -0.000854679               0.999999987              -0.000260081              -0.000880101               0.999999987              -0.000259970              -0.000904730               0.999999987              -0.000209585              -0.000665754               0.999999987              -0.000156826              -0.000589198               0.999999987              -0.000145979              -0.000576343               0.999999987              -0.000150125              -0.000590136               0.999999987              -0.000160282              -0.000617083               0.999999987              -0.000172100              -0.000650553               0.999999987              -0.000183661              -0.000687091               0.999999987              -0.000194171              -0.000724752               0.999999987              -0.000203157              -0.000762688               0.999999987              -0.000210248              -0.000800042               0.999999987              -0.000215379              -0.000836058               0.999999987              -0.000218638              -0.000870388               0.999999987              -0.000220194              -0.000903079               0.999999987              -0.000220217              -0.000934381               0.999999987              -0.000218842              -0.000964559               0.999999987              -0.000216697              -0.000993817               0.999999987              -0.000214241              -0.001022473               0.999999987              -0.000188369              -0.000728806               0.999999987              -0.000129511              -0.000661473               0.999999987              -0.000115759              -0.000644008               0.999999987              -0.000118296              -0.000651957               0.999999987              -0.000127168              -0.000673499               0.999999987              -0.000138126              -0.000702497               0.999999987              -0.000149149              -0.000735360               0.999999987              -0.000159122              -0.000770236               0.999999987              -0.000167549              -0.000806099               0.999999987              -0.000174384              -0.000842135               0.999999987              -0.000179481              -0.000877637               0.999999987              -0.000182620              -0.000912075               0.999999987              -0.000183928              -0.000945310               0.999999987              -0.000183436              -0.000977401               0.999999987              -0.000181348              -0.001008580               0.999999987              -0.000177910              -0.001038885               0.999999987              -0.000173860              -0.001068657               0.999999987              -0.000165044              -0.000785806               0.999999987              -0.000104788              -0.000730790               0.999999987              -0.000088267              -0.000712748               0.999999987              -0.000088515              -0.000716518               0.999999987              -0.000095629              -0.000733502               0.999999987              -0.000105347              -0.000758391               0.999999987              -0.000115434              -0.000787843               0.999999987              -0.000124700              -0.000819977               0.999999987              -0.000132535              -0.000853713               0.999999987              -0.000138838              -0.000888085               0.999999987              -0.000143595              -0.000922559               0.999999987              -0.000146421              -0.000956611               0.999999987              -0.000147325              -0.000989896               0.999999987              -0.000146302              -0.001022362               0.999999987              -0.000143324              -0.001054122               0.999999987              -0.000138551              -0.001085318               0.999999987              -0.000132528              -0.001116122               0.999999987              -0.000140113              -0.000835587               0.999999987              -0.000082564              -0.000795297               0.999999987              -0.000064378              -0.000779688               0.999999987              -0.000062190              -0.000781580               0.999999987              -0.000067165              -0.000795308               0.999999987              -0.000075185              -0.000816865               0.999999987              -0.000083920              -0.000843447               0.999999987              -0.000092150              -0.000873234               0.999999987              -0.000099289              -0.000905063               0.999999987              -0.000104833              -0.000937983               0.999999987              -0.000108865              -0.000971387               0.999999987              -0.000111285              -0.001004768               0.999999987              -0.000111661              -0.001037810               0.999999987              -0.000109780              -0.001070393               0.999999987              -0.000105736              -0.001102559               0.999999987              -0.000099414              -0.001134350               0.999999987              -0.000090897              -0.001165954               0.999999987              -0.000113759              -0.000877339               0.999999987              -0.000062821              -0.000852462               0.999999987              -0.000044552              -0.000841604               0.999999987              -0.000040518              -0.000843719               0.999999987              -0.000043265              -0.000855795               0.999999987              -0.000049165              -0.000875183               0.999999987              -0.000056276              -0.000899670               0.999999987              -0.000063161              -0.000927646               0.999999987              -0.000069215              -0.000958047               0.999999987              -0.000074021              -0.000989951               0.999999987              -0.000077385              -0.001022580               0.999999987              -0.000079214              -0.001055514               0.999999987              -0.000079033              -0.001088445               0.999999987              -0.000076426              -0.001121189               0.999999987              -0.000071177              -0.001153813               0.999999987              -0.000063088              -0.001186322               0.999999987              -0.000051711              -0.001218795               0.999999987              -0.000086243              -0.000910406               0.999999987              -0.000045238              -0.000899766               0.999999987              -0.000028893              -0.000894830               0.999999987              -0.000024099              -0.000898719               0.999999987              -0.000024955              -0.000910614               0.999999987              -0.000028839              -0.000928941               0.999999987              -0.000034038              -0.000952241               0.999999987              -0.000039349              -0.000979175               0.999999987              -0.000044106              -0.001008682               0.999999987              -0.000048033              -0.001040046               0.999999987              -0.000050790              -0.001072509               0.999999987              -0.000051971              -0.001105626               0.999999987              -0.000051346              -0.001139041               0.999999987              -0.000048410              -0.001172548               0.999999987              -0.000042599              -0.001206028               0.999999987              -0.000033259              -0.001239435               0.999999987              -0.000019600              -0.001272894               0.999999987              -0.000057907              -0.000934252               0.999999987              -0.000029329              -0.000934999               0.999999987              -0.000016989              -0.000935726               0.999999987              -0.000012699              -0.000942076               0.999999987              -0.000012522              -0.000954636               0.999999987              -0.000014651              -0.000972787               0.999999987              -0.000017946              -0.000995607               0.999999987              -0.000021599              -0.001022139               0.999999987              -0.000024901              -0.001051469               0.999999987              -0.000027697              -0.001082864               0.999999987              -0.000029600              -0.001115765               0.999999987              -0.000030310              -0.001149688               0.999999987              -0.000029543              -0.001184315               0.999999987              -0.000026952              -0.001219350               0.999999987              -0.000021787              -0.001254539               0.999999987              -0.000013090              -0.001289638               0.999999987               0.000000472              -0.001324530               0.999999987              -0.000029076              -0.000948549               0.999999987              -0.000014451              -0.000956660               0.999999987              -0.000007795              -0.000961486               0.999999987              -0.000005237              -0.000969847               0.999999987              -0.000004890              -0.000983219               0.999999987              -0.000005747              -0.001001519               0.999999987              -0.000007334              -0.001024251               0.999999987              -0.000009189              -0.001050689               0.999999987              -0.000010951              -0.001080110               0.999999987              -0.000012368              -0.001111900               0.999999987              -0.000013343              -0.001145483               0.999999987              -0.000013664              -0.001180442               0.999999987              -0.000013190              -0.001216445               0.999999987              -0.000011635              -0.001253187               0.999999987              -0.000008520              -0.001290316               0.999999987              -0.000003118              -0.001327382               0.999999987               0.000005578              -0.001363965               0.999999987               0.000000000              -0.000953293               0.999999987              -0.000000000              -0.000963950               0.999999987               0.000000000              -0.000970253               0.999999987               0.000000000              -0.000979363               0.999999987              -0.000000000              -0.000993131               0.999999987               0.000000000              -0.001011539               0.999999987               0.000000000              -0.001034185               0.999999987               0.000000000              -0.001060606               0.999999987              -0.000000000              -0.001090130               0.999999987               0.000000000              -0.001122077               0.999999987              -0.000000000              -0.001155955               0.999999987               0.000000000              -0.001191371               0.999999987              -0.000000000              -0.001228062               0.999999987              -0.000000000              -0.001265605               0.999999987               0.000000000              -0.001303620               0.999999987              -0.000000000              -0.001341624               0.999999987              -0.000000000              -0.001378966               0.999999987               0.000308932              -0.000000000               0.999999987               0.000345609               0.000000000               0.999999987               0.000362429               0.000000000               0.999999987               0.000372100               0.000000000               0.999999987               0.000379646               0.000000000               0.999999987               0.000387237               0.000000000               0.999999987               0.000395948              -0.000000000               0.999999987               0.000406034              -0.000000000               0.999999987               0.000417404               0.000000000               0.999999987               0.000429896               0.000000000               0.999999987               0.000443295              -0.000000000               0.999999987               0.000457436              -0.000000000               0.999999987               0.000472297               0.000000000               0.999999987               0.000487764               0.000000000               0.999999987               0.000503524              -0.000000000               0.999999987               0.000519176               0.000000000               0.999999987               0.000534363               0.000000000               0.999999987               0.000307164              -0.000092863               0.999999987               0.000341641              -0.000078603               0.999999987               0.000357120              -0.000073256               0.999999987               0.000366008              -0.000072537               0.999999987               0.000373125              -0.000074447               0.999999987               0.000380535              -0.000078119               0.999999987               0.000389083              -0.000082932               0.999999987               0.000398971              -0.000088233               0.999999987               0.000410110              -0.000093684               0.999999987               0.000422300              -0.000099143               0.999999987               0.000435436              -0.000104320               0.999999987               0.000449320              -0.000109093               0.999999987               0.000463796              -0.000113584               0.999999987               0.000478629              -0.000117526               0.999999987               0.000493563              -0.000120449               0.999999987               0.000508448              -0.000121913               0.999999987               0.000522940              -0.000121270               0.999999987               0.000301993              -0.000184751               0.999999987               0.000330050              -0.000156522               0.999999987               0.000341731              -0.000146438               0.999999987               0.000348561              -0.000145601               0.999999987               0.000354659              -0.000149918               0.999999987               0.000361531              -0.000157497               0.999999987               0.000369763              -0.000167125               0.999999987               0.000379353              -0.000177716               0.999999987               0.000390077              -0.000188553               0.999999987               0.000401738              -0.000199283               0.999999987               0.000414081              -0.000209656               0.999999987               0.000426965              -0.000219543               0.999999987               0.000440332              -0.000228602               0.999999987               0.000453818              -0.000236513               0.999999987               0.000467166              -0.000242726               0.999999987               0.000480212              -0.000246766               0.999999987               0.000492825              -0.000247817               0.999999987               0.000293581              -0.000274725               0.999999987               0.000311503              -0.000233200               0.999999987               0.000317761              -0.000219499               0.999999987               0.000321888              -0.000219513               0.999999987               0.000326769              -0.000226918               0.999999987               0.000333234              -0.000238789               0.999999987               0.000341315              -0.000253357               0.999999987               0.000350655              -0.000269169               0.999999987               0.000361005              -0.000285209               0.999999987               0.000372047              -0.000301121               0.999999987               0.000383618              -0.000316699               0.999999987               0.000395524              -0.000331605               0.999999987               0.000407497              -0.000345196               0.999999987               0.000419259              -0.000357202               0.999999987               0.000430654              -0.000367173               0.999999987               0.000441539              -0.000374739               0.999999987               0.000451769              -0.000379386               0.999999987               0.000282049              -0.000361904               0.999999987               0.000286937              -0.000308264               0.999999987               0.000287152              -0.000292406               0.999999987               0.000288783              -0.000294319               0.999999987               0.000292971              -0.000305466               0.999999987               0.000299465              -0.000321931               0.999999987               0.000307667              -0.000341425               0.999999987               0.000317074              -0.000362247               0.999999987               0.000327210              -0.000383338               0.999999987               0.000337831              -0.000404358               0.999999987               0.000348573              -0.000424921               0.999999987               0.000359132              -0.000444499               0.999999987               0.000369294              -0.000462528               0.999999987               0.000378874              -0.000478746               0.999999987               0.000387777              -0.000493068               0.999999987               0.000395987              -0.000505144               0.999999987               0.000403533              -0.000514775               0.999999987               0.000267552              -0.000445478               0.999999987               0.000257632              -0.000381494               0.999999987               0.000252323              -0.000364994               0.999999987               0.000252443              -0.000369680               0.999999987               0.000256772              -0.000384930               0.999999987               0.000263922              -0.000406080               0.999999987               0.000272855              -0.000430237               0.999999987               0.000282695              -0.000455796               0.999999987               0.000292841              -0.000481631               0.999999987               0.000302942              -0.000507384               0.999999987               0.000312605              -0.000532451               0.999999987               0.000321592              -0.000556312               0.999999987               0.000329703              -0.000578576               0.999999987               0.000336903              -0.000599145               0.999999987               0.000343249              -0.000618045               0.999999987               0.000348919              -0.000635010               0.999999987               0.000354042              -0.000650415               0.999999987               0.000250320              -0.000524627               0.999999987               0.000225043              -0.000452850               0.999999987               0.000215657              -0.000436995               0.999999987               0.000215674              -0.000444849               0.999999987               0.000221211              -0.000464307               0.999999987               0.000229839              -0.000489816               0.999999987               0.000239783              -0.000518430               0.999999987               0.000250112              -0.000548316               0.999999987               0.000260185              -0.000578512               0.999999987               0.000269612              -0.000608449               0.999999987               0.000278103              -0.000637521               0.999999987               0.000285340              -0.000665285               0.999999987               0.000291380              -0.000691468               0.999999987               0.000296421              -0.000716068               0.999999987               0.000300581              -0.000739096               0.999999987               0.000303897              -0.000760558               0.999999987               0.000306571              -0.000780940               0.999999987               0.000230699              -0.000598488               0.999999987               0.000190959              -0.000522147               0.999999987               0.000179480              -0.000507757               0.999999987               0.000180996              -0.000518740               0.999999987               0.000188719              -0.000542093               0.999999987               0.000199004              -0.000571731               0.999999987               0.000209887              -0.000604487               0.999999987               0.000220451              -0.000638374               0.999999987               0.000230174              -0.000672513               0.999999987               0.000238648              -0.000706382               0.999999987               0.000245625              -0.000739107               0.999999987               0.000251057              -0.000770349               0.999999987               0.000255117              -0.000799925               0.999999987               0.000257921              -0.000828003               0.999999987               0.000259518              -0.000854679               0.999999987               0.000260081              -0.000880101               0.999999987               0.000259970              -0.000904730               0.999999987               0.000209585              -0.000665754               0.999999987               0.000156826              -0.000589198               0.999999987               0.000145979              -0.000576343               0.999999987               0.000150125              -0.000590136               0.999999987               0.000160282              -0.000617083               0.999999987               0.000172100              -0.000650553               0.999999987               0.000183661              -0.000687091               0.999999987               0.000194171              -0.000724752               0.999999987               0.000203157              -0.000762688               0.999999987               0.000210248              -0.000800042               0.999999987               0.000215379              -0.000836058               0.999999987               0.000218638              -0.000870388               0.999999987               0.000220194              -0.000903079               0.999999987               0.000220217              -0.000934381               0.999999987               0.000218842              -0.000964559               0.999999987               0.000216697              -0.000993817               0.999999987               0.000214241              -0.001022473               0.999999987               0.000188369              -0.000728806               0.999999987               0.000129511              -0.000661473               0.999999987               0.000115759              -0.000644008               0.999999987               0.000118296              -0.000651957               0.999999987               0.000127168              -0.000673499               0.999999987               0.000138126              -0.000702497               0.999999987               0.000149149              -0.000735360               0.999999987               0.000159122              -0.000770236               0.999999987               0.000167549              -0.000806099               0.999999987               0.000174384              -0.000842135               0.999999987               0.000179481              -0.000877637               0.999999987               0.000182620              -0.000912075               0.999999987               0.000183928              -0.000945310               0.999999987               0.000183436              -0.000977401               0.999999987               0.000181348              -0.001008580               0.999999987               0.000177910              -0.001038885               0.999999987               0.000173860              -0.001068657               0.999999987               0.000165044              -0.000785806               0.999999987               0.000104788              -0.000730790               0.999999987               0.000088267              -0.000712748               0.999999987               0.000088515              -0.000716518               0.999999987               0.000095629              -0.000733502               0.999999987               0.000105347              -0.000758391               0.999999987               0.000115434              -0.000787843               0.999999987               0.000124700              -0.000819977               0.999999987               0.000132535              -0.000853713               0.999999987               0.000138838              -0.000888085               0.999999987               0.000143595              -0.000922559               0.999999987               0.000146421              -0.000956611               0.999999987               0.000147325              -0.000989896               0.999999987               0.000146302              -0.001022362               0.999999987               0.000143324              -0.001054122               0.999999987               0.000138551              -0.001085318               0.999999987               0.000132528              -0.001116122               0.999999987               0.000140113              -0.000835587               0.999999987               0.000082564              -0.000795297               0.999999987               0.000064378              -0.000779688               0.999999987               0.000062190              -0.000781580               0.999999987               0.000067165              -0.000795308               0.999999987               0.000075185              -0.000816865               0.999999987               0.000083920              -0.000843447               0.999999987               0.000092150              -0.000873234               0.999999987               0.000099289              -0.000905063               0.999999987               0.000104833              -0.000937983               0.999999987               0.000108865              -0.000971387               0.999999987               0.000111285              -0.001004768               0.999999987               0.000111661              -0.001037810               0.999999987               0.000109780              -0.001070393               0.999999987               0.000105736              -0.001102559               0.999999987               0.000099414              -0.001134350               0.999999987               0.000090897              -0.001165954               0.999999987               0.000113759              -0.000877339               0.999999987               0.000062821              -0.000852462               0.999999987               0.000044552              -0.000841604               0.999999987               0.000040518              -0.000843719               0.999999987               0.000043265              -0.000855795               0.999999987               0.000049165              -0.000875183               0.999999987               0.000056276              -0.000899670               0.999999987               0.000063161              -0.000927646               0.999999987               0.000069215              -0.000958047               0.999999987               0.000074021              -0.000989951               0.999999987               0.000077385              -0.001022580               0.999999987               0.000079214              -0.001055514               0.999999987               0.000079033              -0.001088445               0.999999987               0.000076426              -0.001121189               0.999999987               0.000071177              -0.001153813               0.999999987               0.000063088              -0.001186322               0.999999987               0.000051711              -0.001218795               0.999999987               0.000086243              -0.000910406               0.999999987               0.000045238              -0.000899766               0.999999987               0.000028893              -0.000894830               0.999999987               0.000024099              -0.000898719               0.999999987               0.000024955              -0.000910614               0.999999987               0.000028839              -0.000928941               0.999999987               0.000034038              -0.000952241               0.999999987               0.000039349              -0.000979175               0.999999987               0.000044106              -0.001008682               0.999999987               0.000048033              -0.001040046               0.999999987               0.000050790              -0.001072509               0.999999987               0.000051971              -0.001105626               0.999999987               0.000051346              -0.001139041               0.999999987               0.000048410              -0.001172548               0.999999987               0.000042599              -0.001206028               0.999999987               0.000033259              -0.001239435               0.999999987               0.000019600              -0.001272894               0.999999987               0.000057907              -0.000934252               0.999999987               0.000029329              -0.000934999               0.999999987               0.000016989              -0.000935726               0.999999987               0.000012699              -0.000942076               0.999999987               0.000012522              -0.000954636               0.999999987               0.000014651              -0.000972787               0.999999987               0.000017946              -0.000995607               0.999999987               0.000021599              -0.001022139               0.999999987               0.000024901              -0.001051469               0.999999987               0.000027697              -0.001082864               0.999999987               0.000029600              -0.001115765               0.999999987               0.000030310              -0.001149688               0.999999987               0.000029543              -0.001184315               0.999999987               0.000026952              -0.001219350               0.999999987               0.000021787              -0.001254539               0.999999987               0.000013090              -0.001289638               0.999999987              -0.000000472              -0.001324530               0.999999987               0.000029076              -0.000948549               0.999999987               0.000014451              -0.000956660               0.999999987               0.000007795              -0.000961486               0.999999987               0.000005237              -0.000969847               0.999999987               0.000004890              -0.000983219               0.999999987               0.000005747              -0.001001519               0.999999987               0.000007334              -0.001024251               0.999999987               0.000009189              -0.001050689               0.999999987               0.000010951              -0.001080110               0.999999987               0.000012368              -0.001111900               0.999999987               0.000013343              -0.001145483               0.999999987               0.000013664              -0.001180442               0.999999987               0.000013190              -0.001216445               0.999999987               0.000011635              -0.001253187               0.999999987               0.000008520              -0.001290316               0.999999987               0.000003118              -0.001327382               0.999999987              -0.000005578              -0.001363965               0.999999987               0.000000000              -0.000953293               0.999999987              -0.000000000              -0.000963950               0.999999987               0.000000000              -0.000970253               0.999999987               0.000000000              -0.000979363               0.999999987              -0.000000000              -0.000993131               0.999999987               0.000000000              -0.001011539               0.999999987               0.000000000              -0.001034185               0.999999987               0.000000000              -0.001060606               0.999999987              -0.000000000              -0.001090130               0.999999987               0.000000000              -0.001122077               0.999999987              -0.000000000              -0.001155955               0.999999987               0.000000000              -0.001191371               0.999999987              -0.000000000              -0.001228062               0.999999987              -0.000000000              -0.001265605               0.999999987               0.000000000              -0.001303620               0.999999987              -0.000000000              -0.001341624               0.999999987              -0.000000000              -0.001378966               0.999999987               0.000308932              -0.000000000               0.999999987               0.000345609               0.000000000               0.999999987               0.000362429               0.000000000               0.999999987               0.000372100               0.000000000               0.999999987               0.000379646               0.000000000               0.999999987               0.000387237               0.000000000               0.999999987               0.000395948              -0.000000000               0.999999987               0.000406034              -0.000000000               0.999999987               0.000417404               0.000000000               0.999999987               0.000429896               0.000000000               0.999999987               0.000443295              -0.000000000               0.999999987               0.000457436              -0.000000000               0.999999987               0.000472297               0.000000000               0.999999987               0.000487764               0.000000000               0.999999987               0.000503524              -0.000000000               0.999999987               0.000519176               0.000000000               0.999999987               0.000534363               0.000000000               0.999999987               0.000307164               0.000092863               0.999999987               0.000341641               0.000078603               0.999999987               0.000357120               0.000073256               0.999999987               0.000366008               0.000072537               0.999999987               0.000373125               0.000074447               0.999999987               0.000380535               0.000078119               0.999999987               0.000389083               0.000082932               0.999999987               0.000398971               0.000088233               0.999999987               0.000410110               0.000093684               0.999999987               0.000422300               0.000099143               0.999999987               0.000435436               0.000104320               0.999999987               0.000449320               0.000109093               0.999999987               0.000463796               0.000113584               0.999999987               0.000478629               0.000117526               0.999999987               0.000493563               0.000120449               0.999999987               0.000508448               0.000121913               0.999999987               0.000522940               0.000121270               0.999999987               0.000301993               0.000184751               0.999999987               0.000330050               0.000156522               0.999999987               0.000341731               0.000146438               0.999999987               0.000348561               0.000145601               0.999999987               0.000354659               0.000149918               0.999999987               0.000361531               0.000157497               0.999999987               0.000369763               0.000167125               0.999999987               0.000379353               0.000177716               0.999999987               0.000390077               0.000188553               0.999999987               0.000401738               0.000199283               0.999999987               0.000414081               0.000209656               0.999999987               0.000426965               0.000219543               0.999999987               0.000440332               0.000228602               0.999999987               0.000453818               0.000236513               0.999999987               0.000467166               0.000242726               0.999999987               0.000480212               0.000246766               0.999999987               0.000492825               0.000247817               0.999999987               0.000293581               0.000274725               0.999999987               0.000311503               0.000233200               0.999999987               0.000317761               0.000219499               0.999999987               0.000321888               0.000219513               0.999999987               0.000326769               0.000226918               0.999999987               0.000333234               0.000238789               0.999999987               0.000341315               0.000253357               0.999999987               0.000350655               0.000269169               0.999999987               0.000361005               0.000285209               0.999999987               0.000372047               0.000301121               0.999999987               0.000383618               0.000316699               0.999999987               0.000395524               0.000331605               0.999999987               0.000407497               0.000345196               0.999999987               0.000419259               0.000357202               0.999999987               0.000430654               0.000367173               0.999999987               0.000441539               0.000374739               0.999999987               0.000451769               0.000379386               0.999999987               0.000282049               0.000361904               0.999999987               0.000286937               0.000308264               0.999999987               0.000287152               0.000292406               0.999999987               0.000288783               0.000294319               0.999999987               0.000292971               0.000305466               0.999999987               0.000299465               0.000321931               0.999999987               0.000307667               0.000341425               0.999999987               0.000317074               0.000362247               0.999999987               0.000327210               0.000383338               0.999999987               0.000337831               0.000404358               0.999999987               0.000348573               0.000424921               0.999999987               0.000359132               0.000444499               0.999999987               0.000369294               0.000462528               0.999999987               0.000378874               0.000478746               0.999999987               0.000387777               0.000493068               0.999999987               0.000395987               0.000505144               0.999999987               0.000403533               0.000514775               0.999999987               0.000267552               0.000445478               0.999999987               0.000257632               0.000381494               0.999999987               0.000252323               0.000364994               0.999999987               0.000252443               0.000369680               0.999999987               0.000256772               0.000384930               0.999999987               0.000263922               0.000406080               0.999999987               0.000272855               0.000430237               0.999999987               0.000282695               0.000455796               0.999999987               0.000292841               0.000481631               0.999999987               0.000302942               0.000507384               0.999999987               0.000312605               0.000532451               0.999999987               0.000321592               0.000556312               0.999999987               0.000329703               0.000578576               0.999999987               0.000336903               0.000599145               0.999999987               0.000343249               0.000618045               0.999999987               0.000348919               0.000635010               0.999999987               0.000354042               0.000650415               0.999999987               0.000250320               0.000524627               0.999999987               0.000225043               0.000452850               0.999999987               0.000215657               0.000436995               0.999999987               0.000215674               0.000444849               0.999999987               0.000221211               0.000464307               0.999999987               0.000229839               0.000489816               0.999999987               0.000239783               0.000518430               0.999999987               0.000250112               0.000548316               0.999999987               0.000260185               0.000578512               0.999999987               0.000269612               0.000608449               0.999999987               0.000278103               0.000637521               0.999999987               0.000285340               0.000665285               0.999999987               0.000291380               0.000691468               0.999999987               0.000296421               0.000716068               0.999999987               0.000300581               0.000739096               0.999999987               0.000303897               0.000760558               0.999999987               0.000306571               0.000780940               0.999999987               0.000230699               0.000598488               0.999999987               0.000190959               0.000522147               0.999999987               0.000179480               0.000507757               0.999999987               0.000180996               0.000518740               0.999999987               0.000188719               0.000542093               0.999999987               0.000199004               0.000571731               0.999999987               0.000209887               0.000604487               0.999999987               0.000220451               0.000638374               0.999999987               0.000230174               0.000672513               0.999999987               0.000238648               0.000706382               0.999999987               0.000245625               0.000739107               0.999999987               0.000251057               0.000770349               0.999999987               0.000255117               0.000799925               0.999999987               0.000257921               0.000828003               0.999999987               0.000259518               0.000854679               0.999999987               0.000260081               0.000880101               0.999999987               0.000259970               0.000904730               0.999999987               0.000209585               0.000665754               0.999999987               0.000156826               0.000589198               0.999999987               0.000145979               0.000576343               0.999999987               0.000150125               0.000590136               0.999999987               0.000160282               0.000617083               0.999999987               0.000172100               0.000650553               0.999999987               0.000183661               0.000687091               0.999999987               0.000194171               0.000724752               0.999999987               0.000203157               0.000762688               0.999999987               0.000210248               0.000800042               0.999999987               0.000215379               0.000836058               0.999999987               0.000218638               0.000870388               0.999999987               0.000220194               0.000903079               0.999999987               0.000220217               0.000934381               0.999999987               0.000218842               0.000964559               0.999999987               0.000216697               0.000993817               0.999999987               0.000214241               0.001022473               0.999999987               0.000188369               0.000728806               0.999999987               0.000129511               0.000661473               0.999999987               0.000115759               0.000644008               0.999999987               0.000118296               0.000651957               0.999999987               0.000127168               0.000673499               0.999999987               0.000138126               0.000702497               0.999999987               0.000149149               0.000735360               0.999999987               0.000159122               0.000770236               0.999999987               0.000167549               0.000806099               0.999999987               0.000174384               0.000842135               0.999999987               0.000179481               0.000877637               0.999999987               0.000182620               0.000912075               0.999999987               0.000183928               0.000945310               0.999999987               0.000183436               0.000977401               0.999999987               0.000181348               0.001008580               0.999999987               0.000177910               0.001038885               0.999999987               0.000173860               0.001068657               0.999999987               0.000165044               0.000785806               0.999999987               0.000104788               0.000730790               0.999999987               0.000088267               0.000712748               0.999999987               0.000088515               0.000716518               0.999999987               0.000095629               0.000733502               0.999999987               0.000105347               0.000758391               0.999999987               0.000115434               0.000787843               0.999999987               0.000124700               0.000819977               0.999999987               0.000132535               0.000853713               0.999999987               0.000138838               0.000888085               0.999999987               0.000143595               0.000922559               0.999999987               0.000146421               0.000956611               0.999999987               0.000147325               0.000989896               0.999999987               0.000146302               0.001022362               0.999999987               0.000143324               0.001054122               0.999999987               0.000138551               0.001085318               0.999999987               0.000132528               0.001116122               0.999999987               0.000140113               0.000835587               0.999999987               0.000082564               0.000795297               0.999999987               0.000064378               0.000779688               0.999999987               0.000062190               0.000781580               0.999999987               0.000067165               0.000795308               0.999999987               0.000075185               0.000816865               0.999999987               0.000083920               0.000843447               0.999999987               0.000092150               0.000873234               0.999999987               0.000099289               0.000905063               0.999999987               0.000104833               0.000937983               0.999999987               0.000108865               0.000971387               0.999999987               0.000111285               0.001004768               0.999999987               0.000111661               0.001037810               0.999999987               0.000109780               0.001070393               0.999999987               0.000105736               0.001102559               0.999999987               0.000099414               0.001134350               0.999999987               0.000090897               0.001165954               0.999999987               0.000113759               0.000877339               0.999999987               0.000062821               0.000852462               0.999999987               0.000044552               0.000841604               0.999999987               0.000040518               0.000843719               0.999999987               0.000043265               0.000855795               0.999999987               0.000049165               0.000875183               0.999999987               0.000056276               0.000899670               0.999999987               0.000063161               0.000927646               0.999999987               0.000069215               0.000958047               0.999999987               0.000074021               0.000989951               0.999999987               0.000077385               0.001022580               0.999999987               0.000079214               0.001055514               0.999999987               0.000079033               0.001088445               0.999999987               0.000076426               0.001121189               0.999999987               0.000071177               0.001153813               0.999999987               0.000063088               0.001186322               0.999999987               0.000051711               0.001218795               0.999999987               0.000086243               0.000910406               0.999999987               0.000045238               0.000899766               0.999999987               0.000028893               0.000894830               0.999999987               0.000024099               0.000898719               0.999999987               0.000024955               0.000910614               0.999999987               0.000028839               0.000928941               0.999999987               0.000034038               0.000952241               0.999999987               0.000039349               0.000979175               0.999999987               0.000044106               0.001008682               0.999999987               0.000048033               0.001040046               0.999999987               0.000050790               0.001072509               0.999999987               0.000051971               0.001105626               0.999999987               0.000051346               0.001139041               0.999999987               0.000048410               0.001172548               0.999999987               0.000042599               0.001206028               0.999999987               0.000033259               0.001239435               0.999999987               0.000019600               0.001272894               0.999999987               0.000057907               0.000934252               0.999999987               0.000029329               0.000934999               0.999999987               0.000016989               0.000935726               0.999999987               0.000012699               0.000942076               0.999999987               0.000012522               0.000954636               0.999999987               0.000014651               0.000972787               0.999999987               0.000017946               0.000995607               0.999999987               0.000021599               0.001022139               0.999999987               0.000024901               0.001051469               0.999999987               0.000027697               0.001082864               0.999999987               0.000029600               0.001115765               0.999999987               0.000030310               0.001149688               0.999999987               0.000029543               0.001184315               0.999999987               0.000026952               0.001219350               0.999999987               0.000021787               0.001254539               0.999999987               0.000013090               0.001289638               0.999999987              -0.000000472               0.001324530               0.999999987               0.000029076               0.000948549               0.999999987               0.000014451               0.000956660               0.999999987               0.000007795               0.000961486               0.999999987               0.000005237               0.000969847               0.999999987               0.000004890               0.000983219               0.999999987               0.000005747               0.001001519               0.999999987               0.000007334               0.001024251               0.999999987               0.000009189               0.001050689               0.999999987               0.000010951               0.001080110               0.999999987               0.000012368               0.001111900               0.999999987               0.000013343               0.001145483               0.999999987               0.000013664               0.001180442               0.999999987               0.000013190               0.001216445               0.999999987               0.000011635               0.001253187               0.999999987               0.000008520               0.001290316               0.999999987               0.000003118               0.001327382               0.999999987              -0.000005578               0.001363965               0.999999987              -0.000000000               0.000953293               0.999999987               0.000000000               0.000963950               0.999999987              -0.000000000               0.000970253               0.999999987               0.000000000               0.000979363               0.999999987               0.000000000               0.000993131               0.999999987              -0.000000000               0.001011539               0.999999987              -0.000000000               0.001034185               0.999999987              -0.000000000               0.001060606               0.999999987               0.000000000               0.001090130               0.999999987              -0.000000000               0.001122077               0.999999987              -0.000000000               0.001155955               0.999999987               0.000000000               0.001191371               0.999999987              -0.000000000               0.001228062               0.999999987              -0.000000000               0.001265605               0.999999987              -0.000000000               0.001303620               0.999999987              -0.000000000               0.001341624               0.999999987               0.000000000               0.001378966               0.999999987 </DataArray>
<DataArray type="Float64"                                    Name="defo"                                                      NumberOfComponents=" 3" format="ascii">
             -0.000308932               0.000000000               0.999999987              -0.000345609              -0.000000000               0.999999987              -0.000362429              -0.000000000               0.999999987              -0.000372100               0.000000000               0.999999987              -0.000379646               0.000000000               0.999999987              -0.000387237               0.000000000               0.999999987              -0.000395948               0.000000000               0.999999987              -0.000406034               0.000000000               0.999999987              -0.000417404               0.000000000               0.999999987              -0.000429896               0.000000000               0.999999987              -0.000443295              -0.000000000               0.999999987              -0.000457436               0.000000000               0.999999987              -0.000472297              -0.000000000               0.999999987              -0.000487764               0.000000000               0.999999987              -0.000503524               0.000000000               0.999999987              -0.000519176               0.000000000               0.999999987              -0.000534363               0.000000000               0.999999987              -0.000307164               0.000092863               0.999999987              -0.000341641               0.000078603               0.999999987              -0.000357120               0.000073256               0.999999987              -0.000366008               0.000072537               0.999999987              -0.000373125               0.000074447               0.999999987              -0.000380535               0.000078119               0.999999987              -0.000389083               0.000082932               0.999999987              -0.000398971               0.000088233               0.999999987              -0.000410110               0.000093684               0.999999987              -0.000422300               0.000099143               0.999999987              -0.000435436               0.000104320               0.999999987              -0.000449320               0.000109093               0.999999987              -0.000463796               0.000113584               0.999999987              -0.000478629               0.000117526               0.999999987              -0.000493563               0.000120449               0.999999987              -0.000508448               0.000121913               0.999999987              -0.000522940               0.000121270               0.999999987              -0.000301993               0.000184751               0.999999987              -0.000330050               0.000156522               0.999999987              -0.000341731               0.000146438               0.999999987              -0.000348561               0.000145601               0.999999987              -0.000354659               0.000149918               0.999999987              -0.000361531               0.000157497               0.999999987              -0.000369763               0.000167125               0.999999987              -0.000379353               0.000177716               0.999999987              -0.000390077               0.000188553               0.999999987              -0.000401738               0.000199283               0.999999987              -0.000414081               0.000209656               0.999999987              -0.000426965               0.000219543               0.999999987              -0.000440332               0.000228602               0.999999987              -0.000453818               0.000236513               0.999999987              -0.000467166               0.000242726               0.999999987              -0.000480212               0.000246766               0.999999987              -0.000492825               0.000247817               0.999999987              -0.000293581               0.000274725               0.999999987              -0.000311503               0.000233200               0.999999987              -0.000317761               0.000219499               0.999999987              -0.000321888               0.000219513               0.999999987              -0.000326769               0.000226918               0.999999987              -0.000333234               0.000238789               0.999999987              -0.000341315               0.000253357               0.999999987              -0.000350655               0.000269169               0.999999987              -0.000361005               0.000285209               0.999999987              -0.000372047               0.000301121               0.999999987              -0.000383618               0.000316699               0.999999987              -0.000395524               0.000331605               0.999999987              -0.000407497               0.000345196               0.999999987              -0.000419259               0.000357202               0.999999987              -0.000430654               0.000367173               0.999999987              -0.000441539               0.000374739               0.999999987              -0.000451769               0.000379386               0.999999987              -0.000282049               0.000361904               0.999999987              -0.000286937               0.000308264               0.999999987              -0.000287152               0.000292406               0.999999987              -0.000288783               0.000294319               0.999999987              -0.000292971               0.000305466               0.999999987              -0.000299465               0.000321931               0.999999987              -0.000307667               0.000341425               0.999999987              -0.000317074               0.000362247               0.999999987              -0.000327210               0.000383338               0.999999987              -0.000337831               0.000404358               0.999999987              -0.000348573               0.000424921               0.999999987              -0.000359132               0.000444499               0.999999987              -0.000369294               0.000462528               0.999999987              -0.000378874               0.000478746               0.999999987              -0.000387777               0.000493068               0.999999987              -0.000395987               0.000505144               0.999999987              -0.000403533               0.000514775               0.999999987              -0.000267552               0.000445478               0.999999987              -0.000257632               0.000381494               0.999999987              -0.000252323               0.000364994               0.999999987              -0.000252443               0.000369680               0.999999987              -0.000256772               0.000384930               0.999999987              -0.000263922               0.000406080               0.999999987              -0.000272855               0.000430237               0.999999987              -0.000282695               0.000455796               0.999999987              -0.000292841               0.000481631               0.999999987              -0.000302942               0.000507384               0.999999987              -0.000312605               0.000532451               0.999999987              -0.000321592               0.000556312               0.999999987              -0.000329703               0.000578576               0.999999987              -0.000336903               0.000599145               0.999999987              -0.000343249               0.000618045               0.999999987              -0.000348919               0.000635010               0.999999987              -0.000354042               0.000650415               0.999999987              -0.000250320               0.000524627               0.999999987              -0.000225043               0.000452850               0.999999987              -0.000215657               0.000436995               0.999999987              -0.000215674               0.000444849               0.999999987              -0.000221211               0.000464307               0.999999987              -0.000229839               0.000489816               0.999999987              -0.000239783               0.000518430               0.999999987              -0.000250112               0.000548316               0.999999987              -0.000260185               0.000578512               0.999999987              -0.000269612               0.000608449               0.999999987              -0.000278103               0.000637521               0.999999987              -0.000285340               0.000665285               0.999999987              -0.000291380               0.000691468               0.999999987              -0.000296421               0.000716068               0.999999987              -0.000300581               0.000739096               0.999999987              -0.000303897               0.000760558               0.999999987              -0.000306571               0.000780940               0.999999987              -0.000230699               0.000598488               0.999999987              -0.000190959               0.000522147               0.999999987              -0.000179480               0.000507757               0.999999987              -0.000180996               0.000518740               0.999999987              -0.000188719               0.000542093               0.999999987              -0.000199004               0.000571731               0.999999987              -0.000209887               0.000604487               0.999999987              -0.000220451               0.000638374               0.999999987              -0.000230174               0.000672513               0.999999987              -0.000238648               0.000706382               0.999999987              -0.000245625               0.000739107               0.999999987              -0.000251057               0.000770349               0.999999987              -0.000255117               0.000799925               0.999999987              -0.000257921               0.000828003               0.999999987              -0.000259518               0.000854679               0.999999987              -0.000260081               0.000880101               0.999999987              -0.000259970               0.000904730               0.999999987              -0.000209585               0.000665754               0.999999987              -0.000156826               0.000589198               0.999999987              -0.000145979               0.000576343               0.999999987              -0.000150125               0.000590136               0.999999987              -0.000160282               0.000617083               0.999999987              -0.000172100               0.000650553               0.999999987              -0.000183661               0.000687091               0.999999987              -0.000194171               0.000724752               0.999999987              -0.000203157               0.000762688               0.999999987              -0.000210248               0.000800042               0.999999987              -0.000215379               0.000836058               0.999999987              -0.000218638               0.000870388               0.999999987              -0.000220194               0.000903079               0.999999987              -0.000220217               0.000934381               0.999999987              -0.000218842               0.000964559               0.999999987              -0.000216697               0.000993817               0.999999987              -0.000214241               0.001022473               0.999999987              -0.000188369               0.000728806               0.999999987              -0.000129511               0.000661473               0.999999987              -0.000115759               0.000644008               0.999999987              -0.000118296               0.000651957               0.999999987              -0.000127168               0.000673499               0.999999987              -0.000138126               0.000702497               0.999999987              -0.000149149               0.000735360               0.999999987              -0.000159122               0.000770236               0.999999987              -0.000167549               0.000806099               0.999999987              -0.000174384               0.000842135               0.999999987              -0.000179481               0.000877637               0.999999987              -0.000182620               0.000912075               0.999999987              -0.000183928               0.000945310               0.999999987              -0.000183436               0.000977401               0.999999987              -0.000181348               0.001008580               0.999999987              -0.000177910               0.001038885               0.999999987              -0.000173860               0.001068657               0.999999987              -0.000165044               0.000785806               0.999999987              -0.000104788               0.000730790               0.999999987              -0.000088267               0.000712748               0.999999987              -0.000088515               0.000716518               0.999999987              -0.000095629               0.000733502               0.999999987              -0.000105347               0.000758391               0.999999987              -0.000115434               0.000787843               0.999999987              -0.000124700               0.000819977               0.999999987              -0.000132535               0.000853713               0.999999987              -0.000138838               0.000888085               0.999999987              -0.000143595               0.000922559               0.999999987              -0.000146421               0.000956611               0.999999987              -0.000147325               0.000989896               0.999999987              -0.000146302               0.001022362               0.999999987              -0.000143324               0.001054122               0.999999987              -0.000138551               0.001085318               0.999999987              -0.000132528               0.001116122               0.999999987              -0.000140113               0.000835587               0.999999987              -0.000082564               0.000795297               0.999999987              -0.000064378               0.000779688               0.999999987              -0.000062190               0.000781580               0.999999987              -0.000067165               0.000795308               0.999999987              -0.000075185               0.000816865               0.999999987              -0.000083920               0.000843447               0.999999987              -0.000092150               0.000873234               0.999999987              -0.000099289               0.000905063               0.999999987              -0.000104833               0.000937983               0.999999987              -0.000108865               0.000971387               0.999999987              -0.000111285               0.001004768               0.999999987              -0.000111661               0.001037810               0.999999987              -0.000109780               0.001070393               0.999999987              -0.000105736               0.001102559               0.999999987              -0.000099414               0.001134350               0.999999987              -0.000090897               0.001165954               0.999999987              -0.000113759               0.000877339               0.999999987              -0.000062821               0.000852462               0.999999987              -0.000044552               0.000841604               0.999999987              -0.000040518               0.000843719               0.999999987              -0.000043265               0.000855795               0.999999987              -0.000049165               0.000875183               0.999999987              -0.000056276               0.000899670               0.999999987              -0.000063161               0.000927646               0.999999987              -0.000069215               0.000958047               0.999999987              -0.000074021               0.000989951               0.999999987              -0.000077385               0.001022580               0.999999987              -0.000079214               0.001055514               0.999999987              -0.000079033               0.001088445               0.999999987              -0.000076426               0.001121189               0.999999987              -0.000071177               0.001153813               0.999999987              -0.000063088               0.001186322               0.999999987              -0.000051711               0.001218795               0.999999987              -0.000086243               0.000910406               0.999999987              -0.000045238               0.000899766               0.999999987              -0.000028893               0.000894830               0.999999987              -0.000024099               0.000898719               0.999999987              -0.000024955               0.000910614               0.999999987              -0.000028839               0.000928941               0.999999987              -0.000034038               0.000952241               0.999999987              -0.000039349               0.000979175               0.999999987              -0.000044106               0.001008682               0.999999987              -0.000048033               0.001040046               0.999999987              -0.000050790               0.001072509               0.999999987              -0.000051971               0.001105626               0.999999987              -0.000051346               0.001139041               0.999999987              -0.000048410               0.001172548               0.999999987              -0.000042599               0.001206028               0.999999987              -0.000033259               0.001239435               0.999999987              -0.000019600               0.001272894               0.999999987              -0.000057907               0.000934252               0.999999987              -0.000029329               0.000934999               0.999999987              -0.000016989               0.000935726               0.999999987              -0.000012699               0.000942076               0.999999987              -0.000012522               0.000954636               0.999999987              -0.000014651               0.000972787               0.999999987              -0.000017946               0.000995607               0.999999987              -0.000021599               0.001022139               0.999999987              -0.000024901               0.001051469               0.999999987              -0.000027697               0.001082864               0.999999987              -0.000029600               0.001115765               0.999999987              -0.000030310               0.001149688               0.999999987              -0.000029543               0.001184315               0.999999987              -0.000026952               0.001219350               0.999999987              -0.000021787               0.001254539               0.999999987              -0.000013090               0.001289638               0.999999987               0.000000472               0.001324530               0.999999987              -0.000029076               0.000948549               0.999999987              -0.000014451               0.000956660               0.999999987              -0.000007795               0.000961486               0.999999987              -0.000005237               0.000969847               0.999999987              -0.000004890               0.000983219               0.999999987              -0.000005747               0.001001519               0.999999987              -0.000007334               0.001024251               0.999999987              -0.000009189               0.001050689               0.999999987              -0.000010951               0.001080110               0.999999987              -0.000012368               0.001111900               0.999999987              -0.000013343               0.001145483               0.999999987              -0.000013664               0.001180442               0.999999987              -0.000013190               0.001216445               0.999999987              -0.000011635               0.001253187               0.999999987              -0.000008520               0.001290316               0.999999987              -0.000003118               0.001327382               0.999999987               0.000005578               0.001363965               0.999999987              -0.000000000               0.000953293               0.999999987               0.000000000               0.000963950               0.999999987              -0.000000000               0.000970253               0.999999987               0.000000000               0.000979363               0.999999987               0.000000000               0.000993131               0.999999987              -0.000000000               0.001011539               0.999999987              -0.000000000               0.001034185               0.999999987              -0.000000000               0.001060606               0.999999987               0.000000000               0.001090130               0.999999987              -0.000000000               0.001122077               0.999999987              -0.000000000               0.001155955               0.999999987               0.000000000               0.001191371               0.999999987              -0.000000000               0.001228062               0.999999987              -0.000000000               0.001265605               0.999999987              -0.000000000               0.001303620               0.999999987              -0.000000000               0.001341624               0.999999987               0.000000000               0.001378966               0.999999987              -0.000308932               0.000000000               0.999999987              -0.000345609              -0.000000000               0.999999987              -0.000362429              -0.000000000               0.999999987              -0.000372100               0.000000000               0.999999987              -0.000379646               0.000000000               0.999999987              -0.000387237               0.000000000               0.999999987              -0.000395948               0.000000000               0.999999987              -0.000406034               0.000000000               0.999999987              -0.000417404               0.000000000               0.999999987              -0.000429896               0.000000000               0.999999987              -0.000443295              -0.000000000               0.999999987              -0.000457436               0.000000000               0.999999987              -0.000472297              -0.000000000               0.999999987              -0.000487764               0.000000000               0.999999987              -0.000503524               0.000000000               0.999999987              -0.000519176               0.000000000               0.999999987              -0.000534363               0.000000000               0.999999987              -0.000307164              -0.000092863               0.999999987              -0.000341641              -0.000078603               0.999999987              -0.000357120              -0.000073256               0.999999987              -0.000366008              -0.000072537               0.999999987              -0.000373125              -0.000074447               0.999999987              -0.000380535              -0.000078119               0.999999987              -0.000389083              -0.000082932               0.999999987              -0.000398971              -0.000088233               0.999999987              -0.000410110              -0.000093684               0.999999987              -0.000422300              -0.000099143               0.999999987              -0.000435436              -0.000104320               0.999999987              -0.000449320              -0.000109093               0.999999987              -0.000463796              -0.000113584               0.999999987              -0.000478629              -0.000117526               0.999999987              -0.000493563              -0.000120449               0.999999987              -0.000508448              -0.000121913               0.999999987              -0.000522940              -0.000121270               0.999999987              -0.000301993              -0.000184751               0.999999987              -0.000330050              -0.000156522               0.999999987              -0.000341731              -0.000146438               0.999999987              -0.000348561              -0.000145601               0.999999987              -0.000354659              -0.000149918               0.999999987              -0.000361531              -0.000157497               0.999999987              -0.000369763              -0.000167125               0.999999987              -0.000379353              -0.000177716               0.999999987              -0.000390077              -0.000188553               0.999999987              -0.000401738              -0.000199283               0.999999987              -0.000414081              -0.000209656               0.999999987              -0.000426965              -0.000219543               0.999999987              -0.000440332              -0.000228602               0.999999987              -0.000453818              -0.000236513               0.999999987              -0.000467166              -0.000242726               0.999999987              -0.000480212              -0.000246766               0.999999987              -0.000492825              -0.000247817               0.999999987              -0.000293581              -0.000274725               0.999999987              -0.000311503              -0.000233200               0.999999987              -0.000317761              -0.000219499               0.999999987              -0.000321888              -0.000219513               0.999999987              -0.000326769              -0.000226918               0.999999987              -0.000333234              -0.000238789               0.999999987              -0.000341315              -0.000253357               0.999999987              -0.000350655              -0.000269169               0.999999987              -0.000361005              -0.000285209               0.999999987              -0.000372047              -0.000301121               0.999999987              -0.000383618              -0.000316699               0.999999987              -0.000395524              -0.000331605               0.999999987              -0.000407497              -0.000345196               0.999999987              -0.000419259              -0.000357202               0.999999987              -0.000430654              -0.000367173               0.999999987              -0.000441539              -0.000374739               0.999999987              -0.000451769              -0.000379386               0.999999987              -0.000282049              -0.000361904               0.999999987              -0.000286937              -0.000308264               0.999999987              -0.000287152              -0.000292406               0.999999987              -0.000288783              -0.000294319               0.999999987              -0.000292971              -0.000305466               0.999999987              -0.000299465              -0.000321931               0.999999987              -0.000307667              -0.000341425               0.999999987              -0.000317074              -0.000362247               0.999999987              -0.000327210              -0.000383338               0.999999987              -0.000337831              -0.000404358               0.999999987              -0.000348573              -0.000424921               0.999999987              -0.000359132              -0.000444499               0.999999987              -0.000369294              -0.000462528               0.999999987              -0.000378874              -0.000478746               0.999999987              -0.000387777              -0.000493068               0.999999987              -0.000395987              -0.000505144               0.999999987              -0.000403533              -0.000514775               0.999999987              -0.000267552              -0.000445478               0.999999987              -0.000257632              -0.000381494               0.999999987              -0.000252323              -0.000364994               0.999999987              -0.000252443              -0.000369680               0.999999987              -0.000256772              -0.000384930               0.999999987              -0.000263922              -0.000406080               0.999999987              -0.000272855              -0.000430237               0.999999987              -0.000282695              -0.000455796               0.999999987              -0.000292841              -0.000481631               0.999999987              -0.000302942              -0.000507384               0.999999987              -0.000312605              -0.000532451               0.999999987              -0.000321592              -0.000556312               0.999999987              -0.000329703              -0.000578576               0.999999987              -0.000336903              -0.000599145               0.999999987              -0.000343249              -0.000618045               0.999999987              -0.000348919              -0.000635010               0.999999987              -0.000354042              -0.000650415               0.999999987              -0.000250320              -0.000524627               0.999999987              -0.000225043              -0.000452850               0.999999987              -0.000215657              -0.000436995               0.999999987              -0.000215674              -0.000444849               0.999999987              -0.000221211              -0.000464307               0.999999987              -0.000229839              -0.000489816               0.999999987              -0.000239783              -0.000518430               0.999999987              -0.000250112              -0.000548316               0.999999987              -0.000260185              -0.000578512               0.999999987              -0.000269612              -0.000608449               0.999999987              -0.000278103              -0.000637521               0.999999987              -0.000285340              -0.000665285               0.999999987              -0.000291380              -0.000691468               0.999999987              -0.000296421              -0.000716068               0.999999987              -0.000300581              -0.000739096               0.999999987              -0.000303897              -0.000760558               0.999999987              -0.000306571              -0.000780940               0.999999987              -0.000230699              -0.000598488               0.999999987              -0.000190959              -0.000522147               0.999999987              -0.000179480              -0.000507757               0.999999987              -0.000180996              -0.000518740               0.999999987              -0.000188719              -0.000542093               0.999999987              -0.000199004              -0.000571731               0.999999987              -0.000209887              -0.000604487               0.999999987              -0.000220451              -0.000638374               0.999999987              -0.000230174              -0.000672513               0.999999987              -0.000238648              -0.000706382               0.999999987              -0.000245625              -0.000739107               0.999999987              -0.000251057              -0.000770349               0.999999987              -0.000255117              -0.000799925               0.999999987              -0.000257921              -0.000828003               0.999999987              -0.000259518              -0.000854679               0.999999987              -0.000260081              -0.000880101               0.999999987              -0.000259970              -0.000904730               0.999999987              -0.000209585              -0.000665754               0.999999987              -0.000156826              -0.000589198               0.999999987              -0.000145979              -0.000576343               0.999999987              -0.000150125              -0.000590136               0.999999987              -0.000160282              -0.000617083               0.999999987              -0.000172100              -0.000650553               0.999999987              -0.000183661              -0.000687091               0.999999987              -0.000194171              -0.000724752               0.999999987              -0.000203157              -0.000762688               0.999999987              -0.000210248              -0.000800042               0.999999987              -0.000215379              -0.000836058               0.999999987              -0.000218638              -0.000870388               0.999999987              -0.000220194              -0.000903079               0.999999987              -0.000220217              -0.000934381               0.999999987              -0.000218842              -0.000964559               0.999999987              -0.000216697              -0.000993817               0.999999987              -0.000214241              -0.001022473               0.999999987              -0.000188369              -0.000728806               0.999999987              -0.000129511              -0.000661473               0.999999987              -0.000115759              -0.000644008               0.999999987              -0.000118296              -0.000651957               0.999999987              -0.000127168              -0.000673499               0.999999987              -0.000138126              -0.000702497               0.999999987              -0.000149149              -0.000735360               0.999999987              -0.000159122              -0.000770236               0.999999987              -0.000167549              -0.000806099               0.999999987              -0.000174384              -0.000842135               0.999999987              -0.000179481              -0.000877637               0.999999987              -0.000182620              -0.000912075               0.999999987              -0.000183928              -0.000945310               0.999999987              -0.000183436              -0.000977401               0.999999987              -0.000181348              -0.001008580               0.999999987              -0.000177910              -0.001038885               0.999999987              -0.000173860              -0.001068657               0.999999987              -0.000165044              -0.000785806               0.999999987              -0.000104788              -0.000730790               0.999999987              -0.000088267              -0.000712748               0.999999987              -0.000088515              -0.000716518               0.999999987              -0.000095629              -0.000733502               0.999999987              -0.000105347              -0.000758391               0.999999987              -0.000115434              -0.000787843               0.999999987              -0.000124700              -0.000819977               0.999999987              -0.000132535              -0.000853713               0.999999987              -0.000138838              -0.000888085               0.999999987              -0.000143595              -0.000922559               0.999999987              -0.000146421              -0.000956611               0.999999987              -0.000147325              -0.000989896               0.999999987              -0.000146302              -0.001022362               0.999999987              -0.000143324              -0.001054122               0.999999987              -0.000138551              -0.001085318               0.999999987              -0.000132528              -0.001116122               0.999999987              -0.000140113              -0.000835587               0.999999987              -0.000082564              -0.000795297               0.999999987              -0.000064378              -0.000779688               0.999999987              -0.000062190              -0.000781580               0.999999987              -0.000067165              -0.000795308               0.999999987              -0.000075185              -0.000816865               0.999999987              -0.000083920              -0.000843447               0.999999987              -0.000092150              -0.000873234               0.999999987              -0.000099289              -0.000905063               0.999999987              -0.000104833              -0.000937983               0.999999987              -0.000108865              -0.000971387               0.999999987              -0.000111285              -0.001004768               0.999999987              -0.000111661              -0.001037810               0.999999987              -0.000109780              -0.001070393               0.999999987              -0.000105736              -0.001102559               0.999999987              -0.000099414              -0.001134350               0.999999987              -0.000090897              -0.001165954               0.999999987              -0.000113759              -0.000877339               0.999999987              -0.000062821              -0.000852462               0.999999987              -0.000044552              -0.000841604               0.999999987              -0.000040518              -0.000843719               0.999999987              -0.000043265              -0.000855795               0.999999987              -0.000049165              -0.000875183               0.999999987              -0.000056276              -0.000899670               0.999999987              -0.000063161              -0.000927646               0.999999987              -0.000069215              -0.000958047               0.999999987              -0.000074021              -0.000989951               0.999999987              -0.000077385              -0.001022580               0.999999987              -0.000079214              -0.001055514               0.999999987              -0.000079033              -0.001088445               0.999999987              -0.000076426              -0.001121189               0.999999987              -0.000071177              -0.001153813               0.999999987              -0.000063088              -0.001186322               0.999999987              -0.000051711              -0.001218795               0.999999987              -0.000086243              -0.000910406               0.999999987              -0.000045238              -0.000899766               0.999999987              -0.000028893              -0.000894830               0.999999987              -0.000024099              -0.000898719               0.999999987              -0.000024955              -0.000910614               0.999999987              -0.000028839              -0.000928941               0.999999987              -0.000034038              -0.000952241               0.999999987              -0.000039349              -0.000979175               0.999999987              -0.000044106              -0.001008682               0.999999987              -0.000048033              -0.001040046               0.999999987              -0.000050790              -0.001072509               0.999999987              -0.000051971              -0.001105626               0.999999987              -0.000051346              -0.001139041               0.999999987              -0.000048410              -0.001172548               0.999999987              -0.000042599              -0.001206028               0.999999987              -0.000033259              -0.001239435               0.999999987              -0.000019600              -0.001272894               0.999999987              -0.000057907              -0.000934252               0.999999987              -0.000029329              -0.000934999               0.999999987              -0.000016989              -0.000935726               0.999999987              -0.000012699              -0.000942076               0.999999987              -0.000012522              -0.000954636               0.999999987              -0.000014651              -0.000972787               0.999999987              -0.000017946              -0.000995607               0.999999987              -0.000021599              -0.001022139               0.999999987              -0.000024901              -0.001051469               0.999999987              -0.000027697              -0.001082864               0.999999987              -0.000029600              -0.001115765               0.999999987              -0.000030310              -0.001149688               0.999999987              -0.000029543              -0.001184315               0.999999987              -0.000026952              -0.001219350               0.999999987              -0.000021787              -0.001254539               0.999999987              -0.000013090              -0.001289638               0.999999987               0.000000472              -0.001324530               0.999999987              -0.000029076              -0.000948549               0.999999987              -0.000014451              -0.000956660               0.999999987              -0.000007795              -0.000961486               0.999999987              -0.000005237              -0.000969847               0.999999987              -0.000004890              -0.000983219               0.999999987              -0.000005747              -0.001001519               0.999999987              -0.000007334              -0.001024251               0.999999987              -0.000009189              -0.001050689               0.999999987              -0.000010951              -0.001080110               0.999999987              -0.000012368              -0.001111900               0.999999987              -0.000013343              -0.001145483               0.999999987              -0.000013664              -0.001180442               0.999999987              -0.000013190              -0.001216445               0.999999987              -0.000011635              -0.001253187               0.999999987              -0.000008520              -0.001290316               0.999999987              -0.000003118              -0.001327382               0.999999987               0.000005578              -0.001363965               0.999999987               0.000000000              -0.000953293               0.999999987              -0.000000000              -0.000963950               0.999999987               0.000000000              -0.000970253               0.999999987               0.000000000              -0.000979363               0.999999987              -0.000000000              -0.000993131               0.999999987               0.000000000              -0.001011539               0.999999987               0.000000000              -0.001034185               0.999999987               0.000000000              -0.001060606               0.999999987              -0.000000000              -0.001090130               0.999999987               0.000000000              -0.001122077               0.999999987              -0.000000000              -0.001155955               0.999999987               0.000000000              -0.001191371               0.999999987              -0.000000000              -0.001228062               0.999999987              -0.000000000              -0.001265605               0.999999987               0.000000000              -0.001303620               0.999999987              -0.000000000              -0.001341624               0.999999987              -0.000000000              -0.001378966               0.999999987               0.000308932              -0.000000000               0.999999987               0.000345609               0.000000000               0.999999987               0.000362429               0.000000000               0.999999987               0.000372100               0.000000000               0.999999987               0.000379646               0.000000000               0.999999987               0.000387237               0.000000000               0.999999987               0.000395948              -0.000000000               0.999999987               0.000406034              -0.000000000               0.999999987               0.000417404               0.000000000               0.999999987               0.000429896               0.000000000               0.999999987               0.000443295              -0.000000000               0.999999987               0.000457436              -0.000000000               0.999999987               0.000472297               0.000000000               0.999999987               0.000487764               0.000000000               0.999999987               0.000503524              -0.000000000               0.999999987               0.000519176               0.000000000               0.999999987               0.000534363               0.000000000               0.999999987               0.000307164              -0.000092863               0.999999987               0.000341641              -0.000078603               0.999999987               0.000357120              -0.000073256               0.999999987               0.000366008              -0.000072537               0.999999987               0.000373125              -0.000074447               0.999999987               0.000380535              -0.000078119               0.999999987               0.000389083              -0.000082932               0.999999987               0.000398971              -0.000088233               0.999999987               0.000410110              -0.000093684               0.999999987               0.000422300              -0.000099143               0.999999987               0.000435436              -0.000104320               0.999999987               0.000449320              -0.000109093               0.999999987               0.000463796              -0.000113584               0.999999987               0.000478629              -0.000117526               0.999999987               0.000493563              -0.000120449               0.999999987               0.000508448              -0.000121913               0.999999987               0.000522940              -0.000121270               0.999999987               0.000301993              -0.000184751               0.999999987               0.000330050              -0.000156522               0.999999987               0.000341731              -0.000146438               0.999999987               0.000348561              -0.000145601               0.999999987               0.000354659              -0.000149918               0.999999987               0.000361531              -0.000157497               0.999999987               0.000369763              -0.000167125               0.999999987               0.000379353              -0.000177716               0.999999987               0.000390077              -0.000188553               0.999999987               0.000401738              -0.000199283               0.999999987               0.000414081              -0.000209656               0.999999987               0.000426965              -0.000219543               0.999999987               0.000440332              -0.000228602               0.999999987               0.000453818              -0.000236513               0.999999987               0.000467166              -0.000242726               0.999999987               0.000480212              -0.000246766               0.999999987               0.000492825              -0.000247817               0.999999987               0.000293581              -0.000274725               0.999999987               0.000311503              -0.000233200               0.999999987               0.000317761              -0.000219499               0.999999987               0.000321888              -0.000219513               0.999999987               0.000326769              -0.000226918               0.999999987               0.000333234              -0.000238789               0.999999987               0.000341315              -0.000253357               0.999999987               0.000350655              -0.000269169               0.999999987               0.000361005              -0.000285209               0.999999987               0.000372047              -0.000301121               0.999999987               0.000383618              -0.000316699               0.999999987               0.000395524              -0.000331605               0.999999987               0.000407497              -0.000345196               0.999999987               0.000419259              -0.000357202               0.999999987               0.000430654              -0.000367173               0.999999987               0.000441539              -0.000374739               0.999999987               0.000451769              -0.000379386               0.999999987               0.000282049              -0.000361904               0.999999987               0.000286937              -0.000308264               0.999999987               0.000287152              -0.000292406               0.999999987               0.000288783              -0.000294319               0.999999987               0.000292971              -0.000305466               0.999999987               0.000299465              -0.000321931               0.999999987               0.000307667              -0.000341425               0.999999987               0.000317074              -0.000362247               0.999999987               0.000327210              -0.000383338               0.999999987               0.000337831              -0.000404358               0.999999987               0.000348573              -0.000424921               0.999999987               0.000359132              -0.000444499               0.999999987               0.000369294              -0.000462528               0.999999987               0.000378874              -0.000478746               0.999999987               0.000387777              -0.000493068               0.999999987               0.000395987              -0.000505144               0.999999987               0.000403533              -0.000514775               0.999999987               0.000267552              -0.000445478               0.999999987               0.000257632              -0.000381494               0.999999987               0.000252323              -0.000364994               0.999999987               0.000252443              -0.000369680               0.999999987               0.000256772              -0.000384930               0.999999987               0.000263922              -0.000406080               0.999999987               0.000272855              -0.000430237               0.999999987               0.000282695              -0.000455796               0.999999987               0.000292841              -0.000481631               0.999999987               0.000302942              -0.000507384               0.999999987               0.000312605              -0.000532451               0.999999987               0.000321592              -0.000556312               0.999999987               0.000329703              -0.000578576               0.999999987               0.000336903              -0.000599145               0.999999987               0.000343249              -0.000618045               0.999999987               0.000348919              -0.000635010               0.999999987               0.000354042              -0.000650415               0.999999987               0.000250320              -0.000524627               0.999999987               0.000225043              -0.000452850               0.999999987               0.000215657              -0.000436995               0.999999987               0.000215674              -0.000444849               0.999999987               0.000221211              -0.000464307               0.999999987               0.000229839              -0.000489816               0.999999987               0.000239783              -0.000518430               0.999999987               0.000250112              -0.000548316               0.999999987               0.000260185              -0.000578512               0.999999987               0.000269612              -0.000608449               0.999999987               0.000278103              -0.000637521               0.999999987               0.000285340              -0.000665285               0.999999987               0.000291380              -0.000691468               0.999999987               0.000296421              -0.000716068               0.999999987               0.000300581              -0.000739096               0.999999987               0.000303897              -0.000760558               0.999999987               0.000306571              -0.000780940               0.999999987               0.000230699              -0.000598488               0.999999987               0.000190959              -0.000522147               0.999999987               0.000179480              -0.000507757               0.999999987               0.000180996              -0.000518740               0.999999987               0.000188719              -0.000542093               0.999999987               0.000199004              -0.000571731               0.999999987               0.000209887              -0.000604487               0.999999987               0.000220451              -0.000638374               0.999999987               0.000230174              -0.000672513               0.999999987               0.000238648              -0.000706382               0.999999987               0.000245625              -0.000739107               0.999999987               0.000251057              -0.000770349               0.999999987               0.000255117              -0.000799925               0.999999987               0.000257921              -0.000828003               0.999999987               0.000259518              -0.000854679               0.999999987               0.000260081              -0.000880101               0.999999987               0.000259970              -0.000904730               0.999999987               0.000209585              -0.000665754               0.999999987               0.000156826              -0.000589198               0.999999987               0.000145979              -0.000576343               0.999999987               0.000150125              -0.000590136               0.999999987               0.000160282              -0.000617083               0.999999987               0.000172100              -0.000650553               0.999999987               0.000183661              -0.000687091               0.999999987               0.000194171              -0.000724752               0.999999987               0.000203157              -0.000762688               0.999999987               0.000210248              -0.000800042               0.999999987               0.000215379              -0.000836058               0.999999987               0.000218638              -0.000870388               0.999999987               0.000220194              -0.000903079               0.999999987               0.000220217              -0.000934381               0.999999987               0.000218842              -0.000964559               0.999999987               0.000216697              -0.000993817               0.999999987               0.000214241              -0.001022473               0.999999987               0.000188369              -0.000728806               0.999999987               0.000129511              -0.000661473               0.999999987               0.000115759              -0.000644008               0.999999987               0.000118296              -0.000651957               0.999999987               0.000127168              -0.000673499               0.999999987               0.000138126              -0.000702497               0.999999987               0.000149149              -0.000735360               0.999999987               0.000159122              -0.000770236               0.999999987               0.000167549              -0.000806099               0.999999987               0.000174384              -0.000842135               0.999999987               0.000179481              -0.000877637               0.999999987               0.000182620              -0.000912075               0.999999987               0.000183928              -0.000945310               0.999999987               0.000183436              -0.000977401               0.999999987               0.000181348              -0.001008580               0.999999987               0.000177910              -0.001038885               0.999999987               0.000173860              -0.001068657               0.999999987               0.000165044              -0.000785806               0.999999987               0.000104788              -0.000730790               0.999999987               0.000088267              -0.000712748               0.999999987               0.000088515              -0.000716518               0.999999987               0.000095629              -0.000733502               0.999999987               0.000105347              -0.000758391               0.999999987               0.000115434              -0.000787843               0.999999987               0.000124700              -0.000819977               0.999999987               0.000132535              -0.000853713               0.999999987               0.000138838              -0.000888085               0.999999987               0.000143595              -0.000922559               0.999999987               0.000146421              -0.000956611               0.999999987               0.000147325              -0.000989896               0.999999987               0.000146302              -0.001022362               0.999999987               0.000143324              -0.001054122               0.999999987               0.000138551              -0.001085318               0.999999987               0.000132528              -0.001116122               0.999999987               0.000140113              -0.000835587               0.999999987               0.000082564              -0.000795297               0.999999987               0.000064378              -0.000779688               0.999999987               0.000062190              -0.000781580               0.999999987               0.000067165              -0.000795308               0.999999987               0.000075185              -0.000816865               0.999999987               0.000083920              -0.000843447               0.999999987               0.000092150              -0.000873234               0.999999987               0.000099289              -0.000905063               0.999999987               0.000104833              -0.000937983               0.999999987               0.000108865              -0.000971387               0.999999987               0.000111285              -0.001004768               0.999999987               0.000111661              -0.001037810               0.999999987               0.000109780              -0.001070393               0.999999987               0.000105736              -0.001102559               0.999999987               0.000099414              -0.001134350               0.999999987               0.000090897              -0.001165954               0.999999987               0.000113759              -0.000877339               0.999999987               0.000062821              -0.000852462               0.999999987               0.000044552              -0.000841604               0.999999987               0.000040518              -0.000843719               0.999999987               0.000043265              -0.000855795               0.999999987               0.000049165              -0.000875183               0.999999987               0.000056276              -0.000899670               0.999999987               0.000063161              -0.000927646               0.999999987               0.000069215              -0.000958047               0.999999987               0.000074021              -0.000989951               0.999999987               0.000077385              -0.001022580               0.999999987               0.000079214              -0.001055514               0.999999987               0.000079033              -0.001088445               0.999999987               0.000076426              -0.001121189               0.999999987               0.000071177              -0.001153813               0.999999987               0.000063088              -0.001186322               0.999999987               0.000051711              -0.001218795               0.999999987               0.000086243              -0.000910406               0.999999987               0.000045238              -0.000899766               0.999999987               0.000028893              -0.000894830               0.999999987               0.000024099              -0.000898719               0.999999987               0.000024955              -0.000910614               0.999999987               0.000028839              -0.000928941               0.999999987               0.000034038              -0.000952241               0.999999987               0.000039349              -0.000979175               0.999999987               0.000044106              -0.001008682               0.999999987               0.000048033              -0.001040046               0.999999987               0.000050790              -0.001072509               0.999999987               0.000051971              -0.001105626               0.999999987               0.000051346              -0.001139041               0.999999987               0.000048410              -0.001172548               0.999999987               0.000042599              -0.001206028               0.999999987               0.000033259              -0.001239435               0.999999987               0.000019600              -0.001272894               0.999999987               0.000057907              -0.000934252               0.999999987               0.000029329              -0.000934999               0.999999987               0.000016989              -0.000935726               0.999999987               0.000012699              -0.000942076               0.999999987               0.000012522              -0.000954636               0.999999987               0.000014651              -0.000972787               0.999999987               0.000017946              -0.000995607               0.999999987               0.000021599              -0.001022139               0.999999987               0.000024901              -0.001051469               0.999999987               0.000027697              -0.001082864               0.999999987               0.000029600              -0.001115765               0.999999987               0.000030310              -0.001149688               0.999999987               0.000029543              -0.001184315               0.999999987               0.000026952              -0.001219350               0.999999987               0.000021787              -0.001254539               0.999999987               0.000013090              -0.001289638               0.999999987              -0.000000472              -0.001324530               0.999999987               0.000029076              -0.000948549               0.999999987               0.000014451              -0.000956660               0.999999987               0.000007795              -0.000961486               0.999999987               0.000005237              -0.000969847               0.999999987               0.000004890              -0.000983219               0.999999987               0.000005747              -0.001001519               0.999999987               0.000007334              -0.001024251               0.999999987               0.000009189              -0.001050689               0.999999987               0.000010951              -0.001080110               0.999999987               0.000012368              -0.001111900               0.999999987               0.000013343              -0.001145483               0.999999987               0.000013664              -0.001180442               0.999999987               0.000013190              -0.001216445               0.999999987               0.000011635              -0.001253187               0.999999987               0.000008520              -0.001290316               0.999999987               0.000003118              -0.001327382               0.999999987              -0.000005578              -0.001363965               0.999999987               0.000000000              -0.000953293               0.999999987              -0.000000000              -0.000963950               0.999999987               0.000000000              -0.000970253               0.999999987               0.000000000              -0.000979363               0.999999987              -0.000000000              -0.000993131               0.999999987               0.000000000              -0.001011539               0.999999987               0.000000000              -0.001034185               0.999999987               0.000000000              -0.001060606               0.999999987              -0.000000000              -0.001090130               0.999999987               0.000000000              -0.001122077               0.999999987              -0.000000000              -0.001155955               0.999999987               0.000000000              -0.001191371               0.999999987              -0.000000000              -0.001228062               0.999999987              -0.000000000              -0.001265605               0.999999987               0.000000000              -0.001303620               0.999999987              -0.000000000              -0.001341624               0.999999987              -0.000000000              -0.001378966               0.999999987               0.000308932              -0.000000000               0.999999987               0.000345609               0.000000000               0.999999987               0.000362429               0.000000000               0.999999987               0.000372100               0.000000000               0.999999987               0.000379646               0.000000000               0.999999987               0.000387237               0.000000000               0.999999987               0.000395948              -0.000000000               0.999999987               0.000406034              -0.000000000               0.999999987               0.000417404               0.000000000               0.999999987               0.000429896               0.000000000               0.999999987               0.000443295              -0.000000000               0.999999987               0.000457436              -0.000000000               0.999999987               0.000472297               0.000000000               0.999999987               0.000487764               0.000000000               0.999999987               0.000503524              -0.000000000               0.999999987               0.000519176               0.000000000               0.999999987               0.000534363               0.000000000               0.999999987               0.000307164               0.000092863               0.999999987               0.000341641               0.000078603               0.999999987               0.000357120               0.000073256               0.999999987               0.000366008               0.000072537               0.999999987               0.000373125               0.000074447               0.999999987               0.000380535               0.000078119               0.999999987               0.000389083               0.000082932               0.999999987               0.000398971               0.000088233               0.999999987               0.000410110               0.000093684               0.999999987               0.000422300               0.000099143               0.999999987               0.000435436               0.000104320               0.999999987               0.000449320               0.000109093               0.999999987               0.000463796               0.000113584               0.999999987               0.000478629               0.000117526               0.999999987               0.000493563               0.000120449               0.999999987               0.000508448               0.000121913               0.999999987               0.000522940               0.000121270               0.999999987               0.000301993               0.000184751               0.999999987               0.000330050               0.000156522               0.999999987               0.000341731               0.000146438               0.999999987               0.000348561               0.000145601               0.999999987               0.000354659               0.000149918               0.999999987               0.000361531               0.000157497               0.999999987               0.000369763               0.000167125               0.999999987               0.000379353               0.000177716               0.999999987               0.000390077               0.000188553               0.999999987               0.000401738               0.000199283               0.999999987               0.000414081               0.000209656               0.999999987               0.000426965               0.000219543               0.999999987               0.000440332               0.000228602               0.999999987               0.000453818               0.000236513               0.999999987               0.000467166               0.000242726               0.999999987               0.000480212               0.000246766               0.999999987               0.000492825               0.000247817               0.999999987               0.000293581               0.000274725               0.999999987               0.000311503               0.000233200               0.999999987               0.000317761               0.000219499               0.999999987               0.000321888               0.000219513               0.999999987               0.000326769               0.000226918               0.999999987               0.000333234               0.000238789               0.999999987               0.000341315               0.000253357               0.999999987               0.000350655               0.000269169               0.999999987               0.000361005               0.000285209               0.999999987               0.000372047               0.000301121               0.999999987               0.000383618               0.000316699               0.999999987               0.000395524               0.000331605               0.999999987               0.000407497               0.000345196               0.999999987               0.000419259               0.000357202               0.999999987               0.000430654               0.000367173               0.999999987               0.000441539               0.000374739               0.999999987               0.000451769               0.000379386               0.999999987               0.000282049               0.000361904               0.999999987               0.000286937               0.000308264               0.999999987               0.000287152               0.000292406               0.999999987               0.000288783               0.000294319               0.999999987               0.000292971               0.000305466               0.999999987               0.000299465               0.000321931               0.999999987               0.000307667               0.000341425               0.999999987               0.000317074               0.000362247               0.999999987               0.000327210               0.000383338               0.999999987               0.000337831               0.000404358               0.999999987               0.000348573               0.000424921               0.999999987               0.000359132               0.000444499               0.999999987               0.000369294               0.000462528               0.999999987               0.000378874               0.000478746               0.999999987               0.000387777               0.000493068               0.999999987               0.000395987               0.000505144               0.999999987               0.000403533               0.000514775               0.999999987               0.000267552               0.000445478               0.999999987               0.000257632               0.000381494               0.999999987               0.000252323               0.000364994               0.999999987               0.000252443               0.000369680               0.999999987               0.000256772               0.000384930               0.999999987               0.000263922               0.000406080               0.999999987               0.000272855               0.000430237               0.999999987               0.000282695               0.000455796               0.999999987               0.000292841               0.000481631               0.999999987               0.000302942               0.000507384               0.999999987               0.000312605               0.000532451               0.999999987               0.000321592               0.000556312               0.999999987               0.000329703               0.000578576               0.999999987               0.000336903               0.000599145               0.999999987               0.000343249               0.000618045               0.999999987               0.000348919               0.000635010               0.999999987               0.000354042               0.000650415               0.999999987               0.000250320               0.000524627               0.999999987               0.000225043               0.000452850               0.999999987               0.000215657               0.000436995               0.999999987               0.000215674               0.000444849               0.999999987               0.000221211               0.000464307               0.999999987               0.000229839               0.000489816               0.999999987               0.000239783               0.000518430               0.999999987               0.000250112               0.000548316               0.999999987               0.000260185               0.000578512               0.999999987               0.000269612               0.000608449               0.999999987               0.000278103               0.000637521               0.999999987               0.000285340               0.000665285               0.999999987               0.000291380               0.000691468               0.999999987               0.000296421               0.000716068               0.999999987               0.000300581               0.000739096               0.999999987               0.000303897               0.000760558               0.999999987               0.000306571               0.000780940               0.999999987               0.000230699               0.000598488               0.999999987               0.000190959               0.000522147               0.999999987               0.000179480               0.000507757               0.999999987               0.000180996               0.000518740               0.999999987               0.000188719               0.000542093               0.999999987               0.000199004               0.000571731               0.999999987               0.000209887               0.000604487               0.999999987               0.000220451               0.000638374               0.999999987               0.000230174               0.000672513               0.999999987               0.000238648               0.000706382               0.999999987               0.000245625               0.000739107               0.999999987               0.000251057               0.000770349               0.999999987               0.000255117               0.000799925               0.999999987               0.000257921               0.000828003               0.999999987               0.000259518               0.000854679               0.999999987               0.000260081               0.000880101               0.999999987               0.000259970               0.000904730               0.999999987               0.000209585               0.000665754               0.999999987               0.000156826               0.000589198               0.999999987               0.000145979               0.000576343               0.999999987               0.000150125               0.000590136               0.999999987               0.000160282               0.000617083               0.999999987               0.000172100               0.000650553               0.999999987               0.000183661               0.000687091               0.999999987               0.000194171               0.000724752               0.999999987               0.000203157               0.000762688               0.999999987               0.000210248               0.000800042               0.999999987               0.000215379               0.000836058               0.999999987               0.000218638               0.000870388               0.999999987               0.000220194               0.000903079               0.999999987               0.000220217               0.000934381               0.999999987               0.000218842               0.000964559               0.999999987               0.000216697               0.000993817               0.999999987               0.000214241               0.001022473               0.999999987               0.000188369               0.000728806               0.999999987               0.000129511               0.000661473               0.999999987               0.000115759               0.000644008               0.999999987               0.000118296               0.000651957               0.999999987               0.000127168               0.000673499               0.999999987               0.000138126               0.000702497               0.999999987               0.000149149               0.000735360               0.999999987               0.000159122               0.000770236               0.999999987               0.000167549               0.000806099               0.999999987               0.000174384               0.000842135               0.999999987               0.000179481               0.000877637               0.999999987               0.000182620               0.000912075               0.999999987               0.000183928               0.000945310               0.999999987               0.000183436               0.000977401               0.999999987               0.000181348               0.001008580               0.999999987               0.000177910               0.001038885               0.999999987               0.000173860               0.001068657               0.999999987               0.000165044               0.000785806               0.999999987               0.000104788               0.000730790               0.999999987               0.000088267               0.000712748               0.999999987               0.000088515               0.000716518               0.999999987               0.000095629               0.000733502               0.999999987               0.000105347               0.000758391               0.999999987               0.000115434               0.000787843               0.999999987               0.000124700               0.000819977               0.999999987               0.000132535               0.000853713               0.999999987               0.000138838               0.000888085               0.999999987               0.000143595               0.000922559               0.999999987               0.000146421               0.000956611               0.999999987               0.000147325               0.000989896               0.999999987               0.000146302               0.001022362               0.999999987               0.000143324               0.001054122               0.999999987               0.000138551               0.001085318               0.999999987               0.000132528               0.001116122               0.999999987               0.000140113               0.000835587               0.999999987               0.000082564               0.000795297               0.999999987               0.000064378               0.000779688               0.999999987               0.000062190               0.000781580               0.999999987               0.000067165               0.000795308               0.999999987               0.000075185               0.000816865               0.999999987               0.000083920               0.000843447               0.999999987               0.000092150               0.000873234               0.999999987               0.000099289               0.000905063               0.999999987               0.000104833               0.000937983               0.999999987               0.000108865               0.000971387               0.999999987               0.000111285               0.001004768               0.999999987               0.000111661               0.001037810               0.999999987               0.000109780               0.001070393               0.999999987               0.000105736               0.001102559               0.999999987               0.000099414               0.001134350               0.999999987               0.000090897               0.001165954               0.999999987               0.000113759               0.000877339               0.999999987               0.000062821               0.000852462               0.999999987               0.000044552               0.000841604               0.999999987               0.000040518               0.000843719               0.999999987               0.000043265               0.000855795               0.999999987               0.000049165               0.000875183               0.999999987               0.000056276               0.000899670               0.999999987               0.000063161               0.000927646               0.999999987               0.000069215               0.000958047               0.999999987               0.000074021               0.000989951               0.999999987               0.000077385               0.001022580               0.999999987               0.000079214               0.001055514               0.999999987               0.000079033               0.001088445               0.999999987               0.000076426               0.001121189               0.999999987               0.000071177               0.001153813               0.999999987               0.000063088               0.001186322               0.999999987               0.000051711               0.001218795               0.999999987               0.000086243               0.000910406               0.999999987               0.000045238               0.000899766               0.999999987               0.000028893               0.000894830               0.999999987               0.000024099               0.000898719               0.999999987               0.000024955               0.000910614               0.999999987               0.000028839               0.000928941               0.999999987               0.000034038               0.000952241               0.999999987               0.000039349               0.000979175               0.999999987               0.000044106               0.001008682               0.999999987               0.000048033               0.001040046               0.999999987               0.000050790               0.001072509               0.999999987               0.000051971               0.001105626               0.999999987               0.000051346               0.001139041               0.999999987               0.000048410               0.001172548               0.999999987               0.000042599               0.001206028               0.999999987               0.000033259               0.001239435               0.999999987               0.000019600               0.001272894               0.999999987               0.000057907               0.000934252               0.999999987               0.000029329               0.000934999               0.999999987               0.000016989               0.000935726               0.999999987               0.000012699               0.000942076               0.999999987               0.000012522               0.000954636               0.999999987               0.000014651               0.000972787               0.999999987               0.000017946               0.000995607               0.999999987               0.000021599               0.001022139               0.999999987               0.000024901               0.001051469               0.999999987               0.000027697               0.001082864               0.999999987               0.000029600               0.001115765               0.999999987               0.000030310               0.001149688               0.999999987               0.000029543               0.001184315               0.999999987               0.000026952               0.001219350               0.999999987               0.000021787               0.001254539               0.999999987               0.000013090               0.001289638               0.999999987              -0.000000472               0.001324530               0.999999987               0.000029076               0.000948549               0.999999987               0.000014451               0.000956660               0.999999987               0.000007795               0.000961486               0.999999987               0.000005237               0.000969847               0.999999987               0.000004890               0.000983219               0.999999987               0.000005747               0.001001519               0.999999987               0.000007334               0.001024251               0.999999987               0.000009189               0.001050689               0.999999987               0.000010951               0.001080110               0.999999987               0.000012368               0.001111900               0.999999987               0.000013343               0.001145483               0.999999987               0.000013664               0.001180442               0.999999987               0.000013190               0.001216445               0.999999987               0.000011635               0.001253187               0.999999987               0.000008520               0.001290316               0.999999987               0.000003118               0.001327382               0.999999987              -0.000005578               0.001363965               0.999999987              -0.000000000               0.000953293               0.999999987               0.000000000               0.000963950               0.999999987              -0.000000000               0.000970253               0.999999987               0.000000000               0.000979363               0.999999987               0.000000000               0.000993131               0.999999987              -0.000000000               0.001011539               0.999999987              -0.000000000               0.001034185               0.999999987              -0.000000000               0.001060606               0.999999987               0.000000000               0.001090130               0.999999987              -0.000000000               0.001122077               0.999999987              -0.000000000               0.001155955               0.999999987               0.000000000               0.001191371               0.999999987              -0.000000000               0.001228062               0.999999987              -0.000000000               0.001265605               0.999999987              -0.000000000               0.001303620               0.999999987              -0.000000000               0.001341624               0.999999987               0.000000000               0.001378966               0.999999987 </DataArray>
<DataArray type="Float64"                                    Name="stress"                                                      NumberOfComponents="10" format="ascii">
              0.001529211               0.017155143              -0.000000000              -0.001570935               0.006241969               0.004671034               0.000000000               0.000000000               0.000000000               0.000000000               0.001588472               0.013735658              -0.000000000              -0.001121277               0.004952266               0.003830989               0.000000000               0.000000000               0.000000000               0.000000000               0.002150351               0.010971276               0.000000000              -0.000565026               0.003845398               0.003280371               0.000000000               0.000000000               0.000000000               0.000000000               0.002139611               0.009426950               0.000000000              -0.000376014               0.003267623               0.002891609               0.000000000               0.000000000               0.000000000               0.000000000               0.001930717               0.008485104               0.000000000              -0.000336618               0.002940546               0.002603927               0.000000000               0.000000000               0.000000000               0.000000000               0.001655806               0.007878252               0.000000000              -0.000363853               0.002747342               0.002383489               0.000000000               0.000000000               0.000000000               0.000000000               0.001375564               0.007465725              -0.000000000              -0.000417378               0.002627676               0.002210298               0.000000000               0.000000000               0.000000000               0.000000000               0.001122590               0.007160369              -0.000000000              -0.000474074               0.002544790               0.002070717               0.000000000               0.000000000               0.000000000               0.000000000               0.000904930               0.006915764              -0.000000000              -0.000525121               0.002480272               0.001955151               0.000000000               0.000000000               0.000000000               0.000000000               0.000719242               0.006706638              -0.000000000              -0.000568613               0.002425061               0.001856449               0.000000000               0.000000000               0.000000000               0.000000000               0.000558458               0.006511070               0.000000000              -0.000604461               0.002371822               0.001767361               0.000000000               0.000000000               0.000000000               0.000000000               0.000412485               0.006318531               0.000000000              -0.000635133               0.002317867               0.001682734               0.000000000               0.000000000               0.000000000               0.000000000               0.000280350               0.006129903               0.000000000              -0.000661105               0.002263649               0.001602544               0.000000000               0.000000000               0.000000000               0.000000000               0.000172399               0.005936902               0.000000000              -0.000677462               0.002204768               0.001527307               0.000000000               0.000000000               0.000000000               0.000000000               0.000092498               0.005722499               0.000000000              -0.000680624               0.002134355               0.001453731               0.000000000               0.000000000               0.000000000               0.000000000               0.000038707               0.005469342               0.000000000              -0.000669151               0.002046146               0.001376995               0.000000000               0.000000000               0.000000000               0.000000000              -0.000003049               0.005269205              -0.000000000              -0.000659792               0.001976315               0.001316523               0.000000000               0.000000000               0.000000000               0.000000000               0.001600793               0.016826632              -0.001218809              -0.001503028               0.006109831               0.004606802               0.000000000               0.000000000               0.000000000               0.000000000               0.001581224               0.013514868              -0.000680772              -0.001096397               0.004870377               0.003773980               0.000000000               0.000000000               0.000000000               0.000000000               0.002057621               0.010864916              -0.000139173              -0.000586505               0.003817104               0.003230599               0.000000000               0.000000000               0.000000000               0.000000000               0.002012399               0.009384253               0.000096917              -0.000418381               0.003267514               0.002849132               0.000000000               0.000000000               0.000000000               0.000000000               0.001794022               0.008478194               0.000203235              -0.000387015               0.002955041               0.002568026               0.000000000               0.000000000               0.000000000               0.000000000               0.001523767               0.007887170               0.000251584              -0.000414483               0.002767191               0.002352708               0.000000000               0.000000000               0.000000000               0.000000000               0.001255984               0.007478595               0.000266785              -0.000463829               0.002647450               0.002183621               0.000000000               0.000000000               0.000000000               0.000000000               0.001016867               0.007173700               0.000263045              -0.000515386               0.002563005               0.002047619               0.000000000               0.000000000               0.000000000               0.000000000               0.000812051               0.006926975               0.000253056              -0.000561351               0.002496086               0.001934734               0.000000000               0.000000000               0.000000000               0.000000000               0.000635492               0.006713239               0.000239242              -0.000600844               0.002438005               0.001837161               0.000000000               0.000000000               0.000000000               0.000000000               0.000482230               0.006518602               0.000222427              -0.000633987               0.002384175               0.001750187               0.000000000               0.000000000               0.000000000               0.000000000               0.000348022               0.006334424               0.000207525              -0.000661293               0.002331885               0.001670592               0.000000000               0.000000000               0.000000000               0.000000000               0.000233686               0.006152160               0.000192025              -0.000681386               0.002277828               0.001596442               0.000000000               0.000000000               0.000000000               0.000000000               0.000145316               0.005965529               0.000167904              -0.000691196               0.002218888               0.001527693               0.000000000               0.000000000               0.000000000               0.000000000               0.000076849               0.005763000               0.000131396              -0.000691555               0.002151499               0.001459944               0.000000000               0.000000000               0.000000000               0.000000000               0.000029052               0.005536316               0.000076843              -0.000681143               0.002072468               0.001391325               0.000000000               0.000000000               0.000000000               0.000000000              -0.000005829               0.005365753               0.000047365              -0.000672903               0.002012867               0.001339964               0.000000000               0.000000000               0.000000000               0.000000000               0.001789939               0.015887146              -0.002289331              -0.001314664               0.005733884               0.004419220               0.000000000               0.000000000               0.000000000               0.000000000               0.001553232               0.012888842              -0.001284060              -0.001028641               0.004639118               0.003610477               0.000000000               0.000000000               0.000000000               0.000000000               0.001793597               0.010566077              -0.000278556              -0.000648159               0.003738044               0.003089884               0.000000000               0.000000000               0.000000000               0.000000000               0.001656061               0.009258433               0.000149456              -0.000536280               0.003264873               0.002728594               0.000000000               0.000000000               0.000000000               0.000000000               0.001419074               0.008446286               0.000337232              -0.000523632               0.002989944               0.002466313               0.000000000               0.000000000               0.000000000               0.000000000               0.001166006               0.007899904               0.000419356              -0.000550234               0.002816686               0.002266452               0.000000000               0.000000000               0.000000000               0.000000000               0.000930599               0.007505783               0.000444337              -0.000589247               0.002698318               0.002109071               0.000000000               0.000000000               0.000000000               0.000000000               0.000729129               0.007201995               0.000436569              -0.000626825               0.002609582               0.001982758               0.000000000               0.000000000               0.000000000               0.000000000               0.000559546               0.006949746               0.000415825              -0.000658887               0.002536188               0.001877301               0.000000000               0.000000000               0.000000000               0.000000000               0.000418065               0.006732323               0.000391564              -0.000684764               0.002472340               0.001787576               0.000000000               0.000000000               0.000000000               0.000000000               0.000300677               0.006543146               0.000365853              -0.000705138               0.002416073               0.001710935               0.000000000               0.000000000               0.000000000               0.000000000               0.000197527               0.006367867               0.000336630              -0.000721909               0.002363237               0.001641328               0.000000000               0.000000000               0.000000000               0.000000000               0.000114306               0.006192393               0.000301863              -0.000731182               0.002307838               0.001576655               0.000000000               0.000000000               0.000000000               0.000000000               0.000059540               0.006017865               0.000256149              -0.000729904               0.002249236               0.001519332               0.000000000               0.000000000               0.000000000               0.000000000               0.000024485               0.005843680               0.000194451              -0.000721276               0.002188299               0.001467023               0.000000000               0.000000000               0.000000000               0.000000000               0.000006777               0.005672080               0.000110320              -0.000706467               0.002126163               0.001419696               0.000000000               0.000000000               0.000000000               0.000000000              -0.000008850               0.005557145               0.000065867              -0.000697960               0.002085016               0.001387056               0.000000000               0.000000000               0.000000000               0.000000000               0.002022117               0.014458638              -0.003088537              -0.001049035               0.005169176               0.004120140               0.000000000               0.000000000               0.000000000               0.000000000               0.001477829               0.011949352              -0.001746563              -0.000939482               0.004296238               0.003356756               0.000000000               0.000000000               0.000000000               0.000000000               0.001389063               0.010123675              -0.000417410              -0.000744559               0.003622711               0.002878152               0.000000000               0.000000000               0.000000000               0.000000000               0.001142347               0.009061775               0.000127817              -0.000704340               0.003255341               0.002551001               0.000000000               0.000000000               0.000000000               0.000000000               0.000893078               0.008373768               0.000358627              -0.000711815               0.003028500               0.002316685               0.000000000               0.000000000               0.000000000               0.000000000               0.000673854               0.007887105               0.000456289              -0.000733191               0.002873406               0.002140215               0.000000000               0.000000000               0.000000000               0.000000000               0.000493274               0.007515225               0.000486735              -0.000754424               0.002756525               0.002002101               0.000000000               0.000000000               0.000000000               0.000000000               0.000348650               0.007213023               0.000477587              -0.000770882               0.002661278               0.001890395               0.000000000               0.000000000               0.000000000               0.000000000               0.000232383               0.006958487               0.000453052              -0.000782665               0.002580361               0.001797696               0.000000000               0.000000000               0.000000000               0.000000000               0.000140905               0.006742803               0.000426376              -0.000790009               0.002510915               0.001720906               0.000000000               0.000000000               0.000000000               0.000000000               0.000067629               0.006553394               0.000397329              -0.000793811               0.002449047               0.001655235               0.000000000               0.000000000               0.000000000               0.000000000               0.000009749               0.006376314               0.000359529              -0.000793381               0.002389877               0.001596496               0.000000000               0.000000000               0.000000000               0.000000000              -0.000028450               0.006207047               0.000313974              -0.000786548               0.002331177               0.001544630               0.000000000               0.000000000               0.000000000               0.000000000              -0.000046256               0.006048461               0.000260674              -0.000773402               0.002273934               0.001500532               0.000000000               0.000000000               0.000000000               0.000000000              -0.000046985               0.005907301               0.000193352              -0.000756030               0.002221091               0.001465061               0.000000000               0.000000000               0.000000000               0.000000000              -0.000029498               0.005788576               0.000106899              -0.000734632               0.002174383               0.001439751               0.000000000               0.000000000               0.000000000               0.000000000              -0.000023030               0.005720013               0.000062185              -0.000723636               0.002147864               0.001424228               0.000000000               0.000000000               0.000000000               0.000000000               0.002197364               0.012705660              -0.003553488              -0.000764197               0.004489909               0.003725712               0.000000000               0.000000000               0.000000000               0.000000000               0.001326729               0.010815051              -0.002043385              -0.000854357               0.003889766               0.003035409               0.000000000               0.000000000               0.000000000               0.000000000               0.000889922               0.009592452              -0.000564100              -0.000865334               0.003485897               0.002620563               0.000000000               0.000000000               0.000000000               0.000000000               0.000557196               0.008805072               0.000016340              -0.000891683               0.003232223               0.002340539               0.000000000               0.000000000               0.000000000               0.000000000               0.000323657               0.008246300               0.000256323              -0.000909414               0.003051877               0.002142463               0.000000000               0.000000000               0.000000000               0.000000000               0.000163752               0.007819702               0.000358128              -0.000916054               0.002911892               0.001995839               0.000000000               0.000000000               0.000000000               0.000000000               0.000052824               0.007466494               0.000392509              -0.000913500               0.002793306               0.001879806               0.000000000               0.000000000               0.000000000               0.000000000              -0.000022527               0.007167926               0.000388799              -0.000904436               0.002690763               0.001786327               0.000000000               0.000000000               0.000000000               0.000000000              -0.000076300               0.006914426               0.000372403              -0.000892914               0.002602424               0.001709510               0.000000000               0.000000000               0.000000000               0.000000000              -0.000111723               0.006697874               0.000354195              -0.000879128               0.002525645               0.001646517               0.000000000               0.000000000               0.000000000               0.000000000              -0.000130323               0.006503233               0.000331432              -0.000861773               0.002454980               0.001593207               0.000000000               0.000000000               0.000000000               0.000000000              -0.000136678               0.006322566               0.000298958              -0.000841573               0.002388025               0.001546452               0.000000000               0.000000000               0.000000000               0.000000000              -0.000129857               0.006160256               0.000257997              -0.000818726               0.002326307               0.001507580               0.000000000               0.000000000               0.000000000               0.000000000              -0.000110789               0.006020758               0.000212469              -0.000794139               0.002271612               0.001477474               0.000000000               0.000000000               0.000000000               0.000000000              -0.000082682               0.005908866               0.000155629              -0.000769612               0.002226140               0.001456528               0.000000000               0.000000000               0.000000000               0.000000000              -0.000045494               0.005827910               0.000083287              -0.000745547               0.002191133               0.001445586               0.000000000               0.000000000               0.000000000               0.000000000              -0.000027432               0.005790634               0.000046000              -0.000734115               0.002174897               0.001440782               0.000000000               0.000000000               0.000000000               0.000000000               0.002226138               0.010801281              -0.003684945              -0.000515361               0.003772177               0.003256816               0.000000000               0.000000000               0.000000000               0.000000000               0.001084275               0.009607244              -0.002188259              -0.000794302               0.003467149               0.002672848               0.000000000               0.000000000               0.000000000               0.000000000               0.000351353               0.009019028              -0.000732931              -0.000995619               0.003338186               0.002342567               0.000000000               0.000000000               0.000000000               0.000000000              -0.000011219               0.008492794              -0.000180949              -0.001065804               0.003186171               0.002120367               0.000000000               0.000000000               0.000000000               0.000000000              -0.000190476               0.008051224               0.000049328              -0.001077829               0.003042991               0.001965162               0.000000000               0.000000000               0.000000000               0.000000000              -0.000273390               0.007673142               0.000152172              -0.001061661               0.002911575               0.001849914               0.000000000               0.000000000               0.000000000               0.000000000              -0.000307059               0.007339546               0.000196420              -0.001032588               0.002790687               0.001758099               0.000000000               0.000000000               0.000000000               0.000000000              -0.000310594               0.007047799               0.000211270              -0.000997445               0.002681725               0.001684279               0.000000000               0.000000000               0.000000000               0.000000000              -0.000298902               0.006795949               0.000215363              -0.000961580               0.002585820               0.001624241               0.000000000               0.000000000               0.000000000               0.000000000              -0.000277507               0.006573592               0.000215747              -0.000925762               0.002499763               0.001574001               0.000000000               0.000000000               0.000000000               0.000000000              -0.000244630               0.006372142               0.000207052              -0.000888252               0.002420110               0.001531858               0.000000000               0.000000000               0.000000000               0.000000000              -0.000204913               0.006190640               0.000188389              -0.000850670               0.002347083               0.001496412               0.000000000               0.000000000               0.000000000               0.000000000              -0.000161399               0.006033437               0.000161823              -0.000814702               0.002282693               0.001467991               0.000000000               0.000000000               0.000000000               0.000000000              -0.000116238               0.005903029               0.000130303              -0.000781466               0.002228145               0.001446679               0.000000000               0.000000000               0.000000000               0.000000000              -0.000073799               0.005797834               0.000088653              -0.000752402               0.002183393               0.001430991               0.000000000               0.000000000               0.000000000               0.000000000              -0.000035807               0.005721913               0.000041189              -0.000728665               0.002150173               0.001421509               0.000000000               0.000000000               0.000000000               0.000000000              -0.000020536               0.005687060               0.000020499              -0.000718582               0.002135195               0.001416613               0.000000000               0.000000000               0.000000000               0.000000000               0.002061429               0.008898726              -0.003528898              -0.000339308               0.003079314               0.002740006               0.000000000               0.000000000               0.000000000               0.000000000               0.000765497               0.008420241              -0.002217762              -0.000765469               0.003061874               0.002296406               0.000000000               0.000000000               0.000000000               0.000000000              -0.000163702               0.008425169              -0.000933889              -0.001114532               0.003179872               0.002065340               0.000000000               0.000000000               0.000000000               0.000000000              -0.000490178               0.008121123              -0.000444265              -0.001198954               0.003106665               0.001907711               0.000000000               0.000000000               0.000000000               0.000000000              -0.000584584               0.007777305              -0.000225303              -0.001191379               0.002989535               0.001798156               0.000000000               0.000000000               0.000000000               0.000000000              -0.000580727               0.007445307              -0.000109225              -0.001148433               0.002864555               0.001716122               0.000000000               0.000000000               0.000000000               0.000000000              -0.000538622               0.007137587              -0.000040410              -0.001094179               0.002743898               0.001649719               0.000000000               0.000000000               0.000000000               0.000000000              -0.000484532               0.006855244               0.000004060              -0.001038602               0.002631259               0.001592657               0.000000000               0.000000000               0.000000000               0.000000000              -0.000421549               0.006606908               0.000036566              -0.000983942               0.002530261               0.001546319               0.000000000               0.000000000               0.000000000               0.000000000              -0.000355167               0.006384967               0.000058358              -0.000931306               0.002438736               0.001507430               0.000000000               0.000000000               0.000000000               0.000000000              -0.000282521               0.006182463               0.000067843              -0.000878751               0.002353717               0.001474967               0.000000000               0.000000000               0.000000000               0.000000000              -0.000210310               0.005999799               0.000066339              -0.000828839               0.002276192               0.001447354               0.000000000               0.000000000               0.000000000               0.000000000              -0.000150224               0.005837149               0.000056910              -0.000785976               0.002207689               0.001421713               0.000000000               0.000000000               0.000000000               0.000000000              -0.000100342               0.005697651               0.000042809              -0.000749833               0.002149142               0.001399310               0.000000000               0.000000000               0.000000000               0.000000000              -0.000056298               0.005582439               0.000023183              -0.000718915               0.002100433               0.001381518               0.000000000               0.000000000               0.000000000               0.000000000              -0.000023096               0.005492874               0.000005850              -0.000695269               0.002062696               0.001367427               0.000000000               0.000000000               0.000000000               0.000000000              -0.000017837               0.005442041               0.000004366              -0.000686942               0.002042976               0.001356034               0.000000000               0.000000000               0.000000000               0.000000000               0.001715675               0.007109453              -0.003153704              -0.000245307               0.002451562               0.002206255               0.000000000               0.000000000               0.000000000               0.000000000               0.000401250               0.007312110              -0.002171087              -0.000763545               0.002691860               0.001928315               0.000000000               0.000000000               0.000000000               0.000000000              -0.000591540               0.007813763              -0.001167957              -0.001198545               0.003004077               0.001805531               0.000000000               0.000000000               0.000000000               0.000000000              -0.000828217               0.007691400              -0.000742072              -0.001272003               0.002987775               0.001715772               0.000000000               0.000000000               0.000000000               0.000000000              -0.000824429               0.007436007              -0.000514023              -0.001238659               0.002891530               0.001652872               0.000000000               0.000000000               0.000000000               0.000000000              -0.000740592               0.007153514              -0.000367252              -0.001171908               0.002775117               0.001603208               0.000000000               0.000000000               0.000000000               0.000000000              -0.000640715               0.006871408              -0.000264750              -0.001099191               0.002656844               0.001557652               0.000000000               0.000000000               0.000000000               0.000000000              -0.000544953               0.006605987              -0.000188570              -0.001030103               0.002545341               0.001515238               0.000000000               0.000000000               0.000000000               0.000000000              -0.000448429               0.006369095              -0.000126585              -0.000964295               0.002444442               0.001480147               0.000000000               0.000000000               0.000000000               0.000000000              -0.000354161               0.006151256              -0.000081586              -0.000901715               0.002350970               0.001449255               0.000000000               0.000000000               0.000000000               0.000000000              -0.000265978               0.005946932              -0.000053942              -0.000843106               0.002263326               0.001420220               0.000000000               0.000000000               0.000000000               0.000000000              -0.000189697               0.005757963              -0.000037845              -0.000790880               0.002182928               0.001392049               0.000000000               0.000000000               0.000000000               0.000000000              -0.000129266               0.005588829              -0.000027299              -0.000747076               0.002111950               0.001364873               0.000000000               0.000000000               0.000000000               0.000000000              -0.000078004               0.005444788              -0.000018275              -0.000709848               0.002051527               0.001341679               0.000000000               0.000000000               0.000000000               0.000000000              -0.000037573               0.005326440              -0.000012754              -0.000679893               0.002002093               0.001322200               0.000000000               0.000000000               0.000000000               0.000000000              -0.000014649               0.005230441              -0.000007351              -0.000659297               0.001963228               0.001303932               0.000000000               0.000000000               0.000000000               0.000000000              -0.000015937               0.005172783               0.000001769              -0.000652573               0.001941768               0.001289195               0.000000000               0.000000000               0.000000000               0.000000000               0.001266297               0.005563857              -0.002647716              -0.000220623               0.001928140               0.001707517               0.000000000               0.000000000               0.000000000               0.000000000               0.000063694               0.006310645              -0.002093032              -0.000764945               0.002358508               0.001593563               0.000000000               0.000000000               0.000000000               0.000000000              -0.000887147               0.007219220              -0.001440875              -0.001235080               0.002818076               0.001582996               0.000000000               0.000000000               0.000000000               0.000000000              -0.001023339               0.007286189              -0.001057318              -0.001294523               0.002860213               0.001565690               0.000000000               0.000000000               0.000000000               0.000000000              -0.000944182               0.007132710              -0.000803428              -0.001245654               0.002792764               0.001547110               0.000000000               0.000000000               0.000000000               0.000000000              -0.000803013               0.006906009              -0.000621113              -0.001164378               0.002690106               0.001525728               0.000000000               0.000000000               0.000000000               0.000000000              -0.000660002               0.006655262              -0.000484322              -0.001079406               0.002578200               0.001498794               0.000000000               0.000000000               0.000000000               0.000000000              -0.000532212               0.006416585              -0.000376007              -0.001001650               0.002472724               0.001471073               0.000000000               0.000000000               0.000000000               0.000000000              -0.000417491               0.006196229              -0.000286607              -0.000931086               0.002375751               0.001444665               0.000000000               0.000000000               0.000000000               0.000000000              -0.000314122               0.005979643              -0.000218088              -0.000865249               0.002281611               0.001416362               0.000000000               0.000000000               0.000000000               0.000000000              -0.000224546               0.005769506              -0.000168707              -0.000805391               0.002191613               0.001386222               0.000000000               0.000000000               0.000000000               0.000000000              -0.000153755               0.005574051              -0.000129892              -0.000754413               0.002109469               0.001355057               0.000000000               0.000000000               0.000000000               0.000000000              -0.000100137               0.005403833              -0.000095485              -0.000713029               0.002038936               0.001325907               0.000000000               0.000000000               0.000000000               0.000000000              -0.000059234               0.005262406              -0.000061844              -0.000680012               0.001980788               0.001300776               0.000000000               0.000000000               0.000000000               0.000000000              -0.000036927               0.005144957              -0.000034111              -0.000656966               0.001933957               0.001276992               0.000000000               0.000000000               0.000000000               0.000000000              -0.000038367               0.005047591              -0.000014757              -0.000645335               0.001897625               0.001252290               0.000000000               0.000000000               0.000000000               0.000000000              -0.000046049               0.004997461              -0.000004424              -0.000641949               0.001879787               0.001237838               0.000000000               0.000000000               0.000000000               0.000000000               0.000699139               0.004101588              -0.002091358              -0.000250523               0.001450689               0.001200166               0.000000000               0.000000000               0.000000000               0.000000000              -0.000193954               0.005155044              -0.001995976              -0.000717113               0.001957368               0.001240255               0.000000000               0.000000000               0.000000000               0.000000000              -0.001003384               0.006358244              -0.001736979              -0.001171048               0.002509742               0.001338695               0.000000000               0.000000000               0.000000000               0.000000000              -0.001094786               0.006677418              -0.001406376              -0.001245219               0.002640857               0.001395637               0.000000000               0.000000000               0.000000000               0.000000000              -0.000993717               0.006690612              -0.001132102              -0.001208968               0.002633171               0.001424203               0.000000000               0.000000000               0.000000000               0.000000000              -0.000839288               0.006574894              -0.000917247              -0.001136592               0.002570473               0.001433881               0.000000000               0.000000000               0.000000000               0.000000000              -0.000681605               0.006406107              -0.000745132              -0.001056363               0.002487468               0.001431106               0.000000000               0.000000000               0.000000000               0.000000000              -0.000538475               0.006233647              -0.000601778              -0.000981132               0.002404905               0.001423774               0.000000000               0.000000000               0.000000000               0.000000000              -0.000418470               0.006060536              -0.000483118              -0.000914491               0.002324989               0.001410498               0.000000000               0.000000000               0.000000000               0.000000000              -0.000317991               0.005877675              -0.000387760              -0.000853954               0.002243857               0.001389903               0.000000000               0.000000000               0.000000000               0.000000000              -0.000232698               0.005689444              -0.000308251              -0.000798440               0.002162609               0.001364169               0.000000000               0.000000000               0.000000000               0.000000000              -0.000167258               0.005505718              -0.000239110              -0.000750935               0.002085533               0.001334598               0.000000000               0.000000000               0.000000000               0.000000000              -0.000119931               0.005340112              -0.000176841              -0.000712487               0.002017515               0.001305029               0.000000000               0.000000000               0.000000000               0.000000000              -0.000088011               0.005201338              -0.000117468              -0.000683170               0.001961485               0.001278315               0.000000000               0.000000000               0.000000000               0.000000000              -0.000074968               0.005083114              -0.000063244              -0.000663501               0.001915521               0.001252021               0.000000000               0.000000000               0.000000000               0.000000000              -0.000083536               0.004986759              -0.000022059              -0.000654669               0.001880460               0.001225790               0.000000000               0.000000000               0.000000000               0.000000000              -0.000094671               0.004944084              -0.000005009              -0.000653510               0.001865848               0.001212338               0.000000000               0.000000000               0.000000000               0.000000000              -0.000081347               0.002766118              -0.001509263              -0.000376270               0.001047453               0.000671182               0.000000000               0.000000000               0.000000000               0.000000000              -0.000491854               0.004004162              -0.001836456              -0.000684965               0.001563028               0.000878063               0.000000000               0.000000000               0.000000000               0.000000000              -0.001038445               0.005380358              -0.001965529              -0.001061960               0.002147421               0.001085461               0.000000000               0.000000000               0.000000000               0.000000000              -0.001089144               0.005935317              -0.001737524              -0.001150341               0.002361866               0.001211525               0.000000000               0.000000000               0.000000000               0.000000000              -0.000985083               0.006138491              -0.001473520              -0.001136715               0.002425048               0.001288333               0.000000000               0.000000000               0.000000000               0.000000000              -0.000835322               0.006166318              -0.001239603              -0.001084033               0.002416763               0.001332730               0.000000000               0.000000000               0.000000000               0.000000000              -0.000680876               0.006110434              -0.001039784              -0.001019131               0.002376501               0.001357371               0.000000000               0.000000000               0.000000000               0.000000000              -0.000533227               0.006025123              -0.000869053              -0.000953098               0.002326054               0.001372955               0.000000000               0.000000000               0.000000000               0.000000000              -0.000404903               0.005915939              -0.000724751              -0.000891329               0.002269070               0.001377741               0.000000000               0.000000000               0.000000000               0.000000000              -0.000306512               0.005781738              -0.000603107              -0.000837657               0.002206446               0.001368788               0.000000000               0.000000000               0.000000000               0.000000000              -0.000227155               0.005633771              -0.000495758              -0.000789403               0.002141039               0.001351636               0.000000000               0.000000000               0.000000000               0.000000000              -0.000162185               0.005477342              -0.000397759              -0.000745486               0.002074258               0.001328772               0.000000000               0.000000000               0.000000000               0.000000000              -0.000116801               0.005325114              -0.000306415              -0.000709438               0.002011500               0.001302062               0.000000000               0.000000000               0.000000000               0.000000000              -0.000089800               0.005191463              -0.000217904              -0.000682606               0.001958006               0.001275400               0.000000000               0.000000000               0.000000000               0.000000000              -0.000080901               0.005078767              -0.000132458              -0.000665182               0.001914633               0.001249451               0.000000000               0.000000000               0.000000000               0.000000000              -0.000094503               0.004987479              -0.000057142              -0.000658872               0.001882100               0.001223229               0.000000000               0.000000000               0.000000000               0.000000000              -0.000116391               0.004941491              -0.000020106              -0.000661331               0.001867591               0.001206260               0.000000000               0.000000000               0.000000000               0.000000000              -0.001026083               0.001644554              -0.000936799              -0.000590349               0.000744962               0.000154612               0.000000000               0.000000000               0.000000000               0.000000000              -0.000874527               0.002915554              -0.001587723              -0.000692391               0.001202638               0.000510247               0.000000000               0.000000000               0.000000000               0.000000000              -0.001035745               0.004293290              -0.002037308              -0.000925065               0.001739437               0.000814372               0.000000000               0.000000000               0.000000000               0.000000000              -0.000991658               0.005016503              -0.001943843              -0.000998933               0.002005128               0.001006195               0.000000000               0.000000000               0.000000000               0.000000000              -0.000880133               0.005395339              -0.001727173              -0.001004465               0.002133250               0.001128784               0.000000000               0.000000000               0.000000000               0.000000000              -0.000744578               0.005580582              -0.001500575              -0.000976788               0.002185771               0.001208983               0.000000000               0.000000000               0.000000000               0.000000000              -0.000600650               0.005656630              -0.001292958              -0.000932321               0.002196298               0.001263977               0.000000000               0.000000000               0.000000000               0.000000000              -0.000462058               0.005673282              -0.001110156              -0.000882430               0.002185218               0.001302788               0.000000000               0.000000000               0.000000000               0.000000000              -0.000336707               0.005646252              -0.000950050              -0.000832045               0.002159413               0.001327368               0.000000000               0.000000000               0.000000000               0.000000000              -0.000234341               0.005581180              -0.000811488              -0.000785524               0.002122216               0.001336692               0.000000000               0.000000000               0.000000000               0.000000000              -0.000155099               0.005486859              -0.000690106              -0.000744018               0.002076941               0.001332923               0.000000000               0.000000000               0.000000000               0.000000000              -0.000089498               0.005375143              -0.000574510              -0.000705453               0.002026847               0.001321394               0.000000000               0.000000000               0.000000000               0.000000000              -0.000041306               0.005259314              -0.000457732              -0.000672902               0.001977388               0.001304486               0.000000000               0.000000000               0.000000000               0.000000000              -0.000014135               0.005152776              -0.000342330              -0.000649396               0.001934040               0.001284644               0.000000000               0.000000000               0.000000000               0.000000000              -0.000008924               0.005060196              -0.000227852              -0.000635870               0.001898672               0.001262802               0.000000000               0.000000000               0.000000000               0.000000000              -0.000031449               0.004981955              -0.000111742              -0.000634536               0.001872147               0.001237611               0.000000000               0.000000000               0.000000000               0.000000000              -0.000065133               0.004938107              -0.000048942              -0.000641687               0.001859915               0.001218228               0.000000000               0.000000000               0.000000000               0.000000000              -0.002059614               0.000789050              -0.000444278              -0.000870985               0.000553341              -0.000317644               0.000000000               0.000000000               0.000000000               0.000000000              -0.001313661               0.001942378              -0.001272577              -0.000735419               0.000892592               0.000157173               0.000000000               0.000000000               0.000000000               0.000000000              -0.001013166               0.003180115              -0.001928292              -0.000777451               0.001319177               0.000541726               0.000000000               0.000000000               0.000000000               0.000000000              -0.000821342               0.003989239              -0.001963109              -0.000806657               0.001598618               0.000791961               0.000000000               0.000000000               0.000000000               0.000000000              -0.000679740               0.004509356              -0.001815430              -0.000818571               0.001775960               0.000957389               0.000000000               0.000000000               0.000000000               0.000000000              -0.000553389               0.004841409              -0.001625330              -0.000812696               0.001884685               0.001071989               0.000000000               0.000000000               0.000000000               0.000000000              -0.000428244               0.005048717              -0.001434962              -0.000791680               0.001946782               0.001155102               0.000000000               0.000000000               0.000000000               0.000000000              -0.000306988               0.005175620              -0.001257703              -0.000762072               0.001979213               0.001217141               0.000000000               0.000000000               0.000000000               0.000000000              -0.000194627               0.005243215              -0.001099386              -0.000728386               0.001990516               0.001262130               0.000000000               0.000000000               0.000000000               0.000000000              -0.000091497               0.005258772              -0.000960956              -0.000691657               0.001983458               0.001291802               0.000000000               0.000000000               0.000000000               0.000000000              -0.000005481               0.005234177              -0.000837655              -0.000656326               0.001963484               0.001307157               0.000000000               0.000000000               0.000000000               0.000000000               0.000063097               0.005186202              -0.000717871              -0.000624612               0.001936921               0.001312308               0.000000000               0.000000000               0.000000000               0.000000000               0.000120508               0.005126343              -0.000592946              -0.000595601               0.001907298               0.001311697               0.000000000               0.000000000               0.000000000               0.000000000               0.000164952               0.005068897              -0.000462524              -0.000571754               0.001880200               0.001308446               0.000000000               0.000000000               0.000000000               0.000000000               0.000184986               0.005015920              -0.000324066              -0.000557619               0.001857830               0.001300211               0.000000000               0.000000000               0.000000000               0.000000000               0.000169719               0.004965319              -0.000169590              -0.000557019               0.001840763               0.001283744               0.000000000               0.000000000               0.000000000               0.000000000               0.000137064               0.004932187              -0.000082960              -0.000565123               0.001832420               0.001267297               0.000000000               0.000000000               0.000000000               0.000000000              -0.003066320               0.000200259              -0.000096226              -0.001174901               0.000458384              -0.000716518               0.000000000               0.000000000               0.000000000               0.000000000              -0.001765056               0.001140636              -0.000926317              -0.000804475               0.000648365              -0.000156109               0.000000000               0.000000000               0.000000000               0.000000000              -0.000985832               0.002147910              -0.001633103              -0.000638175               0.000928687               0.000290512               0.000000000               0.000000000               0.000000000               0.000000000              -0.000615519               0.002966402              -0.001754538              -0.000601620               0.001189330               0.000587710               0.000000000               0.000000000               0.000000000               0.000000000              -0.000415400               0.003577388              -0.001677938              -0.000602948               0.001393433               0.000790484               0.000000000               0.000000000               0.000000000               0.000000000              -0.000284597               0.004025948              -0.001541127              -0.000609967               0.001545291               0.000935324               0.000000000               0.000000000               0.000000000               0.000000000              -0.000178424               0.004352014              -0.001388553              -0.000610910               0.001654293               0.001043383               0.000000000               0.000000000               0.000000000               0.000000000              -0.000078095               0.004584288              -0.001239517              -0.000602321               0.001728854               0.001126533               0.000000000               0.000000000               0.000000000               0.000000000               0.000016491               0.004746512              -0.001104242              -0.000587129               0.001777864               0.001190735               0.000000000               0.000000000               0.000000000               0.000000000               0.000107813               0.004850896              -0.000983996              -0.000565931               0.001805593               0.001239662               0.000000000               0.000000000               0.000000000               0.000000000               0.000192542               0.004909525              -0.000872315              -0.000541486               0.001816987               0.001275501               0.000000000               0.000000000               0.000000000               0.000000000               0.000269872               0.004938631              -0.000764341              -0.000516126               0.001818236               0.001302110               0.000000000               0.000000000               0.000000000               0.000000000               0.000345477               0.004949252              -0.000653887              -0.000489102               0.001812768               0.001323666               0.000000000               0.000000000               0.000000000               0.000000000               0.000421274               0.004951413              -0.000531580              -0.000460948               0.001804104               0.001343156               0.000000000               0.000000000               0.000000000               0.000000000               0.000484880               0.004944884              -0.000387931              -0.000436279               0.001793705               0.001357425               0.000000000               0.000000000               0.000000000               0.000000000               0.000521267               0.004932403              -0.000211428              -0.000421074               0.001784476               0.001363402               0.000000000               0.000000000               0.000000000               0.000000000               0.000525763               0.004921141              -0.000111560              -0.000417981               0.001779691               0.001361710               0.000000000               0.000000000               0.000000000               0.000000000              -0.003912811              -0.000155251               0.000076771              -0.001447897               0.000430879              -0.001017018               0.000000000               0.000000000               0.000000000               0.000000000              -0.002167799               0.000553790              -0.000586936              -0.000882147               0.000478642              -0.000403505               0.000000000               0.000000000               0.000000000               0.000000000              -0.000969994               0.001315164              -0.001177770              -0.000528143               0.000614430               0.000086288               0.000000000               0.000000000               0.000000000               0.000000000              -0.000424052               0.002089347              -0.001319801              -0.000420188               0.000836504               0.000416316               0.000000000               0.000000000               0.000000000               0.000000000              -0.000151058               0.002742404              -0.001294703              -0.000399447               0.001047274               0.000647827               0.000000000               0.000000000               0.000000000               0.000000000              -0.000004250               0.003269273              -0.001211511              -0.000410253               0.001226497               0.000816245               0.000000000               0.000000000               0.000000000               0.000000000               0.000091575               0.003686919              -0.001109728              -0.000426524               0.001371135               0.000944611               0.000000000               0.000000000               0.000000000               0.000000000               0.000171091               0.004010238              -0.001004350              -0.000437120               0.001482439               0.001045319               0.000000000               0.000000000               0.000000000               0.000000000               0.000245749               0.004256716              -0.000906924              -0.000439933               0.001565535               0.001125602               0.000000000               0.000000000               0.000000000               0.000000000               0.000318495               0.004442060              -0.000819616              -0.000435821               0.001625946               0.001190124               0.000000000               0.000000000               0.000000000               0.000000000               0.000396030               0.004580418              -0.000737295              -0.000424040               0.001668138               0.001244097               0.000000000               0.000000000               0.000000000               0.000000000               0.000484108               0.004686804              -0.000658735              -0.000404309               0.001697022               0.001292713               0.000000000               0.000000000               0.000000000               0.000000000               0.000585106               0.004770611              -0.000579793              -0.000376911               0.001715825               0.001338914               0.000000000               0.000000000               0.000000000               0.000000000               0.000700695               0.004834679              -0.000488304              -0.000341574               0.001725402               0.001383828               0.000000000               0.000000000               0.000000000               0.000000000               0.000828525               0.004877627              -0.000369546              -0.000299006               0.001725528               0.001426522               0.000000000               0.000000000               0.000000000               0.000000000               0.000964262               0.004902155              -0.000207548              -0.000251171               0.001717759               0.001466588               0.000000000               0.000000000               0.000000000               0.000000000               0.001058041               0.004918047              -0.000115460              -0.000217990               0.001711996               0.001494006               0.000000000               0.000000000               0.000000000               0.000000000              -0.004478685              -0.000326887               0.000088480              -0.001638645               0.000437250              -0.001201395               0.000000000               0.000000000               0.000000000               0.000000000              -0.002453805               0.000205389              -0.000278767              -0.000945849               0.000383743              -0.000562106               0.000000000               0.000000000               0.000000000               0.000000000              -0.000969998               0.000776928              -0.000613684              -0.000460865               0.000412594              -0.000048270               0.000000000               0.000000000               0.000000000               0.000000000              -0.000288566               0.001497331              -0.000707011              -0.000295378               0.000597564               0.000302186               0.000000000               0.000000000               0.000000000               0.000000000               0.000043808               0.002161181              -0.000705353              -0.000253720               0.000804960               0.000551240               0.000000000               0.000000000               0.000000000               0.000000000               0.000212057               0.002729630              -0.000667529              -0.000261682               0.000997095               0.000735413               0.000000000               0.000000000               0.000000000               0.000000000               0.000303662               0.003203206              -0.000617003              -0.000286527               0.001163234               0.000876706               0.000000000               0.000000000               0.000000000               0.000000000               0.000364227               0.003587283              -0.000562925              -0.000311825               0.001299691               0.000987866               0.000000000               0.000000000               0.000000000               0.000000000               0.000420162               0.003895127              -0.000511460              -0.000329330               0.001408139               0.001078809               0.000000000               0.000000000               0.000000000               0.000000000               0.000479876               0.004139493              -0.000465401              -0.000337483               0.001492311               0.001154829               0.000000000               0.000000000               0.000000000               0.000000000               0.000553218               0.004335598              -0.000423224              -0.000334492               0.001556682               0.001222190               0.000000000               0.000000000               0.000000000               0.000000000               0.000648458               0.004499569              -0.000383739              -0.000319274               0.001606266               0.001286992               0.000000000               0.000000000               0.000000000               0.000000000               0.000769501               0.004637753              -0.000344375              -0.000291156               0.001642954               0.001351799               0.000000000               0.000000000               0.000000000               0.000000000               0.000920189               0.004749408              -0.000296434              -0.000248605               0.001665988               0.001417384               0.000000000               0.000000000               0.000000000               0.000000000               0.001109893               0.004830989              -0.000229676              -0.000187663               0.001672868               0.001485205               0.000000000               0.000000000               0.000000000               0.000000000               0.001352742               0.004882203              -0.000132174              -0.000102997               0.001661717               0.001558720               0.000000000               0.000000000               0.000000000               0.000000000               0.001553291               0.004922639              -0.000077372              -0.000032846               0.001651812               0.001618966               0.000000000               0.000000000               0.000000000               0.000000000              -0.004678338              -0.000374551               0.000000000              -0.001707557               0.000444332              -0.001263225               0.000000000               0.000000000               0.000000000               0.000000000              -0.002558932               0.000090803              -0.000000000              -0.000970949               0.000353915              -0.000617034               0.000000000               0.000000000               0.000000000               0.000000000              -0.000972781               0.000590221              -0.000000000              -0.000438570               0.000342928              -0.000095642               0.000000000               0.000000000               0.000000000               0.000000000              -0.000238021               0.001289735               0.000000000              -0.000250474               0.000513399               0.000262924               0.000000000               0.000000000               0.000000000               0.000000000               0.000117458               0.001954734              -0.000000000              -0.000200295               0.000718336               0.000518042               0.000000000               0.000000000               0.000000000               0.000000000               0.000294432               0.002532091              -0.000000000              -0.000206099               0.000912722               0.000706623               0.000000000               0.000000000               0.000000000               0.000000000               0.000384534               0.003023901              -0.000000000              -0.000233787               0.001085886               0.000852099               0.000000000               0.000000000               0.000000000               0.000000000               0.000438418               0.003432731               0.000000000              -0.000264684               0.001232460               0.000967776               0.000000000               0.000000000               0.000000000               0.000000000               0.000484613               0.003761961              -0.000000000              -0.000288514               0.001350146               0.001061632               0.000000000               0.000000000               0.000000000               0.000000000               0.000539817               0.004026769              -0.000000000              -0.000300914               0.001442548               0.001141634               0.000000000               0.000000000               0.000000000               0.000000000               0.000612027               0.004244751               0.000000000              -0.000301083               0.001515264               0.001214181               0.000000000               0.000000000               0.000000000               0.000000000               0.000710611               0.004432486              -0.000000000              -0.000287581               0.001573341               0.001285760               0.000000000               0.000000000               0.000000000               0.000000000               0.000838730               0.004591559              -0.000000000              -0.000259420               0.001616978               0.001357557               0.000000000               0.000000000               0.000000000               0.000000000               0.001003487               0.004719435              -0.000000000              -0.000213621               0.001644336               0.001430715               0.000000000               0.000000000               0.000000000               0.000000000               0.001220131               0.004815779              -0.000000000              -0.000144423               0.001653385               0.001508962               0.000000000               0.000000000               0.000000000               0.000000000               0.001510102               0.004875685              -0.000000000              -0.000043172               0.001639603               0.001596431               0.000000000               0.000000000               0.000000000               0.000000000               0.001757635               0.004923966               0.000000000               0.000043617               0.001626766               0.001670384               0.000000000               0.000000000               0.000000000               0.000000000               0.000000000               0.000000000               0.000000000               0.000000000               0.000000000               0.000000000               0.000000000               0.000000000               0.000000000               0.000000000               0.000000000               0.000000000               0.000000000               0.000000000               0.000000000               0.000000000               0.000000000               0.000000000               0.000000000               0.000000000               0.000000000               0.000000000               0.000000000               0.000000000               0.000000000               0.000000000               0.000000000               0.000000000               0.000000000               0.000000000               0.000000000               0.000000000               0.000000000               0.000000000               0.000000000               0.000000000               0.000000000               0.000000000               0.000000000               0.000000000               0.000000000               0.000000000               0.000000000               0.000000000               0.000000000               0.000000000               0.000000000               0.000000000               0.000000000               0.000000000               0.000000000               0.000000000               0.000000000               0.000000000               0.000000000               0.000000000               0.000000000               0.000000000               0.000000000               0.000000000               0.000000000               0.000000000               0.000000000               0.000000000               0.000000000               0.000000000               0.000000000               0.000000000               0.000000000               0.000000000               0.000000000               0.000000000               0.000000000               0.000000000               0.000000000               0.000000000               0.000000000               0.000000000               0.000000000               0.000000000               0.000000000               0.000000000               0.000000000               0.000000000               0.000000000               0.000000000               0.000000000               0.000000000               0.000000000               0.000000000               0.000000000               0.000000000               0.000000000               0.000000000               0.000000000               0.000000000               0.000000000               0.000000000               0.000000000               0.000000000               0.000000000               0.000000000               0.000000000               0.000000000               0.000000000               0.000000000               0.000000000               0.000000000               0.000000000               0.000000000               0.000000000               0.000000000               0.000000000               0.000000000               0.000000000               0.000000000               0.000000000               0.000000000               0.000000000               0.000000000               0.000000000               0.000000000               0.000000000               0.000000000               0.000000000               0.000000000               0.000000000               0.000000000               0.000000000               0.000000000               0.000000000               0.000000000               0.000000000               0.000000000               0.000000000               0.000000000               0.000000000               0.000000000               0.000000000               0.000000000               0.000000000               0.000000000               0.000000000               0.000000000               0.000000000               0.000000000               0.000000000               0.000000000               0.000000000               0.000000000               0.000000000               0.000000000               0.000000000               0.000000000               0.000000000               0.000000000               0.000000000               0.000000000               0.000000000               0.000000000               0.000000000               0.000000000               0.000000000               0.000000000               0.000000000               0.000000000               0.000000000               0.000000000               0.000000000               0.000000000               0.001600793               0.016826632               0.001218809              -0.001503028               0.006109831               0.004606802               0.000000000               0.000000000               0.000000000               0.000000000               0.001581224               0.013514868               0.000680772              -0.001096397               0.004870377               0.003773980               0.000000000               0.000000000               0.000000000               0.000000000               0.002057621               0.010864916               0.000139173              -0.000586505               0.003817104               0.003230599               0.000000000               0.000000000               0.000000000               0.000000000               0.002012399               0.009384253              -0.000096917              -0.000418381               0.003267514               0.002849132               0.000000000               0.000000000               0.000000000               0.000000000               0.001794022               0.008478194              -0.000203235              -0.000387015               0.002955041               0.002568026               0.000000000               0.000000000               0.000000000               0.000000000               0.001523767               0.007887170              -0.000251584              -0.000414483               0.002767191               0.002352708               0.000000000               0.000000000               0.000000000               0.000000000               0.001255984               0.007478595              -0.000266785              -0.000463829               0.002647450               0.002183621               0.000000000               0.000000000               0.000000000               0.000000000               0.001016867               0.007173700              -0.000263045              -0.000515386               0.002563005               0.002047619               0.000000000               0.000000000               0.000000000               0.000000000               0.000812051               0.006926975              -0.000253056              -0.000561351               0.002496086               0.001934734               0.000000000               0.000000000               0.000000000               0.000000000               0.000635492               0.006713239              -0.000239242              -0.000600844               0.002438005               0.001837161               0.000000000               0.000000000               0.000000000               0.000000000               0.000482230               0.006518602              -0.000222427              -0.000633987               0.002384175               0.001750187               0.000000000               0.000000000               0.000000000               0.000000000               0.000348022               0.006334424              -0.000207525              -0.000661293               0.002331885               0.001670592               0.000000000               0.000000000               0.000000000               0.000000000               0.000233686               0.006152160              -0.000192025              -0.000681386               0.002277828               0.001596442               0.000000000               0.000000000               0.000000000               0.000000000               0.000145316               0.005965529              -0.000167904              -0.000691196               0.002218888               0.001527693               0.000000000               0.000000000               0.000000000               0.000000000               0.000076849               0.005763000              -0.000131396              -0.000691555               0.002151499               0.001459944               0.000000000               0.000000000               0.000000000               0.000000000               0.000029052               0.005536316              -0.000076843              -0.000681143               0.002072468               0.001391325               0.000000000               0.000000000               0.000000000               0.000000000              -0.000005829               0.005365753              -0.000047365              -0.000672903               0.002012867               0.001339964               0.000000000               0.000000000               0.000000000               0.000000000               0.001789939               0.015887146               0.002289331              -0.001314664               0.005733884               0.004419220               0.000000000               0.000000000               0.000000000               0.000000000               0.001553232               0.012888842               0.001284060              -0.001028641               0.004639118               0.003610477               0.000000000               0.000000000               0.000000000               0.000000000               0.001793597               0.010566077               0.000278556              -0.000648159               0.003738044               0.003089884               0.000000000               0.000000000               0.000000000               0.000000000               0.001656061               0.009258433              -0.000149456              -0.000536280               0.003264873               0.002728594               0.000000000               0.000000000               0.000000000               0.000000000               0.001419074               0.008446286              -0.000337232              -0.000523632               0.002989944               0.002466313               0.000000000               0.000000000               0.000000000               0.000000000               0.001166006               0.007899904              -0.000419356              -0.000550234               0.002816686               0.002266452               0.000000000               0.000000000               0.000000000               0.000000000               0.000930599               0.007505783              -0.000444337              -0.000589247               0.002698318               0.002109071               0.000000000               0.000000000               0.000000000               0.000000000               0.000729129               0.007201995              -0.000436569              -0.000626825               0.002609582               0.001982758               0.000000000               0.000000000               0.000000000               0.000000000               0.000559546               0.006949746              -0.000415825              -0.000658887               0.002536188               0.001877301               0.000000000               0.000000000               0.000000000               0.000000000               0.000418065               0.006732323              -0.000391564              -0.000684764               0.002472340               0.001787576               0.000000000               0.000000000               0.000000000               0.000000000               0.000300677               0.006543146              -0.000365853              -0.000705138               0.002416073               0.001710935               0.000000000               0.000000000               0.000000000               0.000000000               0.000197527               0.006367867              -0.000336630              -0.000721909               0.002363237               0.001641328               0.000000000               0.000000000               0.000000000               0.000000000               0.000114306               0.006192393              -0.000301863              -0.000731182               0.002307838               0.001576655               0.000000000               0.000000000               0.000000000               0.000000000               0.000059540               0.006017865              -0.000256149              -0.000729904               0.002249236               0.001519332               0.000000000               0.000000000               0.000000000               0.000000000               0.000024485               0.005843680              -0.000194451              -0.000721276               0.002188299               0.001467023               0.000000000               0.000000000               0.000000000               0.000000000               0.000006777               0.005672080              -0.000110320              -0.000706467               0.002126163               0.001419696               0.000000000               0.000000000               0.000000000               0.000000000              -0.000008850               0.005557145              -0.000065867              -0.000697960               0.002085016               0.001387056               0.000000000               0.000000000               0.000000000               0.000000000               0.002022117               0.014458638               0.003088537              -0.001049035               0.005169176               0.004120140               0.000000000               0.000000000               0.000000000               0.000000000               0.001477829               0.011949352               0.001746563              -0.000939482               0.004296238               0.003356756               0.000000000               0.000000000               0.000000000               0.000000000               0.001389063               0.010123675               0.000417410              -0.000744559               0.003622711               0.002878152               0.000000000               0.000000000               0.000000000               0.000000000               0.001142347               0.009061775              -0.000127817              -0.000704340               0.003255341               0.002551001               0.000000000               0.000000000               0.000000000               0.000000000               0.000893078               0.008373768              -0.000358627              -0.000711815               0.003028500               0.002316685               0.000000000               0.000000000               0.000000000               0.000000000               0.000673854               0.007887105              -0.000456289              -0.000733191               0.002873406               0.002140215               0.000000000               0.000000000               0.000000000               0.000000000               0.000493274               0.007515225              -0.000486735              -0.000754424               0.002756525               0.002002101               0.000000000               0.000000000               0.000000000               0.000000000               0.000348650               0.007213023              -0.000477587              -0.000770882               0.002661278               0.001890395               0.000000000               0.000000000               0.000000000               0.000000000               0.000232383               0.006958487              -0.000453052              -0.000782665               0.002580361               0.001797696               0.000000000               0.000000000               0.000000000               0.000000000               0.000140905               0.006742803              -0.000426376              -0.000790009               0.002510915               0.001720906               0.000000000               0.000000000               0.000000000               0.000000000               0.000067629               0.006553394              -0.000397329              -0.000793811               0.002449047               0.001655235               0.000000000               0.000000000               0.000000000               0.000000000               0.000009749               0.006376314              -0.000359529              -0.000793381               0.002389877               0.001596496               0.000000000               0.000000000               0.000000000               0.000000000              -0.000028450               0.006207047              -0.000313974              -0.000786548               0.002331177               0.001544630               0.000000000               0.000000000               0.000000000               0.000000000              -0.000046256               0.006048461              -0.000260674              -0.000773402               0.002273934               0.001500532               0.000000000               0.000000000               0.000000000               0.000000000              -0.000046985               0.005907301              -0.000193352              -0.000756030               0.002221091               0.001465061               0.000000000               0.000000000               0.000000000               0.000000000              -0.000029498               0.005788576              -0.000106899              -0.000734632               0.002174383               0.001439751               0.000000000               0.000000000               0.000000000               0.000000000              -0.000023030               0.005720013              -0.000062185              -0.000723636               0.002147864               0.001424228               0.000000000               0.000000000               0.000000000               0.000000000               0.002197364               0.012705660               0.003553488              -0.000764197               0.004489909               0.003725712               0.000000000               0.000000000               0.000000000               0.000000000               0.001326729               0.010815051               0.002043385              -0.000854357               0.003889766               0.003035409               0.000000000               0.000000000               0.000000000               0.000000000               0.000889922               0.009592452               0.000564100              -0.000865334               0.003485897               0.002620563               0.000000000               0.000000000               0.000000000               0.000000000               0.000557196               0.008805072              -0.000016340              -0.000891683               0.003232223               0.002340539               0.000000000               0.000000000               0.000000000               0.000000000               0.000323657               0.008246300              -0.000256323              -0.000909414               0.003051877               0.002142463               0.000000000               0.000000000               0.000000000               0.000000000               0.000163752               0.007819702              -0.000358128              -0.000916054               0.002911892               0.001995839               0.000000000               0.000000000               0.000000000               0.000000000               0.000052824               0.007466494              -0.000392509              -0.000913500               0.002793306               0.001879806               0.000000000               0.000000000               0.000000000               0.000000000              -0.000022527               0.007167926              -0.000388799              -0.000904436               0.002690763               0.001786327               0.000000000               0.000000000               0.000000000               0.000000000              -0.000076300               0.006914426              -0.000372403              -0.000892914               0.002602424               0.001709510               0.000000000               0.000000000               0.000000000               0.000000000              -0.000111723               0.006697874              -0.000354195              -0.000879128               0.002525645               0.001646517               0.000000000               0.000000000               0.000000000               0.000000000              -0.000130323               0.006503233              -0.000331432              -0.000861773               0.002454980               0.001593207               0.000000000               0.000000000               0.000000000               0.000000000              -0.000136678               0.006322566              -0.000298958              -0.000841573               0.002388025               0.001546452               0.000000000               0.000000000               0.000000000               0.000000000              -0.000129857               0.006160256              -0.000257997              -0.000818726               0.002326307               0.001507580               0.000000000               0.000000000               0.000000000               0.000000000              -0.000110789               0.006020758              -0.000212469              -0.000794139               0.002271612               0.001477474               0.000000000               0.000000000               0.000000000               0.000000000              -0.000082682               0.005908866              -0.000155629              -0.000769612               0.002226140               0.001456528               0.000000000               0.000000000               0.000000000               0.000000000              -0.000045494               0.005827910              -0.000083287              -0.000745547               0.002191133               0.001445586               0.000000000               0.000000000               0.000000000               0.000000000              -0.000027432               0.005790634              -0.000046000              -0.000734115               0.002174897               0.001440782               0.000000000               0.000000000               0.000000000               0.000000000               0.002226138               0.010801281               0.003684945              -0.000515361               0.003772177               0.003256816               0.000000000               0.000000000               0.000000000               0.000000000               0.001084275               0.009607244               0.002188259              -0.000794302               0.003467149               0.002672848               0.000000000               0.000000000               0.000000000               0.000000000               0.000351353               0.009019028               0.000732931              -0.000995619               0.003338186               0.002342567               0.000000000               0.000000000               0.000000000               0.000000000              -0.000011219               0.008492794               0.000180949              -0.001065804               0.003186171               0.002120367               0.000000000               0.000000000               0.000000000               0.000000000              -0.000190476               0.008051224              -0.000049328              -0.001077829               0.003042991               0.001965162               0.000000000               0.000000000               0.000000000               0.000000000              -0.000273390               0.007673142              -0.000152172              -0.001061661               0.002911575               0.001849914               0.000000000               0.000000000               0.000000000               0.000000000              -0.000307059               0.007339546              -0.000196420              -0.001032588               0.002790687               0.001758099               0.000000000               0.000000000               0.000000000               0.000000000              -0.000310594               0.007047799              -0.000211270              -0.000997445               0.002681725               0.001684279               0.000000000               0.000000000               0.000000000               0.000000000              -0.000298902               0.006795949              -0.000215363              -0.000961580               0.002585820               0.001624241               0.000000000               0.000000000               0.000000000               0.000000000              -0.000277507               0.006573592              -0.000215747              -0.000925762               0.002499763               0.001574001               0.000000000               0.000000000               0.000000000               0.000000000              -0.000244630               0.006372142              -0.000207052              -0.000888252               0.002420110               0.001531858               0.000000000               0.000000000               0.000000000               0.000000000              -0.000204913               0.006190640              -0.000188389              -0.000850670               0.002347083               0.001496412               0.000000000               0.000000000               0.000000000               0.000000000              -0.000161399               0.006033437              -0.000161823              -0.000814702               0.002282693               0.001467991               0.000000000               0.000000000               0.000000000               0.000000000              -0.000116238               0.005903029              -0.000130303              -0.000781466               0.002228145               0.001446679               0.000000000               0.000000000               0.000000000               0.000000000              -0.000073799               0.005797834              -0.000088653              -0.000752402               0.002183393               0.001430991               0.000000000               0.000000000               0.000000000               0.000000000              -0.000035807               0.005721913              -0.000041189              -0.000728665               0.002150173               0.001421509               0.000000000               0.000000000               0.000000000               0.000000000              -0.000020536               0.005687060              -0.000020499              -0.000718582               0.002135195               0.001416613               0.000000000               0.000000000               0.000000000               0.000000000               0.002061429               0.008898726               0.003528898              -0.000339308               0.003079314               0.002740006               0.000000000               0.000000000               0.000000000               0.000000000               0.000765497               0.008420241               0.002217762              -0.000765469               0.003061874               0.002296406               0.000000000               0.000000000               0.000000000               0.000000000              -0.000163702               0.008425169               0.000933889              -0.001114532               0.003179872               0.002065340               0.000000000               0.000000000               0.000000000               0.000000000              -0.000490178               0.008121123               0.000444265              -0.001198954               0.003106665               0.001907711               0.000000000               0.000000000               0.000000000               0.000000000              -0.000584584               0.007777305               0.000225303              -0.001191379               0.002989535               0.001798156               0.000000000               0.000000000               0.000000000               0.000000000              -0.000580727               0.007445307               0.000109225              -0.001148433               0.002864555               0.001716122               0.000000000               0.000000000               0.000000000               0.000000000              -0.000538622               0.007137587               0.000040410              -0.001094179               0.002743898               0.001649719               0.000000000               0.000000000               0.000000000               0.000000000              -0.000484532               0.006855244              -0.000004060              -0.001038602               0.002631259               0.001592657               0.000000000               0.000000000               0.000000000               0.000000000              -0.000421549               0.006606908              -0.000036566              -0.000983942               0.002530261               0.001546319               0.000000000               0.000000000               0.000000000               0.000000000              -0.000355167               0.006384967              -0.000058358              -0.000931306               0.002438736               0.001507430               0.000000000               0.000000000               0.000000000               0.000000000              -0.000282521               0.006182463              -0.000067843              -0.000878751               0.002353717               0.001474967               0.000000000               0.000000000               0.000000000               0.000000000              -0.000210310               0.005999799              -0.000066339              -0.000828839               0.002276192               0.001447354               0.000000000               0.000000000               0.000000000               0.000000000              -0.000150224               0.005837149              -0.000056910              -0.000785976               0.002207689               0.001421713               0.000000000               0.000000000               0.000000000               0.000000000              -0.000100342               0.005697651              -0.000042809              -0.000749833               0.002149142               0.001399310               0.000000000               0.000000000               0.000000000               0.000000000              -0.000056298               0.005582439              -0.000023183              -0.000718915               0.002100433               0.001381518               0.000000000               0.000000000               0.000000000               0.000000000              -0.000023096               0.005492874              -0.000005850              -0.000695269               0.002062696               0.001367427               0.000000000               0.000000000               0.000000000               0.000000000              -0.000017837               0.005442041              -0.000004366              -0.000686942               0.002042976               0.001356034               0.000000000               0.000000000               0.000000000               0.000000000               0.001715675               0.007109453               0.003153704              -0.000245307               0.002451562               0.002206255               0.000000000               0.000000000               0.000000000               0.000000000               0.000401250               0.007312110               0.002171087              -0.000763545               0.002691860               0.001928315               0.000000000               0.000000000               0.000000000               0.000000000              -0.000591540               0.007813763               0.001167957              -0.001198545               0.003004077               0.001805531               0.000000000               0.000000000               0.000000000               0.000000000              -0.000828217               0.007691400               0.000742072              -0.001272003               0.002987775               0.001715772               0.000000000               0.000000000               0.000000000               0.000000000              -0.000824429               0.007436007               0.000514023              -0.001238659               0.002891530               0.001652872               0.000000000               0.000000000               0.000000000               0.000000000              -0.000740592               0.007153514               0.000367252              -0.001171908               0.002775117               0.001603208               0.000000000               0.000000000               0.000000000               0.000000000              -0.000640715               0.006871408               0.000264750              -0.001099191               0.002656844               0.001557652               0.000000000               0.000000000               0.000000000               0.000000000              -0.000544953               0.006605987               0.000188570              -0.001030103               0.002545341               0.001515238               0.000000000               0.000000000               0.000000000               0.000000000              -0.000448429               0.006369095               0.000126585              -0.000964295               0.002444442               0.001480147               0.000000000               0.000000000               0.000000000               0.000000000              -0.000354161               0.006151256               0.000081586              -0.000901715               0.002350970               0.001449255               0.000000000               0.000000000               0.000000000               0.000000000              -0.000265978               0.005946932               0.000053942              -0.000843106               0.002263326               0.001420220               0.000000000               0.000000000               0.000000000               0.000000000              -0.000189697               0.005757963               0.000037845              -0.000790880               0.002182928               0.001392049               0.000000000               0.000000000               0.000000000               0.000000000              -0.000129266               0.005588829               0.000027299              -0.000747076               0.002111950               0.001364873               0.000000000               0.000000000               0.000000000               0.000000000              -0.000078004               0.005444788               0.000018275              -0.000709848               0.002051527               0.001341679               0.000000000               0.000000000               0.000000000               0.000000000              -0.000037573               0.005326440               0.000012754              -0.000679893               0.002002093               0.001322200               0.000000000               0.000000000               0.000000000               0.000000000              -0.000014649               0.005230441               0.000007351              -0.000659297               0.001963228               0.001303932               0.000000000               0.000000000               0.000000000               0.000000000              -0.000015937               0.005172783              -0.000001769              -0.000652573               0.001941768               0.001289195               0.000000000               0.000000000               0.000000000               0.000000000               0.001266297               0.005563857               0.002647716              -0.000220623               0.001928140               0.001707517               0.000000000               0.000000000               0.000000000               0.000000000               0.000063694               0.006310645               0.002093032              -0.000764945               0.002358508               0.001593563               0.000000000               0.000000000               0.000000000               0.000000000              -0.000887147               0.007219220               0.001440875              -0.001235080               0.002818076               0.001582996               0.000000000               0.000000000               0.000000000               0.000000000              -0.001023339               0.007286189               0.001057318              -0.001294523               0.002860213               0.001565690               0.000000000               0.000000000               0.000000000               0.000000000              -0.000944182               0.007132710               0.000803428              -0.001245654               0.002792764               0.001547110               0.000000000               0.000000000               0.000000000               0.000000000              -0.000803013               0.006906009               0.000621113              -0.001164378               0.002690106               0.001525728               0.000000000               0.000000000               0.000000000               0.000000000              -0.000660002               0.006655262               0.000484322              -0.001079406               0.002578200               0.001498794               0.000000000               0.000000000               0.000000000               0.000000000              -0.000532212               0.006416585               0.000376007              -0.001001650               0.002472724               0.001471073               0.000000000               0.000000000               0.000000000               0.000000000              -0.000417491               0.006196229               0.000286607              -0.000931086               0.002375751               0.001444665               0.000000000               0.000000000               0.000000000               0.000000000              -0.000314122               0.005979643               0.000218088              -0.000865249               0.002281611               0.001416362               0.000000000               0.000000000               0.000000000               0.000000000              -0.000224546               0.005769506               0.000168707              -0.000805391               0.002191613               0.001386222               0.000000000               0.000000000               0.000000000               0.000000000              -0.000153755               0.005574051               0.000129892              -0.000754413               0.002109469               0.001355057               0.000000000               0.000000000               0.000000000               0.000000000              -0.000100137               0.005403833               0.000095485              -0.000713029               0.002038936               0.001325907               0.000000000               0.000000000               0.000000000               0.000000000              -0.000059234               0.005262406               0.000061844              -0.000680012               0.001980788               0.001300776               0.000000000               0.000000000               0.000000000               0.000000000              -0.000036927               0.005144957               0.000034111              -0.000656966               0.001933957               0.001276992               0.000000000               0.000000000               0.000000000               0.000000000              -0.000038367               0.005047591               0.000014757              -0.000645335               0.001897625               0.001252290               0.000000000               0.000000000               0.000000000               0.000000000              -0.000046049               0.004997461               0.000004424              -0.000641949               0.001879787               0.001237838               0.000000000               0.000000000               0.000000000               0.000000000               0.000699139               0.004101588               0.002091358              -0.000250523               0.001450689               0.001200166               0.000000000               0.000000000               0.000000000               0.000000000              -0.000193954               0.005155044               0.001995976              -0.000717113               0.001957368               0.001240255               0.000000000               0.000000000               0.000000000               0.000000000              -0.001003384               0.006358244               0.001736979              -0.001171048               0.002509742               0.001338695               0.000000000               0.000000000               0.000000000               0.000000000              -0.001094786               0.006677418               0.001406376              -0.001245219               0.002640857               0.001395637               0.000000000               0.000000000               0.000000000               0.000000000              -0.000993717               0.006690612               0.001132102              -0.001208968               0.002633171               0.001424203               0.000000000               0.000000000               0.000000000               0.000000000              -0.000839288               0.006574894               0.000917247              -0.001136592               0.002570473               0.001433881               0.000000000               0.000000000               0.000000000               0.000000000              -0.000681605               0.006406107               0.000745132              -0.001056363               0.002487468               0.001431106               0.000000000               0.000000000               0.000000000               0.000000000              -0.000538475               0.006233647               0.000601778              -0.000981132               0.002404905               0.001423774               0.000000000               0.000000000               0.000000000               0.000000000              -0.000418470               0.006060536               0.000483118              -0.000914491               0.002324989               0.001410498               0.000000000               0.000000000               0.000000000               0.000000000              -0.000317991               0.005877675               0.000387760              -0.000853954               0.002243857               0.001389903               0.000000000               0.000000000               0.000000000               0.000000000              -0.000232698               0.005689444               0.000308251              -0.000798440               0.002162609               0.001364169               0.000000000               0.000000000               0.000000000               0.000000000              -0.000167258               0.005505718               0.000239110              -0.000750935               0.002085533               0.001334598               0.000000000               0.000000000               0.000000000               0.000000000              -0.000119931               0.005340112               0.000176841              -0.000712487               0.002017515               0.001305029               0.000000000               0.000000000               0.000000000               0.000000000              -0.000088011               0.005201338               0.000117468              -0.000683170               0.001961485               0.001278315               0.000000000               0.000000000               0.000000000               0.000000000              -0.000074968               0.005083114               0.000063244              -0.000663501               0.001915521               0.001252021               0.000000000               0.000000000               0.000000000               0.000000000              -0.000083536               0.004986759               0.000022059              -0.000654669               0.001880460               0.001225790               0.000000000               0.000000000               0.000000000               0.000000000              -0.000094671               0.004944084               0.000005009              -0.000653510               0.001865848               0.001212338               0.000000000               0.000000000               0.000000000               0.000000000              -0.000081347               0.002766118               0.001509263              -0.000376270               0.001047453               0.000671182               0.000000000               0.000000000               0.000000000               0.000000000              -0.000491854               0.004004162               0.001836456              -0.000684965               0.001563028               0.000878063               0.000000000               0.000000000               0.000000000               0.000000000              -0.001038445               0.005380358               0.001965529              -0.001061960               0.002147421               0.001085461               0.000000000               0.000000000               0.000000000               0.000000000              -0.001089144               0.005935317               0.001737524              -0.001150341               0.002361866               0.001211525               0.000000000               0.000000000               0.000000000               0.000000000              -0.000985083               0.006138491               0.001473520              -0.001136715               0.002425048               0.001288333               0.000000000               0.000000000               0.000000000               0.000000000              -0.000835322               0.006166318               0.001239603              -0.001084033               0.002416763               0.001332730               0.000000000               0.000000000               0.000000000               0.000000000              -0.000680876               0.006110434               0.001039784              -0.001019131               0.002376501               0.001357371               0.000000000               0.000000000               0.000000000               0.000000000              -0.000533227               0.006025123               0.000869053              -0.000953098               0.002326054               0.001372955               0.000000000               0.000000000               0.000000000               0.000000000              -0.000404903               0.005915939               0.000724751              -0.000891329               0.002269070               0.001377741               0.000000000               0.000000000               0.000000000               0.000000000              -0.000306512               0.005781738               0.000603107              -0.000837657               0.002206446               0.001368788               0.000000000               0.000000000               0.000000000               0.000000000              -0.000227155               0.005633771               0.000495758              -0.000789403               0.002141039               0.001351636               0.000000000               0.000000000               0.000000000               0.000000000              -0.000162185               0.005477342               0.000397759              -0.000745486               0.002074258               0.001328772               0.000000000               0.000000000               0.000000000               0.000000000              -0.000116801               0.005325114               0.000306415              -0.000709438               0.002011500               0.001302062               0.000000000               0.000000000               0.000000000               0.000000000              -0.000089800               0.005191463               0.000217904              -0.000682606               0.001958006               0.001275400               0.000000000               0.000000000               0.000000000               0.000000000              -0.000080901               0.005078767               0.000132458              -0.000665182               0.001914633               0.001249451               0.000000000               0.000000000               0.000000000               0.000000000              -0.000094503               0.004987479               0.000057142              -0.000658872               0.001882100               0.001223229               0.000000000               0.000000000               0.000000000               0.000000000              -0.000116391               0.004941491               0.000020106              -0.000661331               0.001867591               0.001206260               0.000000000               0.000000000               0.000000000               0.000000000              -0.001026083               0.001644554               0.000936799              -0.000590349               0.000744962               0.000154612               0.000000000               0.000000000               0.000000000               0.000000000              -0.000874527               0.002915554               0.001587723              -0.000692391               0.001202638               0.000510247               0.000000000               0.000000000               0.000000000               0.000000000              -0.001035745               0.004293290               0.002037308              -0.000925065               0.001739437               0.000814372               0.000000000               0.000000000               0.000000000               0.000000000              -0.000991658               0.005016503               0.001943843              -0.000998933               0.002005128               0.001006195               0.000000000               0.000000000               0.000000000               0.000000000              -0.000880133               0.005395339               0.001727173              -0.001004465               0.002133250               0.001128784               0.000000000               0.000000000               0.000000000               0.000000000              -0.000744578               0.005580582               0.001500575              -0.000976788               0.002185771               0.001208983               0.000000000               0.000000000               0.000000000               0.000000000              -0.000600650               0.005656630               0.001292958              -0.000932321               0.002196298               0.001263977               0.000000000               0.000000000               0.000000000               0.000000000              -0.000462058               0.005673282               0.001110156              -0.000882430               0.002185218               0.001302788               0.000000000               0.000000000               0.000000000               0.000000000              -0.000336707               0.005646252               0.000950050              -0.000832045               0.002159413               0.001327368               0.000000000               0.000000000               0.000000000               0.000000000              -0.000234341               0.005581180               0.000811488              -0.000785524               0.002122216               0.001336692               0.000000000               0.000000000               0.000000000               0.000000000              -0.000155099               0.005486859               0.000690106              -0.000744018               0.002076941               0.001332923               0.000000000               0.000000000               0.000000000               0.000000000              -0.000089498               0.005375143               0.000574510              -0.000705453               0.002026847               0.001321394               0.000000000               0.000000000               0.000000000               0.000000000              -0.000041306               0.005259314               0.000457732              -0.000672902               0.001977388               0.001304486               0.000000000               0.000000000               0.000000000               0.000000000              -0.000014135               0.005152776               0.000342330              -0.000649396               0.001934040               0.001284644               0.000000000               0.000000000               0.000000000               0.000000000              -0.000008924               0.005060196               0.000227852              -0.000635870               0.001898672               0.001262802               0.000000000               0.000000000               0.000000000               0.000000000              -0.000031449               0.004981955               0.000111742              -0.000634536               0.001872147               0.001237611               0.000000000               0.000000000               0.000000000               0.000000000              -0.000065133               0.004938107               0.000048942              -0.000641687               0.001859915               0.001218228               0.000000000               0.000000000               0.000000000               0.000000000              -0.002059614               0.000789050               0.000444278              -0.000870985               0.000553341              -0.000317644               0.000000000               0.000000000               0.000000000               0.000000000              -0.001313661               0.001942378               0.001272577              -0.000735419               0.000892592               0.000157173               0.000000000               0.000000000               0.000000000               0.000000000              -0.001013166               0.003180115               0.001928292              -0.000777451               0.001319177               0.000541726               0.000000000               0.000000000               0.000000000               0.000000000              -0.000821342               0.003989239               0.001963109              -0.000806657               0.001598618               0.000791961               0.000000000               0.000000000               0.000000000               0.000000000              -0.000679740               0.004509356               0.001815430              -0.000818571               0.001775960               0.000957389               0.000000000               0.000000000               0.000000000               0.000000000              -0.000553389               0.004841409               0.001625330              -0.000812696               0.001884685               0.001071989               0.000000000               0.000000000               0.000000000               0.000000000              -0.000428244               0.005048717               0.001434962              -0.000791680               0.001946782               0.001155102               0.000000000               0.000000000               0.000000000               0.000000000              -0.000306988               0.005175620               0.001257703              -0.000762072               0.001979213               0.001217141               0.000000000               0.000000000               0.000000000               0.000000000              -0.000194627               0.005243215               0.001099386              -0.000728386               0.001990516               0.001262130               0.000000000               0.000000000               0.000000000               0.000000000              -0.000091497               0.005258772               0.000960956              -0.000691657               0.001983458               0.001291802               0.000000000               0.000000000               0.000000000               0.000000000              -0.000005481               0.005234177               0.000837655              -0.000656326               0.001963484               0.001307157               0.000000000               0.000000000               0.000000000               0.000000000               0.000063097               0.005186202               0.000717871              -0.000624612               0.001936921               0.001312308               0.000000000               0.000000000               0.000000000               0.000000000               0.000120508               0.005126343               0.000592946              -0.000595601               0.001907298               0.001311697               0.000000000               0.000000000               0.000000000               0.000000000               0.000164952               0.005068897               0.000462524              -0.000571754               0.001880200               0.001308446               0.000000000               0.000000000               0.000000000               0.000000000               0.000184986               0.005015920               0.000324066              -0.000557619               0.001857830               0.001300211               0.000000000               0.000000000               0.000000000               0.000000000               0.000169719               0.004965319               0.000169590              -0.000557019               0.001840763               0.001283744               0.000000000               0.000000000               0.000000000               0.000000000               0.000137064               0.004932187               0.000082960              -0.000565123               0.001832420               0.001267297               0.000000000               0.000000000               0.000000000               0.000000000              -0.003066320               0.000200259               0.000096226              -0.001174901               0.000458384              -0.000716518               0.000000000               0.000000000               0.000000000               0.000000000              -0.001765056               0.001140636               0.000926317              -0.000804475               0.000648365              -0.000156109               0.000000000               0.000000000               0.000000000               0.000000000              -0.000985832               0.002147910               0.001633103              -0.000638175               0.000928687               0.000290512               0.000000000               0.000000000               0.000000000               0.000000000              -0.000615519               0.002966402               0.001754538              -0.000601620               0.001189330               0.000587710               0.000000000               0.000000000               0.000000000               0.000000000              -0.000415400               0.003577388               0.001677938              -0.000602948               0.001393433               0.000790484               0.000000000               0.000000000               0.000000000               0.000000000              -0.000284597               0.004025948               0.001541127              -0.000609967               0.001545291               0.000935324               0.000000000               0.000000000               0.000000000               0.000000000              -0.000178424               0.004352014               0.001388553              -0.000610910               0.001654293               0.001043383               0.000000000               0.000000000               0.000000000               0.000000000              -0.000078095               0.004584288               0.001239517              -0.000602321               0.001728854               0.001126533               0.000000000               0.000000000               0.000000000               0.000000000               0.000016491               0.004746512               0.001104242              -0.000587129               0.001777864               0.001190735               0.000000000               0.000000000               0.000000000               0.000000000               0.000107813               0.004850896               0.000983996              -0.000565931               0.001805593               0.001239662               0.000000000               0.000000000               0.000000000               0.000000000               0.000192542               0.004909525               0.000872315              -0.000541486               0.001816987               0.001275501               0.000000000               0.000000000               0.000000000               0.000000000               0.000269872               0.004938631               0.000764341              -0.000516126               0.001818236               0.001302110               0.000000000               0.000000000               0.000000000               0.000000000               0.000345477               0.004949252               0.000653887              -0.000489102               0.001812768               0.001323666               0.000000000               0.000000000               0.000000000               0.000000000               0.000421274               0.004951413               0.000531580              -0.000460948               0.001804104               0.001343156               0.000000000               0.000000000               0.000000000               0.000000000               0.000484880               0.004944884               0.000387931              -0.000436279               0.001793705               0.001357425               0.000000000               0.000000000               0.000000000               0.000000000               0.000521267               0.004932403               0.000211428              -0.000421074               0.001784476               0.001363402               0.000000000               0.000000000               0.000000000               0.000000000               0.000525763               0.004921141               0.000111560              -0.000417981               0.001779691               0.001361710               0.000000000               0.000000000               0.000000000               0.000000000              -0.003912811              -0.000155251              -0.000076771              -0.001447897               0.000430879              -0.001017018               0.000000000               0.000000000               0.000000000               0.000000000              -0.002167799               0.000553790               0.000586936              -0.000882147               0.000478642              -0.000403505               0.000000000               0.000000000               0.000000000               0.000000000              -0.000969994               0.001315164               0.001177770              -0.000528143               0.000614430               0.000086288               0.000000000               0.000000000               0.000000000               0.000000000              -0.000424052               0.002089347               0.001319801              -0.000420188               0.000836504               0.000416316               0.000000000               0.000000000               0.000000000               0.000000000              -0.000151058               0.002742404               0.001294703              -0.000399447               0.001047274               0.000647827               0.000000000               0.000000000               0.000000000               0.000000000              -0.000004250               0.003269273               0.001211511              -0.000410253               0.001226497               0.000816245               0.000000000               0.000000000               0.000000000               0.000000000               0.000091575               0.003686919               0.001109728              -0.000426524               0.001371135               0.000944611               0.000000000               0.000000000               0.000000000               0.000000000               0.000171091               0.004010238               0.001004350              -0.000437120               0.001482439               0.001045319               0.000000000               0.000000000               0.000000000               0.000000000               0.000245749               0.004256716               0.000906924              -0.000439933               0.001565535               0.001125602               0.000000000               0.000000000               0.000000000               0.000000000               0.000318495               0.004442060               0.000819616              -0.000435821               0.001625946               0.001190124               0.000000000               0.000000000               0.000000000               0.000000000               0.000396030               0.004580418               0.000737295              -0.000424040               0.001668138               0.001244097               0.000000000               0.000000000               0.000000000               0.000000000               0.000484108               0.004686804               0.000658735              -0.000404309               0.001697022               0.001292713               0.000000000               0.000000000               0.000000000               0.000000000               0.000585106               0.004770611               0.000579793              -0.000376911               0.001715825               0.001338914               0.000000000               0.000000000               0.000000000               0.000000000               0.000700695               0.004834679               0.000488304              -0.000341574               0.001725402               0.001383828               0.000000000               0.000000000               0.000000000               0.000000000               0.000828525               0.004877627               0.000369546              -0.000299006               0.001725528               0.001426522               0.000000000               0.000000000               0.000000000               0.000000000               0.000964262               0.004902155               0.000207548              -0.000251171               0.001717759               0.001466588               0.000000000               0.000000000               0.000000000               0.000000000               0.001058041               0.004918047               0.000115460              -0.000217990               0.001711996               0.001494006               0.000000000               0.000000000               0.000000000               0.000000000              -0.004478685              -0.000326887              -0.000088480              -0.001638645               0.000437250              -0.001201395               0.000000000               0.000000000               0.000000000               0.000000000              -0.002453805               0.000205389               0.000278767              -0.000945849               0.000383743              -0.000562106               0.000000000               0.000000000               0.000000000               0.000000000              -0.000969998               0.000776928               0.000613684              -0.000460865               0.000412594              -0.000048270               0.000000000               0.000000000               0.000000000               0.000000000              -0.000288566               0.001497331               0.000707011              -0.000295378               0.000597564               0.000302186               0.000000000               0.000000000               0.000000000               0.000000000               0.000043808               0.002161181               0.000705353              -0.000253720               0.000804960               0.000551240               0.000000000               0.000000000               0.000000000               0.000000000               0.000212057               0.002729630               0.000667529              -0.000261682               0.000997095               0.000735413               0.000000000               0.000000000               0.000000000               0.000000000               0.000303662               0.003203206               0.000617003              -0.000286527               0.001163234               0.000876706               0.000000000               0.000000000               0.000000000               0.000000000               0.000364227               0.003587283               0.000562925              -0.000311825               0.001299691               0.000987866               0.000000000               0.000000000               0.000000000               0.000000000               0.000420162               0.003895127               0.000511460              -0.000329330               0.001408139               0.001078809               0.000000000               0.000000000               0.000000000               0.000000000               0.000479876               0.004139493               0.000465401              -0.000337483               0.001492311               0.001154829               0.000000000               0.000000000               0.000000000               0.000000000               0.000553218               0.004335598               0.000423224              -0.000334492               0.001556682               0.001222190               0.000000000               0.000000000               0.000000000               0.000000000               0.000648458               0.004499569               0.000383739              -0.000319274               0.001606266               0.001286992               0.000000000               0.000000000               0.000000000               0.000000000               0.000769501               0.004637753               0.000344375              -0.000291156               0.001642954               0.001351799               0.000000000               0.000000000               0.000000000               0.000000000               0.000920189               0.004749408               0.000296434              -0.000248605               0.001665988               0.001417384               0.000000000               0.000000000               0.000000000               0.000000000               0.001109893               0.004830989               0.000229676              -0.000187663               0.001672868               0.001485205               0.000000000               0.000000000               0.000000000               0.000000000               0.001352742               0.004882203               0.000132174              -0.000102997               0.001661717               0.001558720               0.000000000               0.000000000               0.000000000               0.000000000               0.001553291               0.004922639               0.000077372              -0.000032846               0.001651812               0.001618966               0.000000000               0.000000000               0.000000000               0.000000000              -0.004678338              -0.000374551               0.000000000              -0.001707557               0.000444332              -0.001263225               0.000000000               0.000000000               0.000000000               0.000000000              -0.002558932               0.000090803              -0.000000000              -0.000970949               0.000353915              -0.000617034               0.000000000               0.000000000               0.000000000               0.000000000              -0.000972781               0.000590221              -0.000000000              -0.000438570               0.000342928              -0.000095642               0.000000000               0.000000000               0.000000000               0.000000000              -0.000238021               0.001289735               0.000000000              -0.000250474               0.000513399               0.000262924               0.000000000               0.000000000               0.000000000               0.000000000               0.000117458               0.001954734               0.000000000              -0.000200295               0.000718336               0.000518042               0.000000000               0.000000000               0.000000000               0.000000000               0.000294432               0.002532091              -0.000000000              -0.000206099               0.000912722               0.000706623               0.000000000               0.000000000               0.000000000               0.000000000               0.000384534               0.003023901              -0.000000000              -0.000233787               0.001085886               0.000852099               0.000000000               0.000000000               0.000000000               0.000000000               0.000438418               0.003432731               0.000000000              -0.000264684               0.001232460               0.000967776               0.000000000               0.000000000               0.000000000               0.000000000               0.000484613               0.003761961               0.000000000              -0.000288514               0.001350146               0.001061632               0.000000000               0.000000000               0.000000000               0.000000000               0.000539817               0.004026769              -0.000000000              -0.000300914               0.001442548               0.001141634               0.000000000               0.000000000               0.000000000               0.000000000               0.000612027               0.004244751               0.000000000              -0.000301083               0.001515264               0.001214181               0.000000000               0.000000000               0.000000000               0.000000000               0.000710611               0.004432486               0.000000000              -0.000287581               0.001573341               0.001285760               0.000000000               0.000000000               0.000000000               0.000000000               0.000838730               0.004591559              -0.000000000              -0.000259420               0.001616978               0.001357557               0.000000000               0.000000000               0.000000000               0.000000000               0.001003487               0.004719435              -0.000000000              -0.000213621               0.001644336               0.001430715               0.000000000               0.000000000               0.000000000               0.000000000               0.001220131               0.004815779              -0.000000000              -0.000144423               0.001653385               0.001508962               0.000000000               0.000000000               0.000000000               0.000000000               0.001510102               0.004875685               0.000000000              -0.000043172               0.001639603               0.001596431               0.000000000               0.000000000               0.000000000               0.000000000               0.001757635               0.004923966              -0.000000000               0.000043617               0.001626766               0.001670384               0.000000000               0.000000000               0.000000000               0.000000000               0.001529211               0.017155143              -0.000000000              -0.001570935               0.006241969               0.004671034               0.000000000               0.000000000               0.000000000               0.000000000               0.001588472               0.013735658              -0.000000000              -0.001121277               0.004952266               0.003830989               0.000000000               0.000000000               0.000000000               0.000000000               0.002150351               0.010971276               0.000000000              -0.000565026               0.003845398               0.003280371               0.000000000               0.000000000               0.000000000               0.000000000               0.002139611               0.009426950               0.000000000              -0.000376014               0.003267623               0.002891609               0.000000000               0.000000000               0.000000000               0.000000000               0.001930717               0.008485104              -0.000000000              -0.000336618               0.002940546               0.002603927               0.000000000               0.000000000               0.000000000               0.000000000               0.001655806               0.007878252               0.000000000              -0.000363853               0.002747342               0.002383489               0.000000000               0.000000000               0.000000000               0.000000000               0.001375564               0.007465725               0.000000000              -0.000417378               0.002627676               0.002210298               0.000000000               0.000000000               0.000000000               0.000000000               0.001122590               0.007160369              -0.000000000              -0.000474074               0.002544790               0.002070717               0.000000000               0.000000000               0.000000000               0.000000000               0.000904930               0.006915764              -0.000000000              -0.000525121               0.002480272               0.001955151               0.000000000               0.000000000               0.000000000               0.000000000               0.000719242               0.006706638               0.000000000              -0.000568613               0.002425061               0.001856449               0.000000000               0.000000000               0.000000000               0.000000000               0.000558458               0.006511070               0.000000000              -0.000604461               0.002371822               0.001767361               0.000000000               0.000000000               0.000000000               0.000000000               0.000412485               0.006318531               0.000000000              -0.000635133               0.002317867               0.001682734               0.000000000               0.000000000               0.000000000               0.000000000               0.000280350               0.006129903              -0.000000000              -0.000661105               0.002263649               0.001602544               0.000000000               0.000000000               0.000000000               0.000000000               0.000172399               0.005936902               0.000000000              -0.000677462               0.002204768               0.001527307               0.000000000               0.000000000               0.000000000               0.000000000               0.000092498               0.005722499               0.000000000              -0.000680624               0.002134355               0.001453731               0.000000000               0.000000000               0.000000000               0.000000000               0.000038707               0.005469342              -0.000000000              -0.000669151               0.002046146               0.001376995               0.000000000               0.000000000               0.000000000               0.000000000              -0.000003049               0.005269205               0.000000000              -0.000659792               0.001976315               0.001316523               0.000000000               0.000000000               0.000000000               0.000000000               0.001600793               0.016826632              -0.001218809              -0.001503028               0.006109831               0.004606802               0.000000000               0.000000000               0.000000000               0.000000000               0.001581224               0.013514868              -0.000680772              -0.001096397               0.004870377               0.003773980               0.000000000               0.000000000               0.000000000               0.000000000               0.002057621               0.010864916              -0.000139173              -0.000586505               0.003817104               0.003230599               0.000000000               0.000000000               0.000000000               0.000000000               0.002012399               0.009384253               0.000096917              -0.000418381               0.003267514               0.002849132               0.000000000               0.000000000               0.000000000               0.000000000               0.001794022               0.008478194               0.000203235              -0.000387015               0.002955041               0.002568026               0.000000000               0.000000000               0.000000000               0.000000000               0.001523767               0.007887170               0.000251584              -0.000414483               0.002767191               0.002352708               0.000000000               0.000000000               0.000000000               0.000000000               0.001255984               0.007478595               0.000266785              -0.000463829               0.002647450               0.002183621               0.000000000               0.000000000               0.000000000               0.000000000               0.001016867               0.007173700               0.000263045              -0.000515386               0.002563005               0.002047619               0.000000000               0.000000000               0.000000000               0.000000000               0.000812051               0.006926975               0.000253056              -0.000561351               0.002496086               0.001934734               0.000000000               0.000000000               0.000000000               0.000000000               0.000635492               0.006713239               0.000239242              -0.000600844               0.002438005               0.001837161               0.000000000               0.000000000               0.000000000               0.000000000               0.000482230               0.006518602               0.000222427              -0.000633987               0.002384175               0.001750187               0.000000000               0.000000000               0.000000000               0.000000000               0.000348022               0.006334424               0.000207525              -0.000661293               0.002331885               0.001670592               0.000000000               0.000000000               0.000000000               0.000000000               0.000233686               0.006152160               0.000192025              -0.000681386               0.002277828               0.001596442               0.000000000               0.000000000               0.000000000               0.000000000               0.000145316               0.005965529               0.000167904              -0.000691196               0.002218888               0.001527693               0.000000000               0.000000000               0.000000000               0.000000000               0.000076849               0.005763000               0.000131396              -0.000691555               0.002151499               0.001459944               0.000000000               0.000000000               0.000000000               0.000000000               0.000029052               0.005536316               0.000076843              -0.000681143               0.002072468               0.001391325               0.000000000               0.000000000               0.000000000               0.000000000              -0.000005829               0.005365753               0.000047365              -0.000672903               0.002012867               0.001339964               0.000000000               0.000000000               0.000000000               0.000000000               0.001789939               0.015887146              -0.002289331              -0.001314664               0.005733884               0.004419220               0.000000000               0.000000000               0.000000000               0.000000000               0.001553232               0.012888842              -0.001284060              -0.001028641               0.004639118               0.003610477               0.000000000               0.000000000               0.000000000               0.000000000               0.001793597               0.010566077              -0.000278556              -0.000648159               0.003738044               0.003089884               0.000000000               0.000000000               0.000000000               0.000000000               0.001656061               0.009258433               0.000149456              -0.000536280               0.003264873               0.002728594               0.000000000               0.000000000               0.000000000               0.000000000               0.001419074               0.008446286               0.000337232              -0.000523632               0.002989944               0.002466313               0.000000000               0.000000000               0.000000000               0.000000000               0.001166006               0.007899904               0.000419356              -0.000550234               0.002816686               0.002266452               0.000000000               0.000000000               0.000000000               0.000000000               0.000930599               0.007505783               0.000444337              -0.000589247               0.002698318               0.002109071               0.000000000               0.000000000               0.000000000               0.000000000               0.000729129               0.007201995               0.000436569              -0.000626825               0.002609582               0.001982758               0.000000000               0.000000000               0.000000000               0.000000000               0.000559546               0.006949746               0.000415825              -0.000658887               0.002536188               0.001877301               0.000000000               0.000000000               0.000000000               0.000000000               0.000418065               0.006732323               0.000391564              -0.000684764               0.002472340               0.001787576               0.000000000               0.000000000               0.000000000               0.000000000               0.000300677               0.006543146               0.000365853              -0.000705138               0.002416073               0.001710935               0.000000000               0.000000000               0.000000000               0.000000000               0.000197527               0.006367867               0.000336630              -0.000721909               0.002363237               0.001641328               0.000000000               0.000000000               0.000000000               0.000000000               0.000114306               0.006192393               0.000301863              -0.000731182               0.002307838               0.001576655               0.000000000               0.000000000               0.000000000               0.000000000               0.000059540               0.006017865               0.000256149              -0.000729904               0.002249236               0.001519332               0.000000000               0.000000000               0.000000000               0.000000000               0.000024485               0.005843680               0.000194451              -0.000721276               0.002188299               0.001467023               0.000000000               0.000000000               0.000000000               0.000000000               0.000006777               0.005672080               0.000110320              -0.000706467               0.002126163               0.001419696               0.000000000               0.000000000               0.000000000               0.000000000              -0.000008850               0.005557145               0.000065867              -0.000697960               0.002085016               0.001387056               0.000000000               0.000000000               0.000000000               0.000000000               0.002022117               0.014458638              -0.003088537              -0.001049035               0.005169176               0.004120140               0.000000000               0.000000000               0.000000000               0.000000000               0.001477829               0.011949352              -0.001746563              -0.000939482               0.004296238               0.003356756               0.000000000               0.000000000               0.000000000               0.000000000               0.001389063               0.010123675              -0.000417410              -0.000744559               0.003622711               0.002878152               0.000000000               0.000000000               0.000000000               0.000000000               0.001142347               0.009061775               0.000127817              -0.000704340               0.003255341               0.002551001               0.000000000               0.000000000               0.000000000               0.000000000               0.000893078               0.008373768               0.000358627              -0.000711815               0.003028500               0.002316685               0.000000000               0.000000000               0.000000000               0.000000000               0.000673854               0.007887105               0.000456289              -0.000733191               0.002873406               0.002140215               0.000000000               0.000000000               0.000000000               0.000000000               0.000493274               0.007515225               0.000486735              -0.000754424               0.002756525               0.002002101               0.000000000               0.000000000               0.000000000               0.000000000               0.000348650               0.007213023               0.000477587              -0.000770882               0.002661278               0.001890395               0.000000000               0.000000000               0.000000000               0.000000000               0.000232383               0.006958487               0.000453052              -0.000782665               0.002580361               0.001797696               0.000000000               0.000000000               0.000000000               0.000000000               0.000140905               0.006742803               0.000426376              -0.000790009               0.002510915               0.001720906               0.000000000               0.000000000               0.000000000               0.000000000               0.000067629               0.006553394               0.000397329              -0.000793811               0.002449047               0.001655235               0.000000000               0.000000000               0.000000000               0.000000000               0.000009749               0.006376314               0.000359529              -0.000793381               0.002389877               0.001596496               0.000000000               0.000000000               0.000000000               0.000000000              -0.000028450               0.006207047               0.000313974              -0.000786548               0.002331177               0.001544630               0.000000000               0.000000000               0.000000000               0.000000000              -0.000046256               0.006048461               0.000260674              -0.000773402               0.002273934               0.001500532               0.000000000               0.000000000               0.000000000               0.000000000              -0.000046985               0.005907301               0.000193352              -0.000756030               0.002221091               0.001465061               0.000000000               0.000000000               0.000000000               0.000000000              -0.000029498               0.005788576               0.000106899              -0.000734632               0.002174383               0.001439751               0.000000000               0.000000000               0.000000000               0.000000000              -0.000023030               0.005720013               0.000062185              -0.000723636               0.002147864               0.001424228               0.000000000               0.000000000               0.000000000               0.000000000               0.002197364               0.012705660              -0.003553488              -0.000764197               0.004489909               0.003725712               0.000000000               0.000000000               0.000000000               0.000000000               0.001326729               0.010815051              -0.002043385              -0.000854357               0.003889766               0.003035409               0.000000000               0.000000000               0.000000000               0.000000000               0.000889922               0.009592452              -0.000564100              -0.000865334               0.003485897               0.002620563               0.000000000               0.000000000               0.000000000               0.000000000               0.000557196               0.008805072               0.000016340              -0.000891683               0.003232223               0.002340539               0.000000000               0.000000000               0.000000000               0.000000000               0.000323657               0.008246300               0.000256323              -0.000909414               0.003051877               0.002142463               0.000000000               0.000000000               0.000000000               0.000000000               0.000163752               0.007819702               0.000358128              -0.000916054               0.002911892               0.001995839               0.000000000               0.000000000               0.000000000               0.000000000               0.000052824               0.007466494               0.000392509              -0.000913500               0.002793306               0.001879806               0.000000000               0.000000000               0.000000000               0.000000000              -0.000022527               0.007167926               0.000388799              -0.000904436               0.002690763               0.001786327               0.000000000               0.000000000               0.000000000               0.000000000              -0.000076300               0.006914426               0.000372403              -0.000892914               0.002602424               0.001709510               0.000000000               0.000000000               0.000000000               0.000000000              -0.000111723               0.006697874               0.000354195              -0.000879128               0.002525645               0.001646517               0.000000000               0.000000000               0.000000000               0.000000000              -0.000130323               0.006503233               0.000331432              -0.000861773               0.002454980               0.001593207               0.000000000               0.000000000               0.000000000               0.000000000              -0.000136678               0.006322566               0.000298958              -0.000841573               0.002388025               0.001546452               0.000000000               0.000000000               0.000000000               0.000000000              -0.000129857               0.006160256               0.000257997              -0.000818726               0.002326307               0.001507580               0.000000000               0.000000000               0.000000000               0.000000000              -0.000110789               0.006020758               0.000212469              -0.000794139               0.002271612               0.001477474               0.000000000               0.000000000               0.000000000               0.000000000              -0.000082682               0.005908866               0.000155629              -0.000769612               0.002226140               0.001456528               0.000000000               0.000000000               0.000000000               0.000000000              -0.000045494               0.005827910               0.000083287              -0.000745547               0.002191133               0.001445586               0.000000000               0.000000000               0.000000000               0.000000000              -0.000027432               0.005790634               0.000046000              -0.000734115               0.002174897               0.001440782               0.000000000               0.000000000               0.000000000               0.000000000               0.002226138               0.010801281              -0.003684945              -0.000515361               0.003772177               0.003256816               0.000000000               0.000000000               0.000000000               0.000000000               0.001084275               0.009607244              -0.002188259              -0.000794302               0.003467149               0.002672848               0.000000000               0.000000000               0.000000000               0.000000000               0.000351353               0.009019028              -0.000732931              -0.000995619               0.003338186               0.002342567               0.000000000               0.000000000               0.000000000               0.000000000              -0.000011219               0.008492794              -0.000180949              -0.001065804               0.003186171               0.002120367               0.000000000               0.000000000               0.000000000               0.000000000              -0.000190476               0.008051224               0.000049328              -0.001077829               0.003042991               0.001965162               0.000000000               0.000000000               0.000000000               0.000000000              -0.000273390               0.007673142               0.000152172              -0.001061661               0.002911575               0.001849914               0.000000000               0.000000000               0.000000000               0.000000000              -0.000307059               0.007339546               0.000196420              -0.001032588               0.002790687               0.001758099               0.000000000               0.000000000               0.000000000               0.000000000              -0.000310594               0.007047799               0.000211270              -0.000997445               0.002681725               0.001684279               0.000000000               0.000000000               0.000000000               0.000000000              -0.000298902               0.006795949               0.000215363              -0.000961580               0.002585820               0.001624241               0.000000000               0.000000000               0.000000000               0.000000000              -0.000277507               0.006573592               0.000215747              -0.000925762               0.002499763               0.001574001               0.000000000               0.000000000               0.000000000               0.000000000              -0.000244630               0.006372142               0.000207052              -0.000888252               0.002420110               0.001531858               0.000000000               0.000000000               0.000000000               0.000000000              -0.000204913               0.006190640               0.000188389              -0.000850670               0.002347083               0.001496412               0.000000000               0.000000000               0.000000000               0.000000000              -0.000161399               0.006033437               0.000161823              -0.000814702               0.002282693               0.001467991               0.000000000               0.000000000               0.000000000               0.000000000              -0.000116238               0.005903029               0.000130303              -0.000781466               0.002228145               0.001446679               0.000000000               0.000000000               0.000000000               0.000000000              -0.000073799               0.005797834               0.000088653              -0.000752402               0.002183393               0.001430991               0.000000000               0.000000000               0.000000000               0.000000000              -0.000035807               0.005721913               0.000041189              -0.000728665               0.002150173               0.001421509               0.000000000               0.000000000               0.000000000               0.000000000              -0.000020536               0.005687060               0.000020499              -0.000718582               0.002135195               0.001416613               0.000000000               0.000000000               0.000000000               0.000000000               0.002061429               0.008898726              -0.003528898              -0.000339308               0.003079314               0.002740006               0.000000000               0.000000000               0.000000000               0.000000000               0.000765497               0.008420241              -0.002217762              -0.000765469               0.003061874               0.002296406               0.000000000               0.000000000               0.000000000               0.000000000              -0.000163702               0.008425169              -0.000933889              -0.001114532               0.003179872               0.002065340               0.000000000               0.000000000               0.000000000               0.000000000              -0.000490178               0.008121123              -0.000444265              -0.001198954               0.003106665               0.001907711               0.000000000               0.000000000               0.000000000               0.000000000              -0.000584584               0.007777305              -0.000225303              -0.001191379               0.002989535               0.001798156               0.000000000               0.000000000               0.000000000               0.000000000              -0.000580727               0.007445307              -0.000109225              -0.001148433               0.002864555               0.001716122               0.000000000               0.000000000               0.000000000               0.000000000              -0.000538622               0.007137587              -0.000040410              -0.001094179               0.002743898               0.001649719               0.000000000               0.000000000               0.000000000               0.000000000              -0.000484532               0.006855244               0.000004060              -0.001038602               0.002631259               0.001592657               0.000000000               0.000000000               0.000000000               0.000000000              -0.000421549               0.006606908               0.000036566              -0.000983942               0.002530261               0.001546319               0.000000000               0.000000000               0.000000000               0.000000000              -0.000355167               0.006384967               0.000058358              -0.000931306               0.002438736               0.001507430               0.000000000               0.000000000               0.000000000               0.000000000              -0.000282521               0.006182463               0.000067843              -0.000878751               0.002353717               0.001474967               0.000000000               0.000000000               0.000000000               0.000000000              -0.000210310               0.005999799               0.000066339              -0.000828839               0.002276192               0.001447354               0.000000000               0.000000000               0.000000000               0.000000000              -0.000150224               0.005837149               0.000056910              -0.000785976               0.002207689               0.001421713               0.000000000               0.000000000               0.000000000               0.000000000              -0.000100342               0.005697651               0.000042809              -0.000749833               0.002149142               0.001399310               0.000000000               0.000000000               0.000000000               0.000000000              -0.000056298               0.005582439               0.000023183              -0.000718915               0.002100433               0.001381518               0.000000000               0.000000000               0.000000000               0.000000000              -0.000023096               0.005492874               0.000005850              -0.000695269               0.002062696               0.001367427               0.000000000               0.000000000               0.000000000               0.000000000              -0.000017837               0.005442041               0.000004366              -0.000686942               0.002042976               0.001356034               0.000000000               0.000000000               0.000000000               0.000000000               0.001715675               0.007109453              -0.003153704              -0.000245307               0.002451562               0.002206255               0.000000000               0.000000000               0.000000000               0.000000000               0.000401250               0.007312110              -0.002171087              -0.000763545               0.002691860               0.001928315               0.000000000               0.000000000               0.000000000               0.000000000              -0.000591540               0.007813763              -0.001167957              -0.001198545               0.003004077               0.001805531               0.000000000               0.000000000               0.000000000               0.000000000              -0.000828217               0.007691400              -0.000742072              -0.001272003               0.002987775               0.001715772               0.000000000               0.000000000               0.000000000               0.000000000              -0.000824429               0.007436007              -0.000514023              -0.001238659               0.002891530               0.001652872               0.000000000               0.000000000               0.000000000               0.000000000              -0.000740592               0.007153514              -0.000367252              -0.001171908               0.002775117               0.001603208               0.000000000               0.000000000               0.000000000               0.000000000              -0.000640715               0.006871408              -0.000264750              -0.001099191               0.002656844               0.001557652               0.000000000               0.000000000               0.000000000               0.000000000              -0.000544953               0.006605987              -0.000188570              -0.001030103               0.002545341               0.001515238               0.000000000               0.000000000               0.000000000               0.000000000              -0.000448429               0.006369095              -0.000126585              -0.000964295               0.002444442               0.001480147               0.000000000               0.000000000               0.000000000               0.000000000              -0.000354161               0.006151256              -0.000081586              -0.000901715               0.002350970               0.001449255               0.000000000               0.000000000               0.000000000               0.000000000              -0.000265978               0.005946932              -0.000053942              -0.000843106               0.002263326               0.001420220               0.000000000               0.000000000               0.000000000               0.000000000              -0.000189697               0.005757963              -0.000037845              -0.000790880               0.002182928               0.001392049               0.000000000               0.000000000               0.000000000               0.000000000              -0.000129266               0.005588829              -0.000027299              -0.000747076               0.002111950               0.001364873               0.000000000               0.000000000               0.000000000               0.000000000              -0.000078004               0.005444788              -0.000018275              -0.000709848               0.002051527               0.001341679               0.000000000               0.000000000               0.000000000               0.000000000              -0.000037573               0.005326440              -0.000012754              -0.000679893               0.002002093               0.001322200               0.000000000               0.000000000               0.000000000               0.000000000              -0.000014649               0.005230441              -0.000007351              -0.000659297               0.001963228               0.001303932               0.000000000               0.000000000               0.000000000               0.000000000              -0.000015937               0.005172783               0.000001769              -0.000652573               0.001941768               0.001289195               0.000000000               0.000000000               0.000000000               0.000000000               0.001266297               0.005563857              -0.002647716              -0.000220623               0.001928140               0.001707517               0.000000000               0.000000000               0.000000000               0.000000000               0.000063694               0.006310645              -0.002093032              -0.000764945               0.002358508               0.001593563               0.000000000               0.000000000               0.000000000               0.000000000              -0.000887147               0.007219220              -0.001440875              -0.001235080               0.002818076               0.001582996               0.000000000               0.000000000               0.000000000               0.000000000              -0.001023339               0.007286189              -0.001057318              -0.001294523               0.002860213               0.001565690               0.000000000               0.000000000               0.000000000               0.000000000              -0.000944182               0.007132710              -0.000803428              -0.001245654               0.002792764               0.001547110               0.000000000               0.000000000               0.000000000               0.000000000              -0.000803013               0.006906009              -0.000621113              -0.001164378               0.002690106               0.001525728               0.000000000               0.000000000               0.000000000               0.000000000              -0.000660002               0.006655262              -0.000484322              -0.001079406               0.002578200               0.001498794               0.000000000               0.000000000               0.000000000               0.000000000              -0.000532212               0.006416585              -0.000376007              -0.001001650               0.002472724               0.001471073               0.000000000               0.000000000               0.000000000               0.000000000              -0.000417491               0.006196229              -0.000286607              -0.000931086               0.002375751               0.001444665               0.000000000               0.000000000               0.000000000               0.000000000              -0.000314122               0.005979643              -0.000218088              -0.000865249               0.002281611               0.001416362               0.000000000               0.000000000               0.000000000               0.000000000              -0.000224546               0.005769506              -0.000168707              -0.000805391               0.002191613               0.001386222               0.000000000               0.000000000               0.000000000               0.000000000              -0.000153755               0.005574051              -0.000129892              -0.000754413               0.002109469               0.001355057               0.000000000               0.000000000               0.000000000               0.000000000              -0.000100137               0.005403833              -0.000095485              -0.000713029               0.002038936               0.001325907               0.000000000               0.000000000               0.000000000               0.000000000              -0.000059234               0.005262406              -0.000061844              -0.000680012               0.001980788               0.001300776               0.000000000               0.000000000               0.000000000               0.000000000              -0.000036927               0.005144957              -0.000034111              -0.000656966               0.001933957               0.001276992               0.000000000               0.000000000               0.000000000               0.000000000              -0.000038367               0.005047591              -0.000014757              -0.000645335               0.001897625               0.001252290               0.000000000               0.000000000               0.000000000               0.000000000              -0.000046049               0.004997461              -0.000004424              -0.000641949               0.001879787               0.001237838               0.000000000               0.000000000               0.000000000               0.000000000               0.000699139               0.004101588              -0.002091358              -0.000250523               0.001450689               0.001200166               0.000000000               0.000000000               0.000000000               0.000000000              -0.000193954               0.005155044              -0.001995976              -0.000717113               0.001957368               0.001240255               0.000000000               0.000000000               0.000000000               0.000000000              -0.001003384               0.006358244              -0.001736979              -0.001171048               0.002509742               0.001338695               0.000000000               0.000000000               0.000000000               0.000000000              -0.001094786               0.006677418              -0.001406376              -0.001245219               0.002640857               0.001395637               0.000000000               0.000000000               0.000000000               0.000000000              -0.000993717               0.006690612              -0.001132102              -0.001208968               0.002633171               0.001424203               0.000000000               0.000000000               0.000000000               0.000000000              -0.000839288               0.006574894              -0.000917247              -0.001136592               0.002570473               0.001433881               0.000000000               0.000000000               0.000000000               0.000000000              -0.000681605               0.006406107              -0.000745132              -0.001056363               0.002487468               0.001431106               0.000000000               0.000000000               0.000000000               0.000000000              -0.000538475               0.006233647              -0.000601778              -0.000981132               0.002404905               0.001423774               0.000000000               0.000000000               0.000000000               0.000000000              -0.000418470               0.006060536              -0.000483118              -0.000914491               0.002324989               0.001410498               0.000000000               0.000000000               0.000000000               0.000000000              -0.000317991               0.005877675              -0.000387760              -0.000853954               0.002243857               0.001389903               0.000000000               0.000000000               0.000000000               0.000000000              -0.000232698               0.005689444              -0.000308251              -0.000798440               0.002162609               0.001364169               0.000000000               0.000000000               0.000000000               0.000000000              -0.000167258               0.005505718              -0.000239110              -0.000750935               0.002085533               0.001334598               0.000000000               0.000000000               0.000000000               0.000000000              -0.000119931               0.005340112              -0.000176841              -0.000712487               0.002017515               0.001305029               0.000000000               0.000000000               0.000000000               0.000000000              -0.000088011               0.005201338              -0.000117468              -0.000683170               0.001961485               0.001278315               0.000000000               0.000000000               0.000000000               0.000000000              -0.000074968               0.005083114              -0.000063244              -0.000663501               0.001915521               0.001252021               0.000000000               0.000000000               0.000000000               0.000000000              -0.000083536               0.004986759              -0.000022059              -0.000654669               0.001880460               0.001225790               0.000000000               0.000000000               0.000000000               0.000000000              -0.000094671               0.004944084              -0.000005009              -0.000653510               0.001865848               0.001212338               0.000000000               0.000000000               0.000000000               0.000000000              -0.000081347               0.002766118              -0.001509263              -0.000376270               0.001047453               0.000671182               0.000000000               0.000000000               0.000000000               0.000000000              -0.000491854               0.004004162              -0.001836456              -0.000684965               0.001563028               0.000878063               0.000000000               0.000000000               0.000000000               0.000000000              -0.001038445               0.005380358              -0.001965529              -0.001061960               0.002147421               0.001085461               0.000000000               0.000000000               0.000000000               0.000000000              -0.001089144               0.005935317              -0.001737524              -0.001150341               0.002361866               0.001211525               0.000000000               0.000000000               0.000000000               0.000000000              -0.000985083               0.006138491              -0.001473520              -0.001136715               0.002425048               0.001288333               0.000000000               0.000000000               0.000000000               0.000000000              -0.000835322               0.006166318              -0.001239603              -0.001084033               0.002416763               0.001332730               0.000000000               0.000000000               0.000000000               0.000000000              -0.000680876               0.006110434              -0.001039784              -0.001019131               0.002376501               0.001357371               0.000000000               0.000000000               0.000000000               0.000000000              -0.000533227               0.006025123              -0.000869053              -0.000953098               0.002326054               0.001372955               0.000000000               0.000000000               0.000000000               0.000000000              -0.000404903               0.005915939              -0.000724751              -0.000891329               0.002269070               0.001377741               0.000000000               0.000000000               0.000000000               0.000000000              -0.000306512               0.005781738              -0.000603107              -0.000837657               0.002206446               0.001368788               0.000000000               0.000000000               0.000000000               0.000000000              -0.000227155               0.005633771              -0.000495758              -0.000789403               0.002141039               0.001351636               0.000000000               0.000000000               0.000000000               0.000000000              -0.000162185               0.005477342              -0.000397759              -0.000745486               0.002074258               0.001328772               0.000000000               0.000000000               0.000000000               0.000000000              -0.000116801               0.005325114              -0.000306415              -0.000709438               0.002011500               0.001302062               0.000000000               0.000000000               0.000000000               0.000000000              -0.000089800               0.005191463              -0.000217904              -0.000682606               0.001958006               0.001275400               0.000000000               0.000000000               0.000000000               0.000000000              -0.000080901               0.005078767              -0.000132458              -0.000665182               0.001914633               0.001249451               0.000000000               0.000000000               0.000000000               0.000000000              -0.000094503               0.004987479              -0.000057142              -0.000658872               0.001882100               0.001223229               0.000000000               0.000000000               0.000000000               0.000000000              -0.000116391               0.004941491              -0.000020106              -0.000661331               0.001867591               0.001206260               0.000000000               0.000000000               0.000000000               0.000000000              -0.001026083               0.001644554              -0.000936799              -0.000590349               0.000744962               0.000154612               0.000000000               0.000000000               0.000000000               0.000000000              -0.000874527               0.002915554              -0.001587723              -0.000692391               0.001202638               0.000510247               0.000000000               0.000000000               0.000000000               0.000000000              -0.001035745               0.004293290              -0.002037308              -0.000925065               0.001739437               0.000814372               0.000000000               0.000000000               0.000000000               0.000000000              -0.000991658               0.005016503              -0.001943843              -0.000998933               0.002005128               0.001006195               0.000000000               0.000000000               0.000000000               0.000000000              -0.000880133               0.005395339              -0.001727173              -0.001004465               0.002133250               0.001128784               0.000000000               0.000000000               0.000000000               0.000000000              -0.000744578               0.005580582              -0.001500575              -0.000976788               0.002185771               0.001208983               0.000000000               0.000000000               0.000000000               0.000000000              -0.000600650               0.005656630              -0.001292958              -0.000932321               0.002196298               0.001263977               0.000000000               0.000000000               0.000000000               0.000000000              -0.000462058               0.005673282              -0.001110156              -0.000882430               0.002185218               0.001302788               0.000000000               0.000000000               0.000000000               0.000000000              -0.000336707               0.005646252              -0.000950050              -0.000832045               0.002159413               0.001327368               0.000000000               0.000000000               0.000000000               0.000000000              -0.000234341               0.005581180              -0.000811488              -0.000785524               0.002122216               0.001336692               0.000000000               0.000000000               0.000000000               0.000000000              -0.000155099               0.005486859              -0.000690106              -0.000744018               0.002076941               0.001332923               0.000000000               0.000000000               0.000000000               0.000000000              -0.000089498               0.005375143              -0.000574510              -0.000705453               0.002026847               0.001321394               0.000000000               0.000000000               0.000000000               0.000000000              -0.000041306               0.005259314              -0.000457732              -0.000672902               0.001977388               0.001304486               0.000000000               0.000000000               0.000000000               0.000000000              -0.000014135               0.005152776              -0.000342330              -0.000649396               0.001934040               0.001284644               0.000000000               0.000000000               0.000000000               0.000000000              -0.000008924               0.005060196              -0.000227852              -0.000635870               0.001898672               0.001262802               0.000000000               0.000000000               0.000000000               0.000000000              -0.000031449               0.004981955              -0.000111742              -0.000634536               0.001872147               0.001237611               0.000000000               0.000000000               0.000000000               0.000000000              -0.000065133               0.004938107              -0.000048942              -0.000641687               0.001859915               0.001218228               0.000000000               0.000000000               0.000000000               0.000000000              -0.002059614               0.000789050              -0.000444278              -0.000870985               0.000553341              -0.000317644               0.000000000               0.000000000               0.000000000               0.000000000              -0.001313661               0.001942378              -0.001272577              -0.000735419               0.000892592               0.000157173               0.000000000               0.000000000               0.000000000               0.000000000              -0.001013166               0.003180115              -0.001928292              -0.000777451               0.001319177               0.000541726               0.000000000               0.000000000               0.000000000               0.000000000              -0.000821342               0.003989239              -0.001963109              -0.000806657               0.001598618               0.000791961               0.000000000               0.000000000               0.000000000               0.000000000              -0.000679740               0.004509356              -0.001815430              -0.000818571               0.001775960               0.000957389               0.000000000               0.000000000               0.000000000               0.000000000              -0.000553389               0.004841409              -0.001625330              -0.000812696               0.001884685               0.001071989               0.000000000               0.000000000               0.000000000               0.000000000              -0.000428244               0.005048717              -0.001434962              -0.000791680               0.001946782               0.001155102               0.000000000               0.000000000               0.000000000               0.000000000              -0.000306988               0.005175620              -0.001257703              -0.000762072               0.001979213               0.001217141               0.000000000               0.000000000               0.000000000               0.000000000              -0.000194627               0.005243215              -0.001099386              -0.000728386               0.001990516               0.001262130               0.000000000               0.000000000               0.000000000               0.000000000              -0.000091497               0.005258772              -0.000960956              -0.000691657               0.001983458               0.001291802               0.000000000               0.000000000               0.000000000               0.000000000              -0.000005481               0.005234177              -0.000837655              -0.000656326               0.001963484               0.001307157               0.000000000               0.000000000               0.000000000               0.000000000               0.000063097               0.005186202              -0.000717871              -0.000624612               0.001936921               0.001312308               0.000000000               0.000000000               0.000000000               0.000000000               0.000120508               0.005126343              -0.000592946              -0.000595601               0.001907298               0.001311697               0.000000000               0.000000000               0.000000000               0.000000000               0.000164952               0.005068897              -0.000462524              -0.000571754               0.001880200               0.001308446               0.000000000               0.000000000               0.000000000               0.000000000               0.000184986               0.005015920              -0.000324066              -0.000557619               0.001857830               0.001300211               0.000000000               0.000000000               0.000000000               0.000000000               0.000169719               0.004965319              -0.000169590              -0.000557019               0.001840763               0.001283744               0.000000000               0.000000000               0.000000000               0.000000000               0.000137064               0.004932187              -0.000082960              -0.000565123               0.001832420               0.001267297               0.000000000               0.000000000               0.000000000               0.000000000              -0.003066320               0.000200259              -0.000096226              -0.001174901               0.000458384              -0.000716518               0.000000000               0.000000000               0.000000000               0.000000000              -0.001765056               0.001140636              -0.000926317              -0.000804475               0.000648365              -0.000156109               0.000000000               0.000000000               0.000000000               0.000000000              -0.000985832               0.002147910              -0.001633103              -0.000638175               0.000928687               0.000290512               0.000000000               0.000000000               0.000000000               0.000000000              -0.000615519               0.002966402              -0.001754538              -0.000601620               0.001189330               0.000587710               0.000000000               0.000000000               0.000000000               0.000000000              -0.000415400               0.003577388              -0.001677938              -0.000602948               0.001393433               0.000790484               0.000000000               0.000000000               0.000000000               0.000000000              -0.000284597               0.004025948              -0.001541127              -0.000609967               0.001545291               0.000935324               0.000000000               0.000000000               0.000000000               0.000000000              -0.000178424               0.004352014              -0.001388553              -0.000610910               0.001654293               0.001043383               0.000000000               0.000000000               0.000000000               0.000000000              -0.000078095               0.004584288              -0.001239517              -0.000602321               0.001728854               0.001126533               0.000000000               0.000000000               0.000000000               0.000000000               0.000016491               0.004746512              -0.001104242              -0.000587129               0.001777864               0.001190735               0.000000000               0.000000000               0.000000000               0.000000000               0.000107813               0.004850896              -0.000983996              -0.000565931               0.001805593               0.001239662               0.000000000               0.000000000               0.000000000               0.000000000               0.000192542               0.004909525              -0.000872315              -0.000541486               0.001816987               0.001275501               0.000000000               0.000000000               0.000000000               0.000000000               0.000269872               0.004938631              -0.000764341              -0.000516126               0.001818236               0.001302110               0.000000000               0.000000000               0.000000000               0.000000000               0.000345477               0.004949252              -0.000653887              -0.000489102               0.001812768               0.001323666               0.000000000               0.000000000               0.000000000               0.000000000               0.000421274               0.004951413              -0.000531580              -0.000460948               0.001804104               0.001343156               0.000000000               0.000000000               0.000000000               0.000000000               0.000484880               0.004944884              -0.000387931              -0.000436279               0.001793705               0.001357425               0.000000000               0.000000000               0.000000000               0.000000000               0.000521267               0.004932403              -0.000211428              -0.000421074               0.001784476               0.001363402               0.000000000               0.000000000               0.000000000               0.000000000               0.000525763               0.004921141              -0.000111560              -0.000417981               0.001779691               0.001361710               0.000000000               0.000000000               0.000000000               0.000000000              -0.003912811              -0.000155251               0.000076771              -0.001447897               0.000430879              -0.001017018               0.000000000               0.000000000               0.000000000               0.000000000              -0.002167799               0.000553790              -0.000586936              -0.000882147               0.000478642              -0.000403505               0.000000000               0.000000000               0.000000000               0.000000000              -0.000969994               0.001315164              -0.001177770              -0.000528143               0.000614430               0.000086288               0.000000000               0.000000000               0.000000000               0.000000000              -0.000424052               0.002089347              -0.001319801              -0.000420188               0.000836504               0.000416316               0.000000000               0.000000000               0.000000000               0.000000000              -0.000151058               0.002742404              -0.001294703              -0.000399447               0.001047274               0.000647827               0.000000000               0.000000000               0.000000000               0.000000000              -0.000004250               0.003269273              -0.001211511              -0.000410253               0.001226497               0.000816245               0.000000000               0.000000000               0.000000000               0.000000000               0.000091575               0.003686919              -0.001109728              -0.000426524               0.001371135               0.000944611               0.000000000               0.000000000               0.000000000               0.000000000               0.000171091               0.004010238              -0.001004350              -0.000437120               0.001482439               0.001045319               0.000000000               0.000000000               0.000000000               0.000000000               0.000245749               0.004256716              -0.000906924              -0.000439933               0.001565535               0.001125602               0.000000000               0.000000000               0.000000000               0.000000000               0.000318495               0.004442060              -0.000819616              -0.000435821               0.001625946               0.001190124               0.000000000               0.000000000               0.000000000               0.000000000               0.000396030               0.004580418              -0.000737295              -0.000424040               0.001668138               0.001244097               0.000000000               0.000000000               0.000000000               0.000000000               0.000484108               0.004686804              -0.000658735              -0.000404309               0.001697022               0.001292713               0.000000000               0.000000000               0.000000000               0.000000000               0.000585106               0.004770611              -0.000579793              -0.000376911               0.001715825               0.001338914               0.000000000               0.000000000               0.000000000               0.000000000               0.000700695               0.004834679              -0.000488304              -0.000341574               0.001725402               0.001383828               0.000000000               0.000000000               0.000000000               0.000000000               0.000828525               0.004877627              -0.000369546              -0.000299006               0.001725528               0.001426522               0.000000000               0.000000000               0.000000000               0.000000000               0.000964262               0.004902155              -0.000207548              -0.000251171               0.001717759               0.001466588               0.000000000               0.000000000               0.000000000               0.000000000               0.001058041               0.004918047              -0.000115460              -0.000217990               0.001711996               0.001494006               0.000000000               0.000000000               0.000000000               0.000000000              -0.004478685              -0.000326887               0.000088480              -0.001638645               0.000437250              -0.001201395               0.000000000               0.000000000               0.000000000               0.000000000              -0.002453805               0.000205389              -0.000278767              -0.000945849               0.000383743              -0.000562106               0.000000000               0.000000000               0.000000000               0.000000000              -0.000969998               0.000776928              -0.000613684              -0.000460865               0.000412594              -0.000048270               0.000000000               0.000000000               0.000000000               0.000000000              -0.000288566               0.001497331              -0.000707011              -0.000295378               0.000597564               0.000302186               0.000000000               0.000000000               0.000000000               0.000000000               0.000043808               0.002161181              -0.000705353              -0.000253720               0.000804960               0.000551240               0.000000000               0.000000000               0.000000000               0.000000000               0.000212057               0.002729630              -0.000667529              -0.000261682               0.000997095               0.000735413               0.000000000               0.000000000               0.000000000               0.000000000               0.000303662               0.003203206              -0.000617003              -0.000286527               0.001163234               0.000876706               0.000000000               0.000000000               0.000000000               0.000000000               0.000364227               0.003587283              -0.000562925              -0.000311825               0.001299691               0.000987866               0.000000000               0.000000000               0.000000000               0.000000000               0.000420162               0.003895127              -0.000511460              -0.000329330               0.001408139               0.001078809               0.000000000               0.000000000               0.000000000               0.000000000               0.000479876               0.004139493              -0.000465401              -0.000337483               0.001492311               0.001154829               0.000000000               0.000000000               0.000000000               0.000000000               0.000553218               0.004335598              -0.000423224              -0.000334492               0.001556682               0.001222190               0.000000000               0.000000000               0.000000000               0.000000000               0.000648458               0.004499569              -0.000383739              -0.000319274               0.001606266               0.001286992               0.000000000               0.000000000               0.000000000               0.000000000               0.000769501               0.004637753              -0.000344375              -0.000291156               0.001642954               0.001351799               0.000000000               0.000000000               0.000000000               0.000000000               0.000920189               0.004749408              -0.000296434              -0.000248605               0.001665988               0.001417384               0.000000000               0.000000000               0.000000000               0.000000000               0.001109893               0.004830989              -0.000229676              -0.000187663               0.001672868               0.001485205               0.000000000               0.000000000               0.000000000               0.000000000               0.001352742               0.004882203              -0.000132174              -0.000102997               0.001661717               0.001558720               0.000000000               0.000000000               0.000000000               0.000000000               0.001553291               0.004922639              -0.000077372              -0.000032846               0.001651812               0.001618966               0.000000000               0.000000000               0.000000000               0.000000000               0.000000000               0.000000000               0.000000000               0.000000000               0.000000000               0.000000000               0.000000000               0.000000000               0.000000000               0.000000000               0.000000000               0.000000000               0.000000000               0.000000000               0.000000000               0.000000000               0.000000000               0.000000000               0.000000000               0.000000000               0.000000000               0.000000000               0.000000000               0.000000000               0.000000000               0.000000000               0.000000000               0.000000000               0.000000000               0.000000000               0.000000000               0.000000000               0.000000000               0.000000000               0.000000000               0.000000000               0.000000000               0.000000000               0.000000000               0.000000000               0.000000000               0.000000000               0.000000000               0.000000000               0.000000000               0.000000000               0.000000000               0.000000000               0.000000000               0.000000000               0.000000000               0.000000000               0.000000000               0.000000000               0.000000000               0.000000000               0.000000000               0.000000000               0.000000000               0.000000000               0.000000000               0.000000000               0.000000000               0.000000000               0.000000000               0.000000000               0.000000000               0.000000000               0.000000000               0.000000000               0.000000000               0.000000000               0.000000000               0.000000000               0.000000000               0.000000000               0.000000000               0.000000000               0.000000000               0.000000000               0.000000000               0.000000000               0.000000000               0.000000000               0.000000000               0.000000000               0.000000000               0.000000000               0.000000000               0.000000000               0.000000000               0.000000000               0.000000000               0.000000000               0.000000000               0.000000000               0.000000000               0.000000000               0.000000000               0.000000000               0.000000000               0.000000000               0.000000000               0.000000000               0.000000000               0.000000000               0.000000000               0.000000000               0.000000000               0.000000000               0.000000000               0.000000000               0.000000000               0.000000000               0.000000000               0.000000000               0.000000000               0.000000000               0.000000000               0.000000000               0.000000000               0.000000000               0.000000000               0.000000000               0.000000000               0.000000000               0.000000000               0.000000000               0.000000000               0.000000000               0.000000000               0.000000000               0.000000000               0.000000000               0.000000000               0.000000000               0.000000000               0.000000000               0.000000000               0.000000000               0.000000000               0.000000000               0.000000000               0.000000000               0.000000000               0.000000000               0.000000000               0.000000000               0.000000000               0.000000000               0.000000000               0.000000000               0.000000000               0.000000000               0.000000000               0.000000000               0.000000000               0.000000000               0.000000000               0.000000000               0.000000000               0.000000000               0.000000000               0.000000000               0.000000000               0.000000000               0.000000000               0.000000000               0.000000000               0.000000000               0.000000000               0.000000000               0.000000000               0.000000000               0.000000000               0.000000000               0.000000000               0.000000000               0.000000000               0.000000000               0.000000000               0.000000000               0.000000000               0.000000000               0.000000000               0.000000000               0.000000000               0.000000000               0.000000000               0.000000000               0.000000000               0.000000000               0.000000000               0.000000000               0.000000000               0.000000000               0.000000000               0.000000000               0.000000000               0.000000000               0.000000000               0.000000000               0.000000000               0.000000000               0.000000000               0.000000000               0.000000000               0.000000000               0.000000000               0.000000000               0.000000000               0.000000000               0.000000000               0.000000000               0.000000000               0.000000000               0.000000000               0.000000000               0.000000000               0.000000000               0.000000000               0.000000000               0.000000000               0.000000000               0.000000000               0.000000000               0.000000000               0.000000000               0.000000000               0.000000000               0.000000000               0.000000000               0.000000000               0.000000000               0.000000000               0.000000000               0.000000000               0.000000000               0.000000000               0.000000000               0.000000000               0.000000000               0.000000000               0.000000000               0.000000000               0.000000000               0.000000000               0.000000000               0.000000000               0.000000000               0.000000000               0.000000000               0.000000000               0.000000000               0.000000000               0.000000000               0.000000000               0.000000000               0.000000000               0.000000000               0.000000000               0.000000000               0.000000000               0.000000000               0.000000000               0.000000000               0.000000000               0.000000000               0.000000000               0.000000000               0.000000000               0.000000000               0.000000000               0.000000000               0.000000000               0.000000000               0.000000000               0.000000000               0.000000000               0.000000000               0.000000000               0.000000000               0.000000000               0.000000000               0.000000000               0.000000000               0.000000000               0.000000000               0.000000000               0.000000000               0.000000000               0.000000000               0.000000000               0.000000000               0.000000000               0.000000000               0.000000000               0.000000000               0.000000000               0.000000000               0.000000000               0.000000000               0.000000000               0.000000000               0.000000000               0.000000000               0.000000000               0.000000000               0.000000000               0.000000000               0.000000000               0.000000000               0.000000000               0.000000000               0.000000000               0.000000000               0.000000000               0.000000000               0.000000000               0.000000000               0.000000000               0.000000000               0.000000000               0.000000000               0.000000000               0.000000000               0.000000000               0.000000000               0.000000000               0.000000000               0.000000000               0.000000000               0.000000000               0.000000000               0.000000000               0.000000000               0.000000000               0.000000000               0.000000000               0.000000000               0.001600793               0.016826632               0.001218809              -0.001503028               0.006109831               0.004606802               0.000000000               0.000000000               0.000000000               0.000000000               0.001581224               0.013514868               0.000680772              -0.001096397               0.004870377               0.003773980               0.000000000               0.000000000               0.000000000               0.000000000               0.002057621               0.010864916               0.000139173              -0.000586505               0.003817104               0.003230599               0.000000000               0.000000000               0.000000000               0.000000000               0.002012399               0.009384253              -0.000096917              -0.000418381               0.003267514               0.002849132               0.000000000               0.000000000               0.000000000               0.000000000               0.001794022               0.008478194              -0.000203235              -0.000387015               0.002955041               0.002568026               0.000000000               0.000000000               0.000000000               0.000000000               0.001523767               0.007887170              -0.000251584              -0.000414483               0.002767191               0.002352708               0.000000000               0.000000000               0.000000000               0.000000000               0.001255984               0.007478595              -0.000266785              -0.000463829               0.002647450               0.002183621               0.000000000               0.000000000               0.000000000               0.000000000               0.001016867               0.007173700              -0.000263045              -0.000515386               0.002563005               0.002047619               0.000000000               0.000000000               0.000000000               0.000000000               0.000812051               0.006926975              -0.000253056              -0.000561351               0.002496086               0.001934734               0.000000000               0.000000000               0.000000000               0.000000000               0.000635492               0.006713239              -0.000239242              -0.000600844               0.002438005               0.001837161               0.000000000               0.000000000               0.000000000               0.000000000               0.000482230               0.006518602              -0.000222427              -0.000633987               0.002384175               0.001750187               0.000000000               0.000000000               0.000000000               0.000000000               0.000348022               0.006334424              -0.000207525              -0.000661293               0.002331885               0.001670592               0.000000000               0.000000000               0.000000000               0.000000000               0.000233686               0.006152160              -0.000192025              -0.000681386               0.002277828               0.001596442               0.000000000               0.000000000               0.000000000               0.000000000               0.000145316               0.005965529              -0.000167904              -0.000691196               0.002218888               0.001527693               0.000000000               0.000000000               0.000000000               0.000000000               0.000076849               0.005763000              -0.000131396              -0.000691555               0.002151499               0.001459944               0.000000000               0.000000000               0.000000000               0.000000000               0.000029052               0.005536316              -0.000076843              -0.000681143               0.002072468               0.001391325               0.000000000               0.000000000               0.000000000               0.000000000              -0.000005829               0.005365753              -0.000047365              -0.000672903               0.002012867               0.001339964               0.000000000               0.000000000               0.000000000               0.000000000               0.001789939               0.015887146               0.002289331              -0.001314664               0.005733884               0.004419220               0.000000000               0.000000000               0.000000000               0.000000000               0.001553232               0.012888842               0.001284060              -0.001028641               0.004639118               0.003610477               0.000000000               0.000000000               0.000000000               0.000000000               0.001793597               0.010566077               0.000278556              -0.000648159               0.003738044               0.003089884               0.000000000               0.000000000               0.000000000               0.000000000               0.001656061               0.009258433              -0.000149456              -0.000536280               0.003264873               0.002728594               0.000000000               0.000000000               0.000000000               0.000000000               0.001419074               0.008446286              -0.000337232              -0.000523632               0.002989944               0.002466313               0.000000000               0.000000000               0.000000000               0.000000000               0.001166006               0.007899904              -0.000419356              -0.000550234               0.002816686               0.002266452               0.000000000               0.000000000               0.000000000               0.000000000               0.000930599               0.007505783              -0.000444337              -0.000589247               0.002698318               0.002109071               0.000000000               0.000000000               0.000000000               0.000000000               0.000729129               0.007201995              -0.000436569              -0.000626825               0.002609582               0.001982758               0.000000000               0.000000000               0.000000000               0.000000000               0.000559546               0.006949746              -0.000415825              -0.000658887               0.002536188               0.001877301               0.000000000               0.000000000               0.000000000               0.000000000               0.000418065               0.006732323              -0.000391564              -0.000684764               0.002472340               0.001787576               0.000000000               0.000000000               0.000000000               0.000000000               0.000300677               0.006543146              -0.000365853              -0.000705138               0.002416073               0.001710935               0.000000000               0.000000000               0.000000000               0.000000000               0.000197527               0.006367867              -0.000336630              -0.000721909               0.002363237               0.001641328               0.000000000               0.000000000               0.000000000               0.000000000               0.000114306               0.006192393              -0.000301863              -0.000731182               0.002307838               0.001576655               0.000000000               0.000000000               0.000000000               0.000000000               0.000059540               0.006017865              -0.000256149              -0.000729904               0.002249236               0.001519332               0.000000000               0.000000000               0.000000000               0.000000000               0.000024485               0.005843680              -0.000194451              -0.000721276               0.002188299               0.001467023               0.000000000               0.000000000               0.000000000               0.000000000               0.000006777               0.005672080              -0.000110320              -0.000706467               0.002126163               0.001419696               0.000000000               0.000000000               0.000000000               0.000000000              -0.000008850               0.005557145              -0.000065867              -0.000697960               0.002085016               0.001387056               0.000000000               0.000000000               0.000000000               0.000000000               0.002022117               0.014458638               0.003088537              -0.001049035               0.005169176               0.004120140               0.000000000               0.000000000               0.000000000               0.000000000               0.001477829               0.011949352               0.001746563              -0.000939482               0.004296238               0.003356756               0.000000000               0.000000000               0.000000000               0.000000000               0.001389063               0.010123675               0.000417410              -0.000744559               0.003622711               0.002878152               0.000000000               0.000000000               0.000000000               0.000000000               0.001142347               0.009061775              -0.000127817              -0.000704340               0.003255341               0.002551001               0.000000000               0.000000000               0.000000000               0.000000000               0.000893078               0.008373768              -0.000358627              -0.000711815               0.003028500               0.002316685               0.000000000               0.000000000               0.000000000               0.000000000               0.000673854               0.007887105              -0.000456289              -0.000733191               0.002873406               0.002140215               0.000000000               0.000000000               0.000000000               0.000000000               0.000493274               0.007515225              -0.000486735              -0.000754424               0.002756525               0.002002101               0.000000000               0.000000000               0.000000000               0.000000000               0.000348650               0.007213023              -0.000477587              -0.000770882               0.002661278               0.001890395               0.000000000               0.000000000               0.000000000               0.000000000               0.000232383               0.006958487              -0.000453052              -0.000782665               0.002580361               0.001797696               0.000000000               0.000000000               0.000000000               0.000000000               0.000140905               0.006742803              -0.000426376              -0.000790009               0.002510915               0.001720906               0.000000000               0.000000000               0.000000000               0.000000000               0.000067629               0.006553394              -0.000397329              -0.000793811               0.002449047               0.001655235               0.000000000               0.000000000               0.000000000               0.000000000               0.000009749               0.006376314              -0.000359529              -0.000793381               0.002389877               0.001596496               0.000000000               0.000000000               0.000000000               0.000000000              -0.000028450               0.006207047              -0.000313974              -0.000786548               0.002331177               0.001544630               0.000000000               0.000000000               0.000000000               0.000000000              -0.000046256               0.006048461              -0.000260674              -0.000773402               0.002273934               0.001500532               0.000000000               0.000000000               0.000000000               0.000000000              -0.000046985               0.005907301              -0.000193352              -0.000756030               0.002221091               0.001465061               0.000000000               0.000000000               0.000000000               0.000000000              -0.000029498               0.005788576              -0.000106899              -0.000734632               0.002174383               0.001439751               0.000000000               0.000000000               0.000000000               0.000000000              -0.000023030               0.005720013              -0.000062185              -0.000723636               0.002147864               0.001424228               0.000000000               0.000000000               0.000000000               0.000000000               0.002197364               0.012705660               0.003553488              -0.000764197               0.004489909               0.003725712               0.000000000               0.000000000               0.000000000               0.000000000               0.001326729               0.010815051               0.002043385              -0.000854357               0.003889766               0.003035409               0.000000000               0.000000000               0.000000000               0.000000000               0.000889922               0.009592452               0.000564100              -0.000865334               0.003485897               0.002620563               0.000000000               0.000000000               0.000000000               0.000000000               0.000557196               0.008805072              -0.000016340              -0.000891683               0.003232223               0.002340539               0.000000000               0.000000000               0.000000000               0.000000000               0.000323657               0.008246300              -0.000256323              -0.000909414               0.003051877               0.002142463               0.000000000               0.000000000               0.000000000               0.000000000               0.000163752               0.007819702              -0.000358128              -0.000916054               0.002911892               0.001995839               0.000000000               0.000000000               0.000000000               0.000000000               0.000052824               0.007466494              -0.000392509              -0.000913500               0.002793306               0.001879806               0.000000000               0.000000000               0.000000000               0.000000000              -0.000022527               0.007167926              -0.000388799              -0.000904436               0.002690763               0.001786327               0.000000000               0.000000000               0.000000000               0.000000000              -0.000076300               0.006914426              -0.000372403              -0.000892914               0.002602424               0.001709510               0.000000000               0.000000000               0.000000000               0.000000000              -0.000111723               0.006697874              -0.000354195              -0.000879128               0.002525645               0.001646517               0.000000000               0.000000000               0.000000000               0.000000000              -0.000130323               0.006503233              -0.000331432              -0.000861773               0.002454980               0.001593207               0.000000000               0.000000000               0.000000000               0.000000000              -0.000136678               0.006322566              -0.000298958              -0.000841573               0.002388025               0.001546452               0.000000000               0.000000000               0.000000000               0.000000000              -0.000129857               0.006160256              -0.000257997              -0.000818726               0.002326307               0.001507580               0.000000000               0.000000000               0.000000000               0.000000000              -0.000110789               0.006020758              -0.000212469              -0.000794139               0.002271612               0.001477474               0.000000000               0.000000000               0.000000000               0.000000000              -0.000082682               0.005908866              -0.000155629              -0.000769612               0.002226140               0.001456528               0.000000000               0.000000000               0.000000000               0.000000000              -0.000045494               0.005827910              -0.000083287              -0.000745547               0.002191133               0.001445586               0.000000000               0.000000000               0.000000000               0.000000000              -0.000027432               0.005790634              -0.000046000              -0.000734115               0.002174897               0.001440782               0.000000000               0.000000000               0.000000000               0.000000000               0.002226138               0.010801281               0.003684945              -0.000515361               0.003772177               0.003256816               0.000000000               0.000000000               0.000000000               0.000000000               0.001084275               0.009607244               0.002188259              -0.000794302               0.003467149               0.002672848               0.000000000               0.000000000               0.000000000               0.000000000               0.000351353               0.009019028               0.000732931              -0.000995619               0.003338186               0.002342567               0.000000000               0.000000000               0.000000000               0.000000000              -0.000011219               0.008492794               0.000180949              -0.001065804               0.003186171               0.002120367               0.000000000               0.000000000               0.000000000               0.000000000              -0.000190476               0.008051224              -0.000049328              -0.001077829               0.003042991               0.001965162               0.000000000               0.000000000               0.000000000               0.000000000              -0.000273390               0.007673142              -0.000152172              -0.001061661               0.002911575               0.001849914               0.000000000               0.000000000               0.000000000               0.000000000              -0.000307059               0.007339546              -0.000196420              -0.001032588               0.002790687               0.001758099               0.000000000               0.000000000               0.000000000               0.000000000              -0.000310594               0.007047799              -0.000211270              -0.000997445               0.002681725               0.001684279               0.000000000               0.000000000               0.000000000               0.000000000              -0.000298902               0.006795949              -0.000215363              -0.000961580               0.002585820               0.001624241               0.000000000               0.000000000               0.000000000               0.000000000              -0.000277507               0.006573592              -0.000215747              -0.000925762               0.002499763               0.001574001               0.000000000               0.000000000               0.000000000               0.000000000              -0.000244630               0.006372142              -0.000207052              -0.000888252               0.002420110               0.001531858               0.000000000               0.000000000               0.000000000               0.000000000              -0.000204913               0.006190640              -0.000188389              -0.000850670               0.002347083               0.001496412               0.000000000               0.000000000               0.000000000               0.000000000              -0.000161399               0.006033437              -0.000161823              -0.000814702               0.002282693               0.001467991               0.000000000               0.000000000               0.000000000               0.000000000              -0.000116238               0.005903029              -0.000130303              -0.000781466               0.002228145               0.001446679               0.000000000               0.000000000               0.000000000               0.000000000              -0.000073799               0.005797834              -0.000088653              -0.000752402               0.002183393               0.001430991               0.000000000               0.000000000               0.000000000               0.000000000              -0.000035807               0.005721913              -0.000041189              -0.000728665               0.002150173               0.001421509               0.000000000               0.000000000               0.000000000               0.000000000              -0.000020536               0.005687060              -0.000020499              -0.000718582               0.002135195               0.001416613               0.000000000               0.000000000               0.000000000               0.000000000               0.002061429               0.008898726               0.003528898              -0.000339308               0.003079314               0.002740006               0.000000000               0.000000000               0.000000000               0.000000000               0.000765497               0.008420241               0.002217762              -0.000765469               0.003061874               0.002296406               0.000000000               0.000000000               0.000000000               0.000000000              -0.000163702               0.008425169               0.000933889              -0.001114532               0.003179872               0.002065340               0.000000000               0.000000000               0.000000000               0.000000000              -0.000490178               0.008121123               0.000444265              -0.001198954               0.003106665               0.001907711               0.000000000               0.000000000               0.000000000               0.000000000              -0.000584584               0.007777305               0.000225303              -0.001191379               0.002989535               0.001798156               0.000000000               0.000000000               0.000000000               0.000000000              -0.000580727               0.007445307               0.000109225              -0.001148433               0.002864555               0.001716122               0.000000000               0.000000000               0.000000000               0.000000000              -0.000538622               0.007137587               0.000040410              -0.001094179               0.002743898               0.001649719               0.000000000               0.000000000               0.000000000               0.000000000              -0.000484532               0.006855244              -0.000004060              -0.001038602               0.002631259               0.001592657               0.000000000               0.000000000               0.000000000               0.000000000              -0.000421549               0.006606908              -0.000036566              -0.000983942               0.002530261               0.001546319               0.000000000               0.000000000               0.000000000               0.000000000              -0.000355167               0.006384967              -0.000058358              -0.000931306               0.002438736               0.001507430               0.000000000               0.000000000               0.000000000               0.000000000              -0.000282521               0.006182463              -0.000067843              -0.000878751               0.002353717               0.001474967               0.000000000               0.000000000               0.000000000               0.000000000              -0.000210310               0.005999799              -0.000066339              -0.000828839               0.002276192               0.001447354               0.000000000               0.000000000               0.000000000               0.000000000              -0.000150224               0.005837149              -0.000056910              -0.000785976               0.002207689               0.001421713               0.000000000               0.000000000               0.000000000               0.000000000              -0.000100342               0.005697651              -0.000042809              -0.000749833               0.002149142               0.001399310               0.000000000               0.000000000               0.000000000               0.000000000              -0.000056298               0.005582439              -0.000023183              -0.000718915               0.002100433               0.001381518               0.000000000               0.000000000               0.000000000               0.000000000              -0.000023096               0.005492874              -0.000005850              -0.000695269               0.002062696               0.001367427               0.000000000               0.000000000               0.000000000               0.000000000              -0.000017837               0.005442041              -0.000004366              -0.000686942               0.002042976               0.001356034               0.000000000               0.000000000               0.000000000               0.000000000               0.001715675               0.007109453               0.003153704              -0.000245307               0.002451562               0.002206255               0.000000000               0.000000000               0.000000000               0.000000000               0.000401250               0.007312110               0.002171087              -0.000763545               0.002691860               0.001928315               0.000000000               0.000000000               0.000000000               0.000000000              -0.000591540               0.007813763               0.001167957              -0.001198545               0.003004077               0.001805531               0.000000000               0.000000000               0.000000000               0.000000000              -0.000828217               0.007691400               0.000742072              -0.001272003               0.002987775               0.001715772               0.000000000               0.000000000               0.000000000               0.000000000              -0.000824429               0.007436007               0.000514023              -0.001238659               0.002891530               0.001652872               0.000000000               0.000000000               0.000000000               0.000000000              -0.000740592               0.007153514               0.000367252              -0.001171908               0.002775117               0.001603208               0.000000000               0.000000000               0.000000000               0.000000000              -0.000640715               0.006871408               0.000264750              -0.001099191               0.002656844               0.001557652               0.000000000               0.000000000               0.000000000               0.000000000              -0.000544953               0.006605987               0.000188570              -0.001030103               0.002545341               0.001515238               0.000000000               0.000000000               0.000000000               0.000000000              -0.000448429               0.006369095               0.000126585              -0.000964295               0.002444442               0.001480147               0.000000000               0.000000000               0.000000000               0.000000000              -0.000354161               0.006151256               0.000081586              -0.000901715               0.002350970               0.001449255               0.000000000               0.000000000               0.000000000               0.000000000              -0.000265978               0.005946932               0.000053942              -0.000843106               0.002263326               0.001420220               0.000000000               0.000000000               0.000000000               0.000000000              -0.000189697               0.005757963               0.000037845              -0.000790880               0.002182928               0.001392049               0.000000000               0.000000000               0.000000000               0.000000000              -0.000129266               0.005588829               0.000027299              -0.000747076               0.002111950               0.001364873               0.000000000               0.000000000               0.000000000               0.000000000              -0.000078004               0.005444788               0.000018275              -0.000709848               0.002051527               0.001341679               0.000000000               0.000000000               0.000000000               0.000000000              -0.000037573               0.005326440               0.000012754              -0.000679893               0.002002093               0.001322200               0.000000000               0.000000000               0.000000000               0.000000000              -0.000014649               0.005230441               0.000007351              -0.000659297               0.001963228               0.001303932               0.000000000               0.000000000               0.000000000               0.000000000              -0.000015937               0.005172783              -0.000001769              -0.000652573               0.001941768               0.001289195               0.000000000               0.000000000               0.000000000               0.000000000               0.001266297               0.005563857               0.002647716              -0.000220623               0.001928140               0.001707517               0.000000000               0.000000000               0.000000000               0.000000000               0.000063694               0.006310645               0.002093032              -0.000764945               0.002358508               0.001593563               0.000000000               0.000000000               0.000000000               0.000000000              -0.000887147               0.007219220               0.001440875              -0.001235080               0.002818076               0.001582996               0.000000000               0.000000000               0.000000000               0.000000000              -0.001023339               0.007286189               0.001057318              -0.001294523               0.002860213               0.001565690               0.000000000               0.000000000               0.000000000               0.000000000              -0.000944182               0.007132710               0.000803428              -0.001245654               0.002792764               0.001547110               0.000000000               0.000000000               0.000000000               0.000000000              -0.000803013               0.006906009               0.000621113              -0.001164378               0.002690106               0.001525728               0.000000000               0.000000000               0.000000000               0.000000000              -0.000660002               0.006655262               0.000484322              -0.001079406               0.002578200               0.001498794               0.000000000               0.000000000               0.000000000               0.000000000              -0.000532212               0.006416585               0.000376007              -0.001001650               0.002472724               0.001471073               0.000000000               0.000000000               0.000000000               0.000000000              -0.000417491               0.006196229               0.000286607              -0.000931086               0.002375751               0.001444665               0.000000000               0.000000000               0.000000000               0.000000000              -0.000314122               0.005979643               0.000218088              -0.000865249               0.002281611               0.001416362               0.000000000               0.000000000               0.000000000               0.000000000              -0.000224546               0.005769506               0.000168707              -0.000805391               0.002191613               0.001386222               0.000000000               0.000000000               0.000000000               0.000000000              -0.000153755               0.005574051               0.000129892              -0.000754413               0.002109469               0.001355057               0.000000000               0.000000000               0.000000000               0.000000000              -0.000100137               0.005403833               0.000095485              -0.000713029               0.002038936               0.001325907               0.000000000               0.000000000               0.000000000               0.000000000              -0.000059234               0.005262406               0.000061844              -0.000680012               0.001980788               0.001300776               0.000000000               0.000000000               0.000000000               0.000000000              -0.000036927               0.005144957               0.000034111              -0.000656966               0.001933957               0.001276992               0.000000000               0.000000000               0.000000000               0.000000000              -0.000038367               0.005047591               0.000014757              -0.000645335               0.001897625               0.001252290               0.000000000               0.000000000               0.000000000               0.000000000              -0.000046049               0.004997461               0.000004424              -0.000641949               0.001879787               0.001237838               0.000000000               0.000000000               0.000000000               0.000000000               0.000699139               0.004101588               0.002091358              -0.000250523               0.001450689               0.001200166               0.000000000               0.000000000               0.000000000               0.000000000              -0.000193954               0.005155044               0.001995976              -0.000717113               0.001957368               0.001240255               0.000000000               0.000000000               0.000000000               0.000000000              -0.001003384               0.006358244               0.001736979              -0.001171048               0.002509742               0.001338695               0.000000000               0.000000000               0.000000000               0.000000000              -0.001094786               0.006677418               0.001406376              -0.001245219               0.002640857               0.001395637               0.000000000               0.000000000               0.000000000               0.000000000              -0.000993717               0.006690612               0.001132102              -0.001208968               0.002633171               0.001424203               0.000000000               0.000000000               0.000000000               0.000000000              -0.000839288               0.006574894               0.000917247              -0.001136592               0.002570473               0.001433881               0.000000000               0.000000000               0.000000000               0.000000000              -0.000681605               0.006406107               0.000745132              -0.001056363               0.002487468               0.001431106               0.000000000               0.000000000               0.000000000               0.000000000              -0.000538475               0.006233647               0.000601778              -0.000981132               0.002404905               0.001423774               0.000000000               0.000000000               0.000000000               0.000000000              -0.000418470               0.006060536               0.000483118              -0.000914491               0.002324989               0.001410498               0.000000000               0.000000000               0.000000000               0.000000000              -0.000317991               0.005877675               0.000387760              -0.000853954               0.002243857               0.001389903               0.000000000               0.000000000               0.000000000               0.000000000              -0.000232698               0.005689444               0.000308251              -0.000798440               0.002162609               0.001364169               0.000000000               0.000000000               0.000000000               0.000000000              -0.000167258               0.005505718               0.000239110              -0.000750935               0.002085533               0.001334598               0.000000000               0.000000000               0.000000000               0.000000000              -0.000119931               0.005340112               0.000176841              -0.000712487               0.002017515               0.001305029               0.000000000               0.000000000               0.000000000               0.000000000              -0.000088011               0.005201338               0.000117468              -0.000683170               0.001961485               0.001278315               0.000000000               0.000000000               0.000000000               0.000000000              -0.000074968               0.005083114               0.000063244              -0.000663501               0.001915521               0.001252021               0.000000000               0.000000000               0.000000000               0.000000000              -0.000083536               0.004986759               0.000022059              -0.000654669               0.001880460               0.001225790               0.000000000               0.000000000               0.000000000               0.000000000              -0.000094671               0.004944084               0.000005009              -0.000653510               0.001865848               0.001212338               0.000000000               0.000000000               0.000000000               0.000000000              -0.000081347               0.002766118               0.001509263              -0.000376270               0.001047453               0.000671182               0.000000000               0.000000000               0.000000000               0.000000000              -0.000491854               0.004004162               0.001836456              -0.000684965               0.001563028               0.000878063               0.000000000               0.000000000               0.000000000               0.000000000              -0.001038445               0.005380358               0.001965529              -0.001061960               0.002147421               0.001085461               0.000000000               0.000000000               0.000000000               0.000000000              -0.001089144               0.005935317               0.001737524              -0.001150341               0.002361866               0.001211525               0.000000000               0.000000000               0.000000000               0.000000000              -0.000985083               0.006138491               0.001473520              -0.001136715               0.002425048               0.001288333               0.000000000               0.000000000               0.000000000               0.000000000              -0.000835322               0.006166318               0.001239603              -0.001084033               0.002416763               0.001332730               0.000000000               0.000000000               0.000000000               0.000000000              -0.000680876               0.006110434               0.001039784              -0.001019131               0.002376501               0.001357371               0.000000000               0.000000000               0.000000000               0.000000000              -0.000533227               0.006025123               0.000869053              -0.000953098               0.002326054               0.001372955               0.000000000               0.000000000               0.000000000               0.000000000              -0.000404903               0.005915939               0.000724751              -0.000891329               0.002269070               0.001377741               0.000000000               0.000000000               0.000000000               0.000000000              -0.000306512               0.005781738               0.000603107              -0.000837657               0.002206446               0.001368788               0.000000000               0.000000000               0.000000000               0.000000000              -0.000227155               0.005633771               0.000495758              -0.000789403               0.002141039               0.001351636               0.000000000               0.000000000               0.000000000               0.000000000              -0.000162185               0.005477342               0.000397759              -0.000745486               0.002074258               0.001328772               0.000000000               0.000000000               0.000000000               0.000000000              -0.000116801               0.005325114               0.000306415              -0.000709438               0.002011500               0.001302062               0.000000000               0.000000000               0.000000000               0.000000000              -0.000089800               0.005191463               0.000217904              -0.000682606               0.001958006               0.001275400               0.000000000               0.000000000               0.000000000               0.000000000              -0.000080901               0.005078767               0.000132458              -0.000665182               0.001914633               0.001249451               0.000000000               0.000000000               0.000000000               0.000000000              -0.000094503               0.004987479               0.000057142              -0.000658872               0.001882100               0.001223229               0.000000000               0.000000000               0.000000000               0.000000000              -0.000116391               0.004941491               0.000020106              -0.000661331               0.001867591               0.001206260               0.000000000               0.000000000               0.000000000               0.000000000              -0.001026083               0.001644554               0.000936799              -0.000590349               0.000744962               0.000154612               0.000000000               0.000000000               0.000000000               0.000000000              -0.000874527               0.002915554               0.001587723              -0.000692391               0.001202638               0.000510247               0.000000000               0.000000000               0.000000000               0.000000000              -0.001035745               0.004293290               0.002037308              -0.000925065               0.001739437               0.000814372               0.000000000               0.000000000               0.000000000               0.000000000              -0.000991658               0.005016503               0.001943843              -0.000998933               0.002005128               0.001006195               0.000000000               0.000000000               0.000000000               0.000000000              -0.000880133               0.005395339               0.001727173              -0.001004465               0.002133250               0.001128784               0.000000000               0.000000000               0.000000000               0.000000000              -0.000744578               0.005580582               0.001500575              -0.000976788               0.002185771               0.001208983               0.000000000               0.000000000               0.000000000               0.000000000              -0.000600650               0.005656630               0.001292958              -0.000932321               0.002196298               0.001263977               0.000000000               0.000000000               0.000000000               0.000000000              -0.000462058               0.005673282               0.001110156              -0.000882430               0.002185218               0.001302788               0.000000000               0.000000000               0.000000000               0.000000000              -0.000336707               0.005646252               0.000950050              -0.000832045               0.002159413               0.001327368               0.000000000               0.000000000               0.000000000               0.000000000              -0.000234341               0.005581180               0.000811488              -0.000785524               0.002122216               0.001336692               0.000000000               0.000000000               0.000000000               0.000000000              -0.000155099               0.005486859               0.000690106              -0.000744018               0.002076941               0.001332923               0.000000000               0.000000000               0.000000000               0.000000000              -0.000089498               0.005375143               0.000574510              -0.000705453               0.002026847               0.001321394               0.000000000               0.000000000               0.000000000               0.000000000              -0.000041306               0.005259314               0.000457732              -0.000672902               0.001977388               0.001304486               0.000000000               0.000000000               0.000000000               0.000000000              -0.000014135               0.005152776               0.000342330              -0.000649396               0.001934040               0.001284644               0.000000000               0.000000000               0.000000000               0.000000000              -0.000008924               0.005060196               0.000227852              -0.000635870               0.001898672               0.001262802               0.000000000               0.000000000               0.000000000               0.000000000              -0.000031449               0.004981955               0.000111742              -0.000634536               0.001872147               0.001237611               0.000000000               0.000000000               0.000000000               0.000000000              -0.000065133               0.004938107               0.000048942              -0.000641687               0.001859915               0.001218228               0.000000000               0.000000000               0.000000000               0.000000000              -0.002059614               0.000789050               0.000444278              -0.000870985               0.000553341              -0.000317644               0.000000000               0.000000000               0.000000000               0.000000000              -0.001313661               0.001942378               0.001272577              -0.000735419               0.000892592               0.000157173               0.000000000               0.000000000               0.000000000               0.000000000              -0.001013166               0.003180115               0.001928292              -0.000777451               0.001319177               0.000541726               0.000000000               0.000000000               0.000000000               0.000000000              -0.000821342               0.003989239               0.001963109              -0.000806657               0.001598618               0.000791961               0.000000000               0.000000000               0.000000000               0.000000000              -0.000679740               0.004509356               0.001815430              -0.000818571               0.001775960               0.000957389               0.000000000               0.000000000               0.000000000               0.000000000              -0.000553389               0.004841409               0.001625330              -0.000812696               0.001884685               0.001071989               0.000000000               0.000000000               0.000000000               0.000000000              -0.000428244               0.005048717               0.001434962              -0.000791680               0.001946782               0.001155102               0.000000000               0.000000000               0.000000000               0.000000000              -0.000306988               0.005175620               0.001257703              -0.000762072               0.001979213               0.001217141               0.000000000               0.000000000               0.000000000               0.000000000              -0.000194627               0.005243215               0.001099386              -0.000728386               0.001990516               0.001262130               0.000000000               0.000000000               0.000000000               0.000000000              -0.000091497               0.005258772               0.000960956              -0.000691657               0.001983458               0.001291802               0.000000000               0.000000000               0.000000000               0.000000000              -0.000005481               0.005234177               0.000837655              -0.000656326               0.001963484               0.001307157               0.000000000               0.000000000               0.000000000               0.000000000               0.000063097               0.005186202               0.000717871              -0.000624612               0.001936921               0.001312308               0.000000000               0.000000000               0.000000000               0.000000000               0.000120508               0.005126343               0.000592946              -0.000595601               0.001907298               0.001311697               0.000000000               0.000000000               0.000000000               0.000000000               0.000164952               0.005068897               0.000462524              -0.000571754               0.001880200               0.001308446               0.000000000               0.000000000               0.000000000               0.000000000               0.000184986               0.005015920               0.000324066              -0.000557619               0.001857830               0.001300211               0.000000000               0.000000000               0.000000000               0.000000000               0.000169719               0.004965319               0.000169590              -0.000557019               0.001840763               0.001283744               0.000000000               0.000000000               0.000000000               0.000000000               0.000137064               0.004932187               0.000082960              -0.000565123               0.001832420               0.001267297               0.000000000               0.000000000               0.000000000               0.000000000              -0.003066320               0.000200259               0.000096226              -0.001174901               0.000458384              -0.000716518               0.000000000               0.000000000               0.000000000               0.000000000              -0.001765056               0.001140636               0.000926317              -0.000804475               0.000648365              -0.000156109               0.000000000               0.000000000               0.000000000               0.000000000              -0.000985832               0.002147910               0.001633103              -0.000638175               0.000928687               0.000290512               0.000000000               0.000000000               0.000000000               0.000000000              -0.000615519               0.002966402               0.001754538              -0.000601620               0.001189330               0.000587710               0.000000000               0.000000000               0.000000000               0.000000000              -0.000415400               0.003577388               0.001677938              -0.000602948               0.001393433               0.000790484               0.000000000               0.000000000               0.000000000               0.000000000              -0.000284597               0.004025948               0.001541127              -0.000609967               0.001545291               0.000935324               0.000000000               0.000000000               0.000000000               0.000000000              -0.000178424               0.004352014               0.001388553              -0.000610910               0.001654293               0.001043383               0.000000000               0.000000000               0.000000000               0.000000000              -0.000078095               0.004584288               0.001239517              -0.000602321               0.001728854               0.001126533               0.000000000               0.000000000               0.000000000               0.000000000               0.000016491               0.004746512               0.001104242              -0.000587129               0.001777864               0.001190735               0.000000000               0.000000000               0.000000000               0.000000000               0.000107813               0.004850896               0.000983996              -0.000565931               0.001805593               0.001239662               0.000000000               0.000000000               0.000000000               0.000000000               0.000192542               0.004909525               0.000872315              -0.000541486               0.001816987               0.001275501               0.000000000               0.000000000               0.000000000               0.000000000               0.000269872               0.004938631               0.000764341              -0.000516126               0.001818236               0.001302110               0.000000000               0.000000000               0.000000000               0.000000000               0.000345477               0.004949252               0.000653887              -0.000489102               0.001812768               0.001323666               0.000000000               0.000000000               0.000000000               0.000000000               0.000421274               0.004951413               0.000531580              -0.000460948               0.001804104               0.001343156               0.000000000               0.000000000               0.000000000               0.000000000               0.000484880               0.004944884               0.000387931              -0.000436279               0.001793705               0.001357425               0.000000000               0.000000000               0.000000000               0.000000000               0.000521267               0.004932403               0.000211428              -0.000421074               0.001784476               0.001363402               0.000000000               0.000000000               0.000000000               0.000000000               0.000525763               0.004921141               0.000111560              -0.000417981               0.001779691               0.001361710               0.000000000               0.000000000               0.000000000               0.000000000              -0.003912811              -0.000155251              -0.000076771              -0.001447897               0.000430879              -0.001017018               0.000000000               0.000000000               0.000000000               0.000000000              -0.002167799               0.000553790               0.000586936              -0.000882147               0.000478642              -0.000403505               0.000000000               0.000000000               0.000000000               0.000000000              -0.000969994               0.001315164               0.001177770              -0.000528143               0.000614430               0.000086288               0.000000000               0.000000000               0.000000000               0.000000000              -0.000424052               0.002089347               0.001319801              -0.000420188               0.000836504               0.000416316               0.000000000               0.000000000               0.000000000               0.000000000              -0.000151058               0.002742404               0.001294703              -0.000399447               0.001047274               0.000647827               0.000000000               0.000000000               0.000000000               0.000000000              -0.000004250               0.003269273               0.001211511              -0.000410253               0.001226497               0.000816245               0.000000000               0.000000000               0.000000000               0.000000000               0.000091575               0.003686919               0.001109728              -0.000426524               0.001371135               0.000944611               0.000000000               0.000000000               0.000000000               0.000000000               0.000171091               0.004010238               0.001004350              -0.000437120               0.001482439               0.001045319               0.000000000               0.000000000               0.000000000               0.000000000               0.000245749               0.004256716               0.000906924              -0.000439933               0.001565535               0.001125602               0.000000000               0.000000000               0.000000000               0.000000000               0.000318495               0.004442060               0.000819616              -0.000435821               0.001625946               0.001190124               0.000000000               0.000000000               0.000000000               0.000000000               0.000396030               0.004580418               0.000737295              -0.000424040               0.001668138               0.001244097               0.000000000               0.000000000               0.000000000               0.000000000               0.000484108               0.004686804               0.000658735              -0.000404309               0.001697022               0.001292713               0.000000000               0.000000000               0.000000000               0.000000000               0.000585106               0.004770611               0.000579793              -0.000376911               0.001715825               0.001338914               0.000000000               0.000000000               0.000000000               0.000000000               0.000700695               0.004834679               0.000488304              -0.000341574               0.001725402               0.001383828               0.000000000               0.000000000               0.000000000               0.000000000               0.000828525               0.004877627               0.000369546              -0.000299006               0.001725528               0.001426522               0.000000000               0.000000000               0.000000000               0.000000000               0.000964262               0.004902155               0.000207548              -0.000251171               0.001717759               0.001466588               0.000000000               0.000000000               0.000000000               0.000000000               0.001058041               0.004918047               0.000115460              -0.000217990               0.001711996               0.001494006               0.000000000               0.000000000               0.000000000               0.000000000              -0.004478685              -0.000326887              -0.000088480              -0.001638645               0.000437250              -0.001201395               0.000000000               0.000000000               0.000000000               0.000000000              -0.002453805               0.000205389               0.000278767              -0.000945849               0.000383743              -0.000562106               0.000000000               0.000000000               0.000000000               0.000000000              -0.000969998               0.000776928               0.000613684              -0.000460865               0.000412594              -0.000048270               0.000000000               0.000000000               0.000000000               0.000000000              -0.000288566               0.001497331               0.000707011              -0.000295378               0.000597564               0.000302186               0.000000000               0.000000000               0.000000000               0.000000000               0.000043808               0.002161181               0.000705353              -0.000253720               0.000804960               0.000551240               0.000000000               0.000000000               0.000000000               0.000000000               0.000212057               0.002729630               0.000667529              -0.000261682               0.000997095               0.000735413               0.000000000               0.000000000               0.000000000               0.000000000               0.000303662               0.003203206               0.000617003              -0.000286527               0.001163234               0.000876706               0.000000000               0.000000000               0.000000000               0.000000000               0.000364227               0.003587283               0.000562925              -0.000311825               0.001299691               0.000987866               0.000000000               0.000000000               0.000000000               0.000000000               0.000420162               0.003895127               0.000511460              -0.000329330               0.001408139               0.001078809               0.000000000               0.000000000               0.000000000               0.000000000               0.000479876               0.004139493               0.000465401              -0.000337483               0.001492311               0.001154829               0.000000000               0.000000000               0.000000000               0.000000000               0.000553218               0.004335598               0.000423224              -0.000334492               0.001556682               0.001222190               0.000000000               0.000000000               0.000000000               0.000000000               0.000648458               0.004499569               0.000383739              -0.000319274               0.001606266               0.001286992               0.000000000               0.000000000               0.000000000               0.000000000               0.000769501               0.004637753               0.000344375              -0.000291156               0.001642954               0.001351799               0.000000000               0.000000000               0.000000000               0.000000000               0.000920189               0.004749408               0.000296434              -0.000248605               0.001665988               0.001417384               0.000000000               0.000000000               0.000000000               0.000000000               0.001109893               0.004830989               0.000229676              -0.000187663               0.001672868               0.001485205               0.000000000               0.000000000               0.000000000               0.000000000               0.001352742               0.004882203               0.000132174              -0.000102997               0.001661717               0.001558720               0.000000000               0.000000000               0.000000000               0.000000000               0.001553291               0.004922639               0.000077372              -0.000032846               0.001651812               0.001618966               0.000000000               0.000000000               0.000000000               0.000000000               0.000000000               0.000000000               0.000000000               0.000000000               0.000000000               0.000000000               0.000000000               0.000000000               0.000000000               0.000000000               0.000000000               0.000000000               0.000000000               0.000000000               0.000000000               0.000000000               0.000000000               0.000000000               0.000000000               0.000000000               0.000000000               0.000000000               0.000000000               0.000000000               0.000000000               0.000000000               0.000000000               0.000000000               0.000000000               0.000000000               0.000000000               0.000000000               0.000000000               0.000000000               0.000000000               0.000000000               0.000000000               0.000000000               0.000000000               0.000000000               0.000000000               0.000000000               0.000000000               0.000000000               0.000000000               0.000000000               0.000000000               0.000000000               0.000000000               0.000000000               0.000000000               0.000000000               0.000000000               0.000000000               0.000000000               0.000000000               0.000000000               0.000000000               0.000000000               0.000000000               0.000000000               0.000000000               0.000000000               0.000000000               0.000000000               0.000000000               0.000000000               0.000000000               0.000000000               0.000000000               0.000000000               0.000000000               0.000000000               0.000000000               0.000000000               0.000000000               0.000000000               0.000000000               0.000000000               0.000000000               0.000000000               0.000000000               0.000000000               0.000000000               0.000000000               0.000000000               0.000000000               0.000000000               0.000000000               0.000000000               0.000000000               0.000000000               0.000000000               0.000000000               0.000000000               0.000000000               0.000000000               0.000000000               0.000000000               0.000000000               0.000000000               0.000000000               0.000000000               0.000000000               0.000000000               0.000000000               0.000000000               0.000000000               0.000000000               0.000000000               0.000000000               0.000000000               0.000000000               0.000000000               0.000000000               0.000000000               0.000000000               0.000000000               0.000000000               0.000000000               0.000000000               0.000000000               0.000000000               0.000000000               0.000000000               0.000000000               0.000000000               0.000000000               0.000000000               0.000000000               0.000000000               0.000000000               0.000000000               0.000000000               0.000000000               0.000000000               0.000000000               0.000000000               0.000000000               0.000000000               0.000000000               0.000000000               0.000000000               0.000000000               0.000000000               0.000000000               0.000000000               0.000000000               0.000000000               0.000000000               0.000000000               0.000000000               0.000000000               0.000000000               0.000000000               0.000000000               0.000000000               0.000000000               0.000000000               0.000000000               0.000000000               0.000000000               0.000000000               0.000000000               0.000000000               0.000000000               0.000000000               0.000000000               0.000000000               0.000000000 </DataArray>
</PointData>
</Piece>
</UnstructuredGrid> </VTKFile>
